%%MatrixMarket matrix coordinate integer general
%
8 5159 40364
1 1 133
1 2 59
1 3 105
1 4 89
1 5 109
1 6 123
1 7 57
1 9 84
1 10 57
1 11 59
1 12 49
1 13 70
1 14 1422
1 15 54
1 16 52
1 17 52
1 18 80
1 19 67
1 20 67
1 21 71
1 22 68
1 23 59
1 24 62
1 25 63
1 26 48
1 27 73
1 28 63
1 29 45
1 30 63
1 31 59
1 32 51
1 33 608
1 34 81
1 35 742
1 36 51
1 37 62
1 38 58
1 39 48
1 40 49
1 41 57
1 42 67
1 43 49
1 44 53
1 45 48
1 46 67
1 47 88
1 48 40
1 49 82
1 50 109
1 51 74
1 52 76
1 53 118
1 54 74
1 55 69
1 56 44
1 57 94
1 58 65
1 59 80
1 60 82
1 61 73
1 62 123
1 63 356
1 64 244
1 65 105
1 66 1391
1 67 105
1 68 111
1 69 125
1 70 84
1 71 62
1 72 55
1 73 699
1 74 117
1 75 155
1 76 71
1 77 88
1 78 122
1 79 73
1 80 55
1 81 333
1 82 50
1 83 38
1 84 85
1 86 57
1 87 85
1 88 68
1 89 56
1 90 659
1 91 59
1 92 2
1 93 593
1 94 48
1 95 25
1 96 49
1 97 72
1 99 83
1 100 66
1 101 92
1 102 82
1 103 47
1 104 145
1 105 73
1 106 76
1 107 52
1 108 160
1 109 59
1 110 58
1 111 44
1 112 61
1 113 55
1 114 54
1 115 72
1 116 65
1 117 706
1 118 60
1 119 60
1 120 68
1 121 41
1 122 63
1 123 66
1 124 44
1 125 48
1 126 46
1 127 56
1 128 85
1 129 70
1 130 76
1 131 75
1 133 68
1 134 643
1 135 63
1 136 107
1 137 64
1 138 74
1 139 58
1 140 77
1 141 90
1 142 112
1 143 85
1 144 81
1 145 64
1 146 58
1 147 81
1 148 131
1 149 278
1 150 62
1 151 114
1 152 63
1 153 79
1 154 67
1 155 95
1 156 53
1 157 252
1 158 170
1 159 62
1 160 62
1 161 738
1 162 60
1 163 81
1 165 60
1 166 421
1 167 55
1 168 62
1 169 218
1 170 80
1 171 65
1 172 48
1 173 32
1 175 62
1 176 71
1 177 70
1 178 63
1 179 69
1 180 42
1 181 1048
1 182 57
1 183 67
1 184 86
1 185 70
1 186 848
1 187 64
1 188 69
1 189 65
1 190 68
1 191 1
1 192 71
1 193 149
1 194 74
1 195 1
1 196 67
1 197 2
1 198 58
1 199 240
1 200 71
1 201 55
1 202 109
1 204 76
1 205 51
1 206 53
1 207 73
1 208 82
1 209 76
1 210 59
1 211 106
1 212 966
1 213 167
1 214 61
1 215 72
1 216 124
1 217 54
1 218 180
1 219 88
1 220 89
1 221 71
1 222 47
1 223 108
1 224 70
1 225 76
1 226 70
1 227 140
1 228 57
1 229 154
1 230 72
1 231 209
1 232 75
1 233 177
1 234 1070
1 235 78
1 236 222
1 237 247
1 238 53
1 239 81
1 240 73
1 241 82
1 242 123
1 243 65
1 244 77
1 245 66
1 246 127
1 247 69
1 248 76
1 249 135
1 250 160
1 251 69
1 252 84
1 253 91
1 254 64
1 256 65
1 257 2
1 258 69
1 259 94
1 260 75
1 261 89
1 262 61
1 263 108
1 264 51
1 265 81
1 266 74
1 267 280
1 268 162
1 269 67
1 270 57
1 271 73
1 272 70
1 273 177
1 274 64
1 275 65
1 276 59
1 277 1
1 278 63
1 279 49
1 280 56
1 281 100
1 282 99
1 283 239
1 284 82
1 285 77
1 286 132
1 287 63
1 288 71
1 289 48
1 290 87
1 291 78
1 292 54
1 293 55
1 294 68
1 295 58
1 296 42
1 297 46
1 298 150
1 299 84
1 300 56
1 301 78
1 302 83
1 303 249
1 304 70
1 305 58
1 306 82
1 307 69
1 308 82
1 309 60
1 310 57
1 311 74
1 312 37
1 313 59
1 314 53
1 315 447
1 316 65
1 317 1017
1 318 2
1 319 80
1 321 69
1 322 63
1 323 126
1 324 55
1 325 67
1 326 54
1 327 80
1 328 79
1 329 74
1 330 83
1 331 76
1 332 73
1 333 73
1 334 487
1 335 151
1 336 143
1 337 1
1 338 936
1 339 71
1 340 91
1 341 76
1 342 104
1 343 67
1 344 77
1 345 74
1 346 160
1 347 100
1 348 76
1 349 62
1 350 158
1 351 64
1 352 75
1 353 86
1 355 45
1 356 73
1 357 62
1 358 80
1 359 71
1 360 79
1 361 92
1 362 88
1 363 93
1 364 63
1 365 127
1 366 120
1 367 68
1 368 120
1 369 153
1 370 67
1 371 80
1 372 96
1 373 21
1 374 178
1 375 56
1 376 37
1 377 49
1 378 843
1 379 93
1 380 1346
1 381 29
1 382 73
1 383 71
1 384 87
1 385 59
1 386 980
1 387 67
1 388 65
1 389 62
1 390 62
1 391 63
1 392 75
1 393 148
1 394 95
1 395 68
1 396 96
1 397 56
1 398 60
1 399 80
1 400 80
1 401 67
1 402 90
1 403 790
1 404 59
1 405 1001
1 406 121
1 407 147
1 408 73
1 409 65
1 410 83
1 411 64
1 412 88
1 413 56
1 414 71
1 415 58
1 416 62
1 417 132
1 419 42
1 420 1
1 421 64
1 422 119
1 423 175
1 424 77
1 425 406
1 426 62
1 427 327
1 428 65
1 429 81
1 430 65
1 431 1
1 432 86
1 433 60
1 434 45
1 435 99
1 436 120
1 437 94
1 438 113
1 439 63
1 440 71
1 441 61
1 442 154
1 443 71
1 444 93
1 445 58
1 446 157
1 447 73
1 448 75
1 449 75
1 450 58
1 451 59
1 452 51
1 453 321
1 454 57
1 455 72
1 456 74
1 457 149
1 458 94
1 459 64
1 460 88
1 461 148
1 462 77
1 463 65
1 464 1201
1 465 83
1 466 65
1 467 63
1 468 42
1 469 140
1 470 73
1 471 149
1 472 85
1 473 90
1 474 49
1 475 70
1 476 77
1 477 1
1 478 169
1 479 54
1 480 94
1 481 202
1 482 84
1 483 62
1 484 93
1 485 76
1 486 96
1 487 68
1 488 67
1 489 59
1 490 88
1 491 57
1 492 118
1 493 181
1 495 100
1 496 94
1 497 124
1 498 58
1 499 55
1 500 62
1 501 33
1 502 61
1 503 5873
1 504 681
1 505 76
1 506 72
1 507 67
1 508 50
1 509 40
1 510 44
1 511 60
1 512 69
1 513 140
1 514 62
1 515 41
1 516 799
1 517 72
1 518 58
1 519 202
1 520 172
1 521 134
1 522 61
1 523 68
1 524 57
1 525 61
1 526 181
1 527 120
1 528 159
1 529 76
1 530 133
1 531 62
1 532 68
1 533 60
1 534 3
1 535 71
1 536 1
1 537 123
1 538 60
1 539 116
1 540 1568
1 541 58
1 542 53
1 543 134
1 544 61
1 545 56
1 546 52
1 547 69
1 548 71
1 549 69
1 550 82
1 551 57
1 552 61
1 553 56
1 554 100
1 555 63
1 556 121
1 557 79
1 558 64
1 559 93
1 560 74
1 561 64
1 562 72
1 563 131
1 564 66
1 565 121
1 566 134
1 567 454
1 568 81
1 569 72
1 570 71
1 571 52
1 572 56
1 573 185
1 574 52
1 575 68
1 576 53
1 577 78
1 578 58
1 579 2
1 580 65
1 581 127
1 583 77
1 584 57
1 585 3
1 586 57
1 587 158
1 588 65
1 589 302
1 590 52
1 591 46
1 592 49
1 593 62
1 594 46
1 595 291
1 596 97
1 597 76
1 598 66
1 599 63
1 600 63
1 601 73
1 602 57
1 604 52
1 605 75
1 606 111
1 607 64
1 608 36
1 609 63
1 610 1102
1 611 74
1 612 64
1 613 44
1 614 563
1 615 60
1 616 68
1 617 1
1 619 899
1 620 57
1 621 71
1 622 52
1 623 62
1 624 66
1 625 41
1 626 58
1 627 212
1 628 94
1 629 68
1 630 49
1 631 142
1 632 322
1 633 58
1 634 72
1 635 49
1 636 49
1 637 70
1 638 79
1 639 940
1 640 71
1 641 61
1 642 52
1 643 207
1 644 86
1 645 375
1 646 67
1 647 63
1 648 59
1 649 82
1 650 66
1 651 78
1 652 80
1 653 58
1 654 68
1 655 72
1 656 75
1 657 66
1 658 69
1 659 943
1 660 121
1 661 49
1 662 49
1 663 49
1 664 60
1 665 63
1 666 351
1 667 50
1 668 61
1 669 81
1 670 51
1 671 160
1 672 77
1 673 54
1 674 83
1 675 58
1 676 113
1 677 81
1 678 56
1 679 55
1 680 1129
1 681 825
1 682 1034
1 683 343
1 684 70
1 685 54
1 686 959
1 687 76
1 688 48
1 689 134
1 690 92
1 691 65
1 693 63
1 694 62
1 695 76
1 696 77
1 697 734
1 698 50
1 699 222
1 700 50
1 701 70
1 702 61
1 703 60
1 704 56
1 705 72
1 706 59
1 707 69
1 708 50
1 709 143
1 710 106
1 711 55
1 712 71
1 713 48
1 714 818
1 715 37
1 716 27
1 717 26
1 718 70
1 719 30
1 720 35
1 721 47
1 722 19
1 723 40
1 724 19
1 725 47
1 726 26
1 727 11
1 728 96
1 729 57
1 730 110
1 731 773
1 732 78
1 733 748
1 734 103
1 735 74
1 736 108
1 737 1
1 738 120
1 739 1130
1 740 63
1 741 82
1 742 222
1 743 90
1 744 87
1 745 70
1 746 61
1 747 1
1 748 67
1 749 74
1 750 77
1 751 88
1 753 1029
1 754 44
1 755 290
1 756 52
1 757 147
1 758 74
1 759 92
1 760 69
1 761 83
1 762 68
1 763 94
1 764 84
1 765 136
1 766 71
1 767 669
1 768 114
1 769 75
1 770 71
1 771 66
1 772 14152
1 773 76
1 774 83
1 775 73
1 776 53
1 777 69
1 778 54
1 779 83
1 780 74
1 781 69
1 782 60
1 783 58
1 784 23
1 785 57
1 786 56
1 787 56
1 788 99
1 789 61
1 790 121
1 791 64
1 792 1385
1 793 58
1 794 187
1 795 86
1 796 72
1 797 49
1 798 69
1 799 64
1 800 66
1 801 46
1 802 48
1 803 51
1 804 68
1 805 65
1 806 63
1 807 73
1 808 258
1 809 63
1 810 755
1 811 146
1 812 82
1 813 53
1 814 157
1 815 187
1 816 51
1 817 51
1 818 138
1 819 131
1 820 72
1 821 70
1 822 55
1 823 91
1 824 75
1 825 89
1 826 50
1 827 66
1 828 59
1 829 72
1 830 76
1 831 78
1 832 130
1 833 63
1 834 67
1 835 121
1 836 63
1 837 57
1 838 89
1 839 59
1 840 72
1 841 66
1 842 93
1 843 67
1 844 71
1 845 84
1 846 28
1 847 142
1 848 3
1 849 53
1 850 68
1 851 36
1 852 55
1 853 92
1 854 38
1 855 941
1 856 60
1 857 62
1 858 48
1 859 67
1 860 1271
1 861 56
1 862 168
1 863 58
1 864 67
1 865 1400
1 867 51
1 868 64
1 869 709
1 870 69
1 871 65
1 872 57
1 873 66
1 874 74
1 875 65
1 876 45
1 877 1451
1 878 97
1 879 70
1 880 72
1 881 49
1 882 164
1 883 71
1 884 869
1 885 59
1 886 33
1 887 39
1 888 61
1 889 57
1 890 54
1 891 1
1 892 41
1 893 38
1 894 38
1 895 159
1 896 50
1 897 288
1 898 151
1 899 57
1 900 113
1 901 33
1 902 47
1 903 1
1 904 64
1 905 1
1 906 28
1 907 111
1 908 75
1 909 67
1 910 78
1 911 45
1 912 119
1 913 52
1 914 56
1 915 38
1 916 761
1 917 45
1 918 64
1 919 67
1 920 57
1 921 41
1 922 71
1 923 87
1 924 54
1 925 56
1 926 78
1 927 61
1 928 67
1 929 73
1 930 47
1 931 486
1 932 61
1 933 58
1 934 71
1 935 96
1 936 64
1 937 58
1 938 83
1 939 111
1 940 793
1 941 66
1 943 60
1 944 995
1 945 64
1 946 72
1 947 59
1 948 61
1 949 77
1 950 74
1 951 96
1 952 54
1 953 52
1 954 56
1 955 49
1 956 119
1 957 70
1 958 76
1 959 58
1 960 1
1 961 63
1 962 2226
1 963 92
1 964 136
1 965 115
1 966 43
1 967 97
1 968 117
1 969 2
1 970 154
1 971 124
1 972 79
1 973 282
1 974 202
1 975 82
1 976 2
1 977 74
1 978 94
1 979 44
1 980 83
1 981 77
1 982 60
1 983 77
1 984 60
1 985 208
1 986 61
1 987 66
1 988 72
1 989 85
1 990 140
1 992 119
1 993 70
1 994 74
1 995 39
1 996 109
1 997 108
1 998 66
1 999 71
1 1000 67
1 1001 74
1 1002 84
1 1003 938
1 1004 695
1 1005 57
1 1006 812
1 1007 56
1 1008 51
1 1009 109
1 1010 59
1 1011 83
1 1012 50
1 1013 802
1 1014 60
1 1015 93
1 1016 71
1 1017 47
1 1018 144
1 1019 69
1 1020 53
1 1021 1
1 1022 81
1 1023 81
1 1024 1007
1 1025 1226
1 1026 1
1 1027 65
1 1028 78
1 1029 74
1 1030 60
1 1031 71
1 1032 46
1 1033 61
1 1034 63
1 1035 62
1 1036 55
1 1037 68
1 1038 64
1 1039 47
1 1040 77
1 1041 44
1 1042 149
1 1043 57
1 1044 65
1 1045 118
1 1046 68
1 1047 50
1 1048 64
1 1049 59
1 1050 40
1 1051 61
1 1052 94
1 1053 643
1 1054 82
1 1055 1056
1 1056 60
1 1057 704
1 1058 61
1 1059 54
1 1060 67
1 1061 50
1 1062 62
1 1063 944
1 1064 63
1 1065 69
1 1066 58
1 1067 74
1 1068 82
1 1069 49
1 1070 63
1 1071 49
1 1072 67
1 1073 13
1 1074 4
1 1075 52
1 1076 50
1 1077 40
1 1078 2
1 1079 48
1 1080 165
1 1081 57
1 1082 55
1 1083 812
1 1084 78
1 1085 56
1 1086 54
1 1087 80
1 1088 70
1 1089 52
1 1090 56
1 1091 332
1 1092 202
1 1093 105
1 1094 151
1 1095 2
1 1096 44
1 1097 55
1 1098 84
1 1099 61
1 1100 226
1 1101 51
1 1102 54
1 1103 486
1 1104 130
1 1105 67
1 1106 66
1 1107 56
1 1108 47
1 1109 57
1 1110 61
1 1111 65
1 1112 79
1 1113 44
1 1114 52
1 1115 80
1 1116 67
1 1117 72
1 1118 90
1 1119 126
1 1120 55
1 1121 46
1 1122 212
1 1123 59
1 1124 63
1 1125 58
1 1126 68
1 1127 331
1 1128 50
1 1129 66
1 1130 61
1 1131 51
1 1132 49
1 1133 45
1 1134 111
1 1135 47
1 1136 41
1 1137 177
1 1138 48
1 1139 54
1 1140 40
1 1141 42
1 1142 52
1 1143 81
1 1144 62
1 1145 69
1 1146 162
1 1147 65
1 1148 67
1 1149 57
1 1150 62
1 1151 60
1 1152 140
1 1153 75
1 1154 73
1 1155 67
1 1156 72
1 1157 71
1 1158 60
1 1159 60
1 1160 72
1 1161 4
1 1162 69
1 1163 71
1 1164 74
1 1165 304
1 1166 69
1 1168 61
1 1169 175
1 1170 52
1 1171 54
1 1172 151
1 1173 54
1 1174 50
1 1175 118
1 1176 62
1 1177 625
1 1179 64
1 1180 47
1 1181 1034
1 1182 90
1 1183 242
1 1184 65
1 1185 96
1 1186 52
1 1187 79
1 1188 82
1 1189 1198
1 1190 77
1 1191 85
1 1192 46
1 1193 65
1 1194 63
1 1195 68
1 1196 84
1 1197 65
1 1198 49
1 1199 213
1 1202 1
1 1203 1
1 1204 67
1 1205 819
1 1206 63
1 1207 63
1 1209 69
1 1210 52
1 1211 245
1 1212 1
1 1214 66
1 1215 52
1 1216 69
1 1217 148
1 1218 56
1 1220 794
1 1221 206
1 1222 126
1 1223 207
1 1224 59
1 1225 74
1 1226 356
1 1227 51
1 1228 73
1 1229 1256
1 1230 83
1 1231 1
1 1232 75
1 1233 79
1 1234 54
1 1235 96
1 1236 181
1 1237 88
1 1238 56
1 1239 182
1 1240 74
1 1241 73
1 1242 72
1 1243 88
1 1244 74
1 1245 59
1 1246 142
1 1247 52
1 1248 84
1 1249 692
1 1250 66
1 1251 1
1 1252 1199
1 1253 68
1 1254 85
1 1255 52
1 1256 58
1 1257 2900
1 1258 59
1 1259 23
1 1260 88
1 1261 70
1 1262 69
1 1263 71
1 1264 75
1 1265 44
1 1266 113
1 1267 66
1 1268 64
1 1269 60
1 1270 75
1 1271 83
1 1272 61
1 1273 75
1 1274 88
1 1275 62
1 1276 78
1 1277 79
1 1278 141
1 1279 94
1 1280 111
1 1281 71
1 1282 94
1 1283 53
1 1284 67
1 1285 982
1 1286 261
1 1287 66
1 1288 299
1 1289 75
1 1290 162
1 1291 325
1 1292 45
1 1293 67
1 1294 69
1 1295 67
1 1296 1
1 1297 71
1 1298 55
1 1299 81
1 1300 61
1 1301 1343
1 1302 67
1 1303 102
1 1304 71
1 1305 56
1 1306 57
1 1307 57
1 1308 181
1 1309 60
1 1310 57
1 1311 46
1 1312 89
1 1313 108
1 1314 150
1 1315 104
1 1316 158
1 1317 62
1 1318 60
1 1319 63
1 1320 77
1 1321 80
1 1322 70
1 1323 77
1 1324 83
1 1325 71
1 1326 87
1 1327 59
1 1328 102
1 1329 59
1 1330 56
1 1331 79
1 1332 1211
1 1333 83
1 1334 219
1 1335 46
1 1336 134
1 1337 54
1 1338 81
1 1339 234
1 1340 122
1 1341 134
1 1342 50
1 1343 58
1 1344 71
1 1345 94
1 1346 119
1 1347 94
1 1348 61
1 1349 1
1 1350 64
1 1351 1464
1 1352 141
1 1353 69
1 1356 190
1 1357 64
1 1358 59
1 1359 66
1 1360 62
1 1361 57
1 1362 400
1 1363 82
1 1364 51
1 1365 61
1 1366 99
1 1367 66
1 1368 203
1 1369 85
1 1370 1303
1 1371 81
1 1373 75
1 1374 60
1 1375 71
1 1376 70
1 1377 62
1 1378 85
1 1379 215
1 1380 50
1 1381 2
1 1382 115
1 1383 90
1 1384 1
1 1385 61
1 1386 95
1 1388 78
1 1389 51
1 1390 159
1 1391 54
1 1392 77
1 1393 59
1 1394 1437
1 1395 58
1 1396 95
1 1397 119
1 1398 167
1 1399 99
1 1400 177
1 1401 132
1 1402 68
1 1403 71
1 1404 789
1 1405 79
1 1406 83
1 1408 67
1 1409 71
1 1410 72
1 1411 37
1 1412 1
1 1413 89
1 1414 851
1 1415 82
1 1416 65
1 1417 2261
1 1418 57
1 1419 79
1 1420 867
1 1421 78
1 1422 77
1 1423 53
1 1424 42
1 1425 73
1 1426 161
1 1427 67
1 1428 57
1 1430 74
1 1431 79
1 1432 56
1 1433 337
1 1434 46
1 1435 72
1 1436 798
1 1437 46
1 1438 57
1 1439 54
1 1440 78
1 1441 49
1 1442 49
1 1443 47
1 1444 76
1 1445 45
1 1446 1796
1 1447 49
1 1448 37
1 1449 199
1 1450 1
1 1451 86
1 1452 72
1 1453 65
1 1454 80
1 1455 78
1 1456 68
1 1457 62
1 1458 1572
1 1459 1016
1 1460 49
1 1461 47
1 1462 117
1 1463 62
1 1464 28
1 1466 72
1 1467 73
1 1468 55
1 1469 62
1 1470 70
1 1471 142
1 1472 649
1 1473 81
1 1474 48
1 1475 75
1 1476 76
1 1477 71
1 1478 55
1 1479 40
1 1480 145
1 1481 66
1 1482 1371
1 1483 55
1 1484 65
1 1485 1115
1 1486 68
1 1487 57
1 1488 56
1 1489 60
1 1490 93
1 1491 428
1 1492 63
1 1493 105
1 1494 74
1 1495 67
1 1496 825
1 1497 46
1 1498 128
1 1499 75
1 1500 756
1 1502 40
1 1503 76
1 1504 60
1 1505 1080
1 1506 148
1 1507 119
1 1508 57
1 1509 2
1 1510 198
1 1511 228
1 1512 98
1 1514 68
1 1515 83
1 1516 58
1 1517 213
1 1518 64
1 1519 94
1 1520 64
1 1521 68
1 1522 101
1 1523 58
1 1524 115
1 1525 71
1 1526 60
1 1527 82
1 1528 65
1 1529 61
1 1530 56
1 1531 70
1 1532 56
1 1533 70
1 1534 164
1 1535 66
1 1536 97
1 1537 58
1 1538 1200
1 1539 71
1 1540 102
1 1541 55
1 1542 63
1 1543 83
1 1544 293
1 1545 189
1 1546 77
1 1547 49
1 1548 51
1 1549 53
1 1550 114
1 1551 37
1 1552 67
1 1553 76
1 1554 67
1 1555 57
1 1556 47
1 1557 70
1 1558 53
1 1560 66
1 1561 83
1 1562 219
1 1563 91
1 1564 65
1 1565 101
1 1566 77
1 1567 69
1 1568 130
1 1569 125
1 1570 652
1 1571 76
1 1572 142
1 1573 59
1 1574 95
1 1575 153
1 1576 55
1 1577 119
1 1578 82
1 1579 56
1 1580 179
1 1581 97
1 1582 61
1 1583 75
1 1584 85
1 1585 125
1 1586 113
1 1587 245
1 1588 87
1 1589 55
1 1590 924
1 1591 66
1 1592 45
1 1593 115
1 1594 86
1 1595 52
1 1596 74
1 1597 61
1 1598 68
1 1599 59
1 1600 65
1 1601 85
1 1602 81
1 1603 105
1 1605 75
1 1606 61
1 1607 31
1 1608 58
1 1609 41
1 1611 68
1 1612 62
1 1613 60
1 1614 70
1 1615 114
1 1616 45
1 1617 61
1 1618 82
1 1619 955
1 1620 1
1 1621 78
1 1622 579
1 1623 124
1 1624 57
1 1625 65
1 1626 71
1 1627 502
1 1628 58
1 1629 67
1 1630 68
1 1631 74
1 1632 763
1 1633 39
1 1634 78
1 1635 85
1 1636 84
1 1637 72
1 1638 71
1 1639 68
1 1640 83
1 1641 87
1 1642 181
1 1643 68
1 1644 67
1 1645 89
1 1646 67
1 1647 61
1 1648 186
1 1649 155
1 1650 77
1 1651 63
1 1652 157
1 1653 83
1 1654 81
1 1655 65
1 1656 34
1 1657 47
1 1658 84
1 1659 54
1 1660 40
1 1661 540
1 1662 497
1 1663 1
1 1664 52
1 1665 58
1 1666 58
1 1667 69
1 1668 77
1 1669 66
1 1670 48
1 1671 62
1 1672 60
1 1673 71
1 1674 66
1 1675 92
1 1676 76
1 1677 64
1 1678 51
1 1679 98
1 1680 51
1 1681 72
1 1682 71
1 1683 67
1 1684 58
1 1685 934
1 1686 69
1 1687 126
1 1688 78
1 1689 57
1 1690 41
1 1691 60
1 1692 69
1 1693 105
1 1694 51
1 1695 951
1 1696 40
1 1697 64
1 1698 2
1 1699 88
1 1700 87
1 1701 78
1 1702 61
1 1703 33
1 1704 65
1 1705 48
1 1706 59
1 1707 93
1 1708 1
1 1709 63
1 1710 94
1 1711 109
1 1712 73
1 1713 102
1 1714 73
1 1715 64
1 1716 74
1 1717 124
1 1718 52
1 1719 194
1 1720 68
1 1721 815
1 1722 52
1 1723 53
1 1724 78
1 1725 170
1 1726 275
1 1727 63
1 1728 71
1 1729 62
1 1730 63
1 1731 82
1 1732 58
1 1733 63
1 1734 134
1 1735 6
1 1737 61
1 1738 53
1 1739 240
1 1740 74
1 1741 60
1 1742 60
1 1743 70
1 1744 76
1 1745 523
1 1746 1
1 1747 57
1 1748 159
1 1749 69
1 1750 59
1 1751 54
1 1752 78
1 1753 1093
1 1754 73
1 1755 962
1 1756 112
1 1757 1747
1 1758 50
1 1759 65
1 1760 42
1 1761 67
1 1762 80
1 1763 1439
1 1764 105
1 1765 65
1 1766 50
1 1767 641
1 1768 45
1 1769 194
1 1770 53
1 1771 77
1 1772 55
1 1773 107
1 1774 54
1 1775 59
1 1777 120
1 1778 49
1 1779 95
1 1780 64
1 1781 986
1 1782 79
1 1783 134
1 1784 792
1 1785 50
1 1786 64
1 1787 416
1 1788 80
1 1789 69
1 1790 76
1 1791 93
1 1792 63
1 1793 73
1 1794 46
1 1795 74
1 1796 112
1 1797 102
1 1798 2
1 1799 52
1 1800 67
1 1801 383
1 1802 59
1 1803 47
1 1804 72
1 1805 74
1 1806 72
1 1807 107
1 1809 50
1 1810 48
1 1811 59
1 1812 69
1 1813 44
1 1814 63
1 1815 52
1 1816 57
1 1817 67
1 1818 789
1 1819 73
1 1820 76
1 1821 69
1 1822 76
1 1823 1306
1 1824 68
1 1825 128
1 1826 51
1 1827 310
1 1828 73
1 1829 61
1 1830 60
1 1831 66
1 1832 1283
1 1833 53
1 1834 124
1 1835 39
1 1836 57
1 1837 57
1 1838 696
1 1839 63
1 1840 65
1 1841 91
1 1842 94
1 1843 68
1 1844 164
1 1845 1
1 1846 45
1 1847 64
1 1848 56
1 1849 72
1 1850 160
1 1851 316
1 1852 44
1 1853 67
1 1854 65
1 1855 86
1 1856 727
1 1857 58
1 1858 65
1 1859 68
1 1860 1
1 1861 53
1 1862 77
1 1863 68
1 1864 61
1 1865 89
1 1866 57
1 1867 63
1 1868 2303
1 1869 74
1 1870 121
1 1871 52
1 1872 88
1 1873 1
1 1874 78
1 1875 73
1 1876 916
1 1877 76
1 1878 69
1 1879 68
1 1880 58
1 1881 46
1 1882 63
1 1884 96
1 1885 61
1 1886 70
1 1887 65
1 1888 52
1 1889 237
1 1890 43
1 1891 80
1 1892 110
1 1893 67
1 1894 70
1 1895 56
1 1896 870
1 1897 78
1 1898 57
1 1900 84
1 1901 56
1 1902 87
1 1903 63
1 1904 78
1 1905 70
1 1906 57
1 1907 59
1 1908 56
1 1909 113
1 1910 122
1 1911 53
1 1912 64
1 1913 74
1 1914 63
1 1915 133
1 1916 57
1 1917 55
1 1918 58
1 1919 78
1 1920 63
1 1921 57
1 1922 166
1 1923 118
1 1924 59
1 1925 52
1 1926 75
1 1927 46
1 1928 63
1 1929 55
1 1930 47
1 1931 52
1 1932 55
1 1933 41
1 1934 64
1 1935 67
1 1936 359
1 1937 244
1 1938 44
1 1939 74
1 1940 69
1 1941 66
1 1942 63
1 1943 74
1 1944 85
1 1945 73
1 1946 57
1 1947 62
1 1948 61
1 1949 141
1 1950 40
1 1951 79
1 1952 53
1 1953 110
1 1954 863
1 1955 97
1 1956 78
1 1957 88
1 1960 82
1 1961 74
1 1962 81
1 1963 64
1 1964 88
1 1965 73
1 1966 85
1 1967 4
1 1968 72
1 1969 54
1 1970 47
1 1971 64
1 1972 76
1 1973 52
1 1974 100
1 1975 139
1 1976 25
1 1977 80
1 1978 92
1 1979 65
1 1980 67
1 1981 93
1 1982 208
1 1983 75
1 1984 58
1 1985 69
1 1986 47
1 1987 72
1 1988 88
1 1989 67
1 1990 104
1 1991 276
1 1992 32
1 1993 69
1 1994 65
1 1995 64
1 1996 70
1 1997 62
1 1998 82
1 1999 100
1 2000 63
1 2001 70
1 2002 192
1 2003 1416
1 2004 588
1 2005 50
1 2006 59
1 2007 95
1 2008 140
1 2009 75
1 2010 1
1 2011 21
1 2012 79
1 2013 62
1 2014 76
1 2015 88
1 2016 66
1 2017 57
1 2018 48
1 2019 66
1 2020 282
1 2021 54
1 2022 71
1 2023 91
1 2024 63
1 2025 69
1 2026 67
1 2027 64
1 2028 70
1 2029 72
1 2030 1370
1 2031 64
1 2032 53
1 2033 52
1 2034 62
1 2035 83
1 2036 70
1 2037 60
1 2038 110
1 2039 63
1 2040 69
1 2041 71
1 2042 16
1 2043 110
1 2044 54
1 2045 68
1 2046 62
1 2047 86
1 2048 53
1 2049 60
1 2050 71
1 2051 46
1 2052 63
1 2053 49
1 2054 69
1 2055 115
1 2056 69
1 2057 65
1 2058 63
1 2059 59
1 2060 73
1 2061 72
1 2062 214
1 2063 71
1 2064 64
1 2065 64
1 2066 168
1 2067 69
1 2068 85
1 2069 157
1 2070 76
1 2071 174
1 2072 69
1 2073 79
1 2074 80
1 2075 78
1 2076 2
1 2077 204
1 2078 89
1 2079 58
1 2080 49
1 2081 71
1 2082 346
1 2083 57
1 2084 55
1 2085 93
1 2086 115
1 2087 80
1 2088 49
1 2089 15
1 2090 1012
1 2091 50
1 2092 24
1 2093 95
1 2094 65
1 2095 74
1 2096 1570
1 2097 61
1 2098 57
1 2099 1
1 2100 51
1 2101 56
1 2102 73
1 2103 56
1 2104 25
1 2105 77
1 2106 80
1 2107 62
1 2108 59
1 2109 47
1 2110 73
1 2111 76
1 2112 59
1 2113 47
1 2114 66
1 2116 51
1 2117 70
1 2118 74
1 2120 113
1 2121 63
1 2122 63
1 2123 63
1 2124 81
1 2125 71
1 2126 89
1 2127 57
1 2128 53
1 2129 55
1 2130 45
1 2131 1
1 2132 58
1 2133 138
1 2134 54
1 2135 31
1 2136 50
1 2137 99
1 2138 37
1 2139 120
1 2140 50
1 2141 3
1 2142 59
1 2143 78
1 2144 52
1 2145 58
1 2146 59
1 2147 126
1 2148 166
1 2149 277
1 2150 90
1 2151 73
1 2152 77
1 2153 78
1 2154 134
1 2155 67
1 2156 138
1 2157 61
1 2158 76
1 2159 40
1 2160 32
1 2161 61
1 2162 87
1 2163 82
1 2164 224
1 2165 50
1 2166 52
1 2167 334
1 2168 59
1 2169 52
1 2170 77
1 2171 60
1 2172 92
1 2173 48
1 2174 1508
1 2175 45
1 2176 71
1 2177 54
1 2178 43
1 2179 59
1 2180 62
1 2181 92
1 2182 1
1 2183 1
1 2184 60
1 2185 66
1 2186 69
1 2187 56
1 2188 70
1 2189 109
1 2190 2
1 2191 181
1 2192 231
1 2193 1043
1 2194 50
1 2195 108
1 2196 64
1 2197 140
1 2198 121
1 2199 205
1 2200 51
1 2201 108
1 2202 44
1 2203 46
1 2205 63
1 2206 53
1 2207 60
1 2208 45
1 2209 65
1 2210 58
1 2211 49
1 2212 1097
1 2213 48
1 2214 613
1 2215 57
1 2216 53
1 2217 57
1 2218 41
1 2219 85
1 2220 72
1 2221 67
1 2222 2
1 2223 2
1 2224 8
1 2225 4
1 2226 22
1 2227 5
1 2228 6
1 2229 11
1 2230 38
1 2231 7
1 2232 4
1 2233 4
1 2234 2
1 2235 7
1 2236 6
1 2237 6
1 2238 43
1 2239 43
1 2240 45
1 2241 28
1 2242 44
1 2243 201
1 2244 41
1 2245 56
1 2246 69
1 2247 43
1 2248 159
1 2249 27
1 2250 78
1 2251 42
1 2252 29
1 2253 31
1 2254 549
1 2255 55
1 2256 98
1 2257 78
1 2258 66
1 2259 845
1 2260 54
1 2261 58
1 2262 195
1 2263 61
1 2264 143
1 2265 63
1 2266 68
1 2267 76
1 2268 66
1 2269 54
1 2270 64
1 2271 127
1 2272 70
1 2273 42
1 2274 79
1 2275 39
1 2276 39
1 2277 66
1 2278 43
1 2279 114
1 2280 45
1 2281 611
1 2282 63
1 2283 74
1 2284 66
1 2285 3
1 2286 70
1 2287 107
1 2288 44
1 2289 65
1 2290 63
1 2291 1303
1 2292 130
1 2293 44
1 2294 78
1 2295 62
1 2296 63
1 2297 73
1 2298 65
1 2299 52
1 2300 63
1 2301 308
1 2302 72
1 2303 104
1 2304 66
1 2305 2
1 2306 14
1 2307 75
1 2308 51
1 2309 65
1 2310 70
1 2311 76
1 2312 57
1 2313 61
1 2314 79
1 2315 60
1 2316 2
1 2317 71
1 2318 60
1 2319 3
1 2320 47
1 2321 72
1 2322 48
1 2323 63
1 2324 62
1 2325 90
1 2326 62
1 2327 47
1 2328 66
1 2329 82
1 2330 135
1 2331 97
1 2332 57
1 2333 62
1 2334 128
1 2335 63
1 2336 59
1 2337 72
1 2338 80
1 2339 104
1 2340 54
1 2341 66
1 2342 64
1 2343 89
1 2344 59
1 2345 49
1 2347 2
1 2348 62
1 2349 75
1 2350 59
1 2351 76
1 2352 54
1 2353 121
1 2354 182
1 2355 55
1 2356 67
1 2357 59
1 2358 196
1 2359 72
1 2360 74
1 2361 669
1 2362 816
1 2363 48
1 2364 24
1 2365 71
1 2366 64
1 2367 68
1 2368 90
1 2369 76
1 2370 78
1 2371 490
1 2372 48
1 2373 56
1 2374 56
1 2375 67
1 2376 194
1 2377 57
1 2378 50
1 2379 63
1 2380 114
1 2381 107
1 2382 64
1 2383 59
1 2384 1
1 2385 97
1 2386 54
1 2387 81
1 2388 55
1 2389 2
1 2390 52
1 2391 85
1 2392 74
1 2393 72
1 2394 51
1 2396 138
1 2397 51
1 2398 80
1 2399 59
1 2400 77
1 2401 61
1 2402 1208
1 2403 76
1 2404 40
1 2405 87
1 2406 188
1 2407 54
1 2408 62
1 2409 66
1 2410 123
1 2411 64
1 2412 65
1 2413 114
1 2414 79
1 2415 69
1 2416 85
1 2417 63
1 2418 55
1 2419 57
1 2420 54
1 2421 64
1 2422 59
1 2423 19
1 2424 56
1 2425 77
1 2426 383
1 2427 986
1 2428 696
1 2429 51
1 2430 77
1 2431 81
1 2432 56
1 2433 155
1 2434 63
1 2435 72
1 2436 104
1 2437 57
1 2438 57
1 2439 131
1 2440 78
1 2441 65
1 2442 94
1 2443 79
1 2444 106
1 2445 69
1 2446 1197
1 2447 51
1 2448 122
1 2449 80
1 2450 78
1 2451 66
1 2452 97
1 2453 188
1 2454 71
1 2455 87
1 2456 73
1 2457 64
1 2458 79
1 2459 54
1 2460 119
1 2461 84
1 2462 534
1 2463 55
1 2464 74
1 2465 69
1 2466 77
1 2467 56
1 2468 53
1 2469 73
1 2470 60
1 2471 80
1 2473 70
1 2474 60
1 2475 231
1 2476 53
1 2477 155
1 2478 49
1 2479 61
1 2480 63
1 2481 45
1 2482 72
1 2483 512
1 2484 59
1 2485 125
1 2486 129
1 2487 34
1 2488 922
1 2489 85
1 2490 54
1 2491 94
1 2492 65
1 2493 77
1 2494 1096
1 2495 49
1 2496 44
1 2497 70
1 2498 155
1 2499 109
1 2500 96
1 2501 49
1 2502 66
1 2503 51
1 2504 57
1 2505 114
1 2506 222
1 2507 69
1 2508 81
1 2509 150
1 2510 49
1 2511 59
1 2512 58
1 2513 50
1 2514 43
1 2515 69
1 2516 42
1 2517 127
1 2518 70
1 2519 61
1 2520 302
1 2521 74
1 2522 113
1 2523 54
1 2524 85
1 2525 80
1 2526 54
1 2527 63
1 2528 79
1 2529 2
1 2530 60
1 2531 59
1 2532 707
1 2533 69
1 2534 68
1 2535 61
1 2536 65
1 2537 121
1 2538 58
1 2539 66
1 2540 71
1 2541 68
1 2542 53
1 2543 139
1 2544 61
1 2545 78
1 2546 75
1 2547 85
1 2548 68
1 2549 59
1 2550 78
1 2552 101
1 2553 74
1 2554 60
1 2555 57
1 2556 71
1 2557 103
1 2558 81
1 2559 43
1 2560 94
1 2562 97
1 2563 61
1 2564 60
1 2565 61
1 2566 52
1 2567 71
1 2568 64
1 2569 46
1 2570 358
1 2571 60
1 2572 141
1 2573 896
1 2574 124
1 2575 78
1 2576 26
1 2577 678
1 2578 65
1 2579 54
1 2580 1
1 2581 28
1 2582 57
1 2583 71
1 2584 79
1 2585 2
1 2586 100
1 2587 73
1 2588 125
1 2589 175
1 2590 49
1 2591 67
1 2592 48
1 2593 121
1 2594 65
1 2595 76
1 2596 54
1 2597 41
1 2598 43
1 2600 63
1 2601 71
1 2602 798
1 2603 73
1 2604 54
1 2605 80
1 2606 59
1 2607 84
1 2608 118
1 2609 361
1 2610 59
1 2611 61
1 2612 85
1 2613 62
1 2614 57
1 2615 42
1 2616 95
1 2617 79
1 2618 173
1 2619 58
1 2620 57
1 2621 63
1 2622 63
1 2623 41
1 2624 67
1 2625 67
1 2626 97
1 2627 68
1 2628 57
1 2629 112
1 2630 79
1 2631 154
1 2632 49
1 2633 1061
1 2634 52
1 2635 18
1 2636 62
1 2637 118
1 2638 242
1 2639 1218
1 2640 251
1 2641 55
1 2642 68
1 2643 115
1 2644 55
1 2645 703
1 2646 64
1 2647 595
1 2648 69
1 2649 45
1 2651 68
1 2652 43
1 2653 33
1 2654 55
1 2655 1630
1 2656 55
1 2657 65
1 2658 63
1 2659 60
1 2660 69
1 2661 71
1 2662 60
1 2663 66
1 2664 126
1 2665 49
1 2666 82
1 2667 59
1 2668 48
1 2669 61
1 2670 52
1 2671 64
1 2672 48
1 2673 980
1 2674 41
1 2675 51
1 2676 54
1 2677 41
1 2678 131
1 2679 115
1 2680 49
1 2681 1
1 2682 64
1 2683 3
1 2684 69
1 2685 55
1 2686 94
1 2687 54
1 2688 94
1 2689 62
1 2690 60
1 2691 1210
1 2692 63
1 2693 61
1 2694 33
1 2695 51
1 2696 47
1 2697 39
1 2698 59
1 2699 33
1 2700 49
1 2701 134
1 2703 33
1 2704 43
1 2705 43
1 2706 38
1 2707 56
1 2708 425
1 2709 64
1 2710 33
1 2711 49
1 2712 157
1 2713 106
1 2714 50
1 2715 89
1 2716 55
1 2717 58
1 2718 57
1 2719 52
1 2721 44
1 2722 54
1 2723 69
1 2724 110
1 2725 32
1 2726 47
1 2727 48
1 2728 118
1 2729 59
1 2730 57
1 2731 83
1 2732 575
1 2733 59
1 2734 49
1 2735 60
1 2737 41
1 2738 51
1 2739 62
1 2740 870
1 2741 65
1 2742 52
1 2743 49
1 2744 49
1 2745 56
1 2746 44
1 2747 62
1 2748 46
1 2749 43
1 2750 3
1 2751 102
1 2752 38
1 2753 159
1 2754 85
1 2755 44
1 2756 57
1 2757 80
1 2758 49
1 2759 43
1 2760 49
1 2761 46
1 2762 488
1 2763 69
1 2765 39
1 2766 47
1 2767 44
1 2768 171
1 2769 43
1 2770 829
1 2771 41
1 2772 43
1 2773 40
1 2774 53
1 2775 53
1 2776 52
1 2777 729
1 2778 576
1 2779 40
1 2780 60
1 2781 27
1 2782 37
1 2783 56
1 2784 71
1 2785 52
1 2786 102
1 2787 69
1 2788 66
1 2789 103
1 2790 232
1 2791 149
1 2792 56
1 2793 145
1 2794 47
1 2795 127
1 2796 52
1 2797 43
1 2798 65
1 2799 37
1 2800 50
1 2801 58
1 2802 53
1 2803 862
1 2804 769
1 2805 79
1 2806 106
1 2807 47
1 2808 72
1 2809 62
1 2810 84
1 2811 49
1 2812 57
1 2813 50
1 2814 59
1 2815 52
1 2816 760
1 2817 203
1 2818 55
1 2819 123
1 2820 62
1 2821 59
1 2822 50
1 2823 40
1 2824 43
1 2825 94
1 2826 82
1 2827 48
1 2828 746
1 2829 99
1 2830 119
1 2831 52
1 2832 104
1 2833 175
1 2834 46
1 2835 57
1 2836 51
1 2837 42
1 2838 77
1 2839 64
1 2840 43
1 2841 57
1 2842 1
1 2843 48
1 2844 47
1 2845 53
1 2846 36
1 2847 49
1 2848 70
1 2849 92
1 2850 48
1 2851 32
1 2852 30
1 2853 45
1 2854 10
1 2855 48
1 2856 42
1 2857 60
1 2858 54
1 2859 667
1 2861 56
1 2862 155
1 2863 38
1 2864 42
1 2865 46
1 2866 149
1 2867 63
1 2868 35
1 2869 65
1 2870 921
1 2871 51
1 2872 47
1 2873 59
1 2874 53
1 2875 94
1 2876 54
1 2877 49
1 2878 111
1 2879 68
1 2880 53
1 2881 61
1 2882 174
1 2883 52
1 2884 871
1 2885 58
1 2887 47
1 2888 43
1 2889 52
1 2890 52
1 2891 46
1 2892 52
1 2893 38
1 2894 776
1 2895 110
1 2896 558
1 2897 87
1 2898 57
1 2899 161
1 2900 61
1 2901 58
1 2902 70
1 2903 69
1 2904 1
1 2905 189
1 2906 69
1 2907 48
1 2908 13
1 2909 47
1 2910 69
1 2911 66
1 2912 57
1 2913 380
1 2914 45
1 2915 71
1 2916 93
1 2917 50
1 2918 50
1 2919 49
1 2920 61
1 2921 48
1 2922 2
1 2923 53
1 2924 48
1 2925 63
1 2926 61
1 2927 61
1 2928 44
1 2929 540
1 2930 883
1 2931 857
1 2932 98
1 2933 101
1 2934 248
1 2935 51
1 2936 132
1 2937 50
1 2938 49
1 2939 53
1 2940 54
1 2941 44
1 2942 55
1 2943 174
1 2944 51
1 2945 41
1 2946 52
1 2947 41
1 2948 600
1 2949 37
1 2950 45
1 2951 53
1 2952 55
1 2953 58
1 2954 53
1 2955 176
1 2956 50
1 2957 551
1 2958 34
1 2959 63
1 2960 52
1 2961 39
1 2962 44
1 2963 66
1 2964 60
1 2965 52
1 2966 57
1 2967 64
1 2968 66
1 2969 48
1 2970 79
1 2971 75
1 2972 88
1 2973 50
1 2974 43
1 2975 92
1 2976 34
1 2977 53
1 2978 37
1 2979 23
1 2980 18
1 2981 174
1 2982 40
1 2983 51
1 2984 35
1 2985 45
1 2986 287
1 2987 73
1 2988 114
1 2989 44
1 2990 50
1 2991 41
1 2992 114
1 2993 48
1 2994 43
1 2995 41
1 2996 36
1 2997 912
1 2999 36
1 3000 45
1 3001 54
1 3002 1
1 3003 66
1 3004 38
1 3005 52
1 3006 36
1 3007 1
1 3008 88
1 3009 58
1 3010 57
1 3011 48
1 3012 43
1 3013 4
1 3014 43
1 3015 50
1 3016 42
1 3017 40
1 3018 48
1 3019 45
1 3020 1
1 3021 101
1 3022 882
1 3023 84
1 3024 64
1 3025 66
1 3026 143
1 3027 459
1 3028 672
1 3029 351
1 3030 54
1 3031 34
1 3032 709
1 3033 160
1 3034 802
1 3035 36
1 3036 35
1 3037 51
1 3038 147
1 3039 61
1 3040 43
1 3041 50
1 3042 80
1 3043 36
1 3044 38
1 3045 39
1 3046 163
1 3047 47
1 3048 48
1 3049 53
1 3050 282
1 3051 52
1 3052 52
1 3053 50
1 3054 43
1 3055 54
1 3056 933
1 3057 47
1 3058 53
1 3059 44
1 3060 51
1 3061 49
1 3062 55
1 3063 19
1 3064 52
1 3065 94
1 3066 34
1 3067 46
1 3068 47
1 3069 45
1 3070 98
1 3071 39
1 3072 45
1 3073 28
1 3074 47
1 3075 38
1 3076 811
1 3077 226
1 3078 139
1 3079 80
1 3080 40
1 3081 62
1 3082 2
1 3083 56
1 3084 92
1 3085 43
1 3087 50
1 3088 41
1 3089 58
1 3090 43
1 3091 41
1 3092 46
1 3093 63
1 3094 88
1 3095 86
1 3096 303
1 3097 36
1 3098 30
1 3099 48
1 3100 71
1 3101 47
1 3102 32
1 3103 59
1 3104 27
1 3105 57
1 3106 69
1 3107 36
1 3108 48
1 3109 50
1 3110 46
1 3111 36
1 3112 467
1 3113 89
1 3114 91
1 3115 45
1 3116 58
1 3117 27
1 3118 37
1 3119 42
1 3120 49
1 3121 102
1 3122 53
1 3123 43
1 3124 49
1 3125 40
1 3126 36
1 3127 55
1 3128 43
1 3129 47
1 3130 53
1 3131 54
1 3132 39
1 3133 66
1 3135 53
1 3136 87
1 3137 47
1 3138 56
1 3139 58
1 3140 43
1 3141 46
1 3142 75
1 3143 86
1 3144 559
1 3145 49
1 3146 84
1 3147 56
1 3148 37
1 3149 45
1 3150 33
1 3151 51
1 3152 59
1 3153 42
1 3154 53
1 3155 50
1 3156 543
1 3157 55
1 3158 46
1 3159 36
1 3160 106
1 3161 43
1 3162 55
1 3163 46
1 3165 41
1 3166 46
1 3167 39
1 3168 57
1 3169 52
1 3170 52
1 3171 153
1 3172 46
1 3173 37
1 3174 98
1 3175 708
1 3176 54
1 3177 138
1 3178 42
1 3180 55
1 3181 73
1 3182 80
1 3183 48
1 3184 63
1 3185 52
1 3186 57
1 3187 43
1 3188 101
1 3189 338
1 3190 45
1 3191 75
1 3192 56
1 3193 51
1 3194 81
1 3195 120
1 3196 82
1 3197 40
1 3198 51
1 3199 68
1 3200 54
1 3201 37
1 3202 60
1 3203 43
1 3204 177
1 3205 62
1 3206 161
1 3207 97
1 3208 57
1 3209 84
1 3210 51
1 3211 291
1 3212 48
1 3213 47
1 3214 172
1 3215 76
1 3216 46
1 3217 966
1 3218 36
1 3219 56
1 3220 40
1 3221 35
1 3222 54
1 3223 47
1 3224 52
1 3225 220
1 3226 61
1 3227 54
1 3228 31
1 3229 57
1 3230 44
1 3231 58
1 3232 60
1 3233 34
1 3234 38
1 3235 1
1 3236 40
1 3237 99
1 3238 34
1 3239 48
1 3240 368
1 3241 48
1 3242 80
1 3243 106
1 3244 570
1 3245 52
1 3246 77
1 3247 63
1 3248 30
1 3249 91
1 3250 46
1 3251 72
1 3252 50
1 3253 31
1 3254 37
1 3255 75
1 3256 53
1 3257 45
1 3258 47
1 3259 74
1 3260 48
1 3261 92
1 3262 111
1 3263 67
1 3264 42
1 3265 40
1 3266 202
1 3267 53
1 3268 143
1 3269 50
1 3270 74
1 3271 46
1 3272 39
1 3273 106
1 3274 53
1 3275 42
1 3276 35
1 3277 40
1 3278 39
1 3279 464
1 3280 1
1 3281 34
1 3282 47
1 3283 43
1 3284 33
1 3285 39
1 3286 93
1 3287 44
1 3288 93
1 3289 40
1 3290 51
1 3291 49
1 3292 108
1 3293 53
1 3294 49
1 3295 53
1 3296 490
1 3297 46
1 3298 60
1 3299 45
1 3300 43
1 3301 1
1 3302 26
1 3303 680
1 3304 97
1 3305 37
1 3306 49
1 3307 26
1 3308 51
1 3309 1
1 3310 56
1 3311 47
1 3312 48
1 3313 39
1 3314 28
1 3315 43
1 3316 162
1 3317 56
1 3319 44
1 3320 44
1 3321 75
1 3322 931
1 3323 77
1 3324 26
1 3325 261
1 3326 33
1 3327 54
1 3328 58
1 3329 65
1 3331 19
1 3332 39
1 3333 57
1 3334 87
1 3335 92
1 3336 44
1 3337 44
1 3338 38
1 3339 51
1 3340 57
1 3341 47
1 3342 46
1 3343 46
1 3344 81
1 3345 43
1 3346 42
1 3347 33
1 3348 68
1 3349 77
1 3350 79
1 3351 37
1 3352 45
1 3353 76
1 3354 54
1 3355 45
1 3356 47
1 3357 65
1 3358 61
1 3359 131
1 3360 926
1 3361 48
1 3362 65
1 3363 59
1 3364 42
1 3365 41
1 3366 40
1 3367 36
1 3368 46
1 3369 53
1 3370 47
1 3371 68
1 3372 34
1 3373 51
1 3374 63
1 3375 41
1 3376 34
1 3377 94
1 3378 888
1 3379 36
1 3380 64
1 3381 374
1 3382 47
1 3383 57
1 3384 59
1 3385 43
1 3386 1366
1 3387 60
1 3388 846
1 3389 54
1 3390 68
1 3391 53
1 3392 48
1 3393 1366
1 3394 42
1 3395 174
1 3396 46
1 3397 54
1 3398 43
1 3399 63
1 3400 66
1 3401 48
1 3402 52
1 3403 84
1 3404 67
1 3405 44
1 3406 90
1 3407 46
1 3408 74
1 3409 66
1 3410 74
1 3411 115
1 3412 1
1 3413 55
1 3414 57
1 3415 51
1 3416 52
1 3417 113
1 3418 51
1 3419 289
1 3420 501
1 3421 154
1 3422 60
1 3423 60
1 3424 53
1 3425 151
1 3426 40
1 3427 47
1 3428 54
1 3429 71
1 3430 38
1 3431 54
1 3432 46
1 3433 54
1 3434 55
1 3435 61
1 3436 56
1 3437 78
1 3438 65
1 3439 40
1 3440 611
1 3441 41
1 3442 35
1 3443 67
1 3444 334
1 3445 45
1 3446 43
1 3447 38
1 3448 1072
1 3449 43
1 3450 52
1 3451 47
1 3452 46
1 3453 38
1 3454 52
1 3455 105
1 3456 2
1 3457 43
1 3458 48
1 3459 47
1 3460 40
1 3461 35
1 3462 640
1 3463 72
1 3464 59
1 3465 39
1 3466 50
1 3467 54
1 3468 49
1 3469 50
1 3470 58
1 3471 76
1 3472 38
1 3473 62
1 3474 32
1 3475 55
1 3476 31
1 3477 583
1 3478 48
1 3479 68
1 3481 63
1 3482 43
1 3483 44
1 3484 815
1 3485 74
1 3486 190
1 3487 46
1 3488 1
1 3489 89
1 3490 50
1 3491 48
1 3492 373
1 3493 40
1 3494 49
1 3495 85
1 3496 43
1 3497 51
1 3498 41
1 3499 44
1 3500 79
1 3501 45
1 3502 76
1 3503 588
1 3504 49
1 3505 3
1 3506 1
1 3507 35
1 3508 78
1 3509 51
1 3510 36
1 3511 44
1 3512 41
1 3513 44
1 3514 30
1 3515 38
1 3516 50
1 3517 39
1 3518 49
1 3519 72
1 3520 47
1 3521 51
1 3522 42
1 3523 52
1 3524 45
1 3525 54
1 3526 48
1 3527 149
1 3528 49
1 3530 36
1 3531 536
1 3532 56
1 3533 38
1 3534 64
1 3535 57
1 3536 50
1 3537 62
1 3538 39
1 3539 51
1 3540 46
1 3542 50
1 3543 49
1 3544 55
1 3545 50
1 3546 666
1 3547 778
1 3548 81
1 3549 45
1 3550 40
1 3552 64
1 3553 54
1 3554 49
1 3555 64
1 3556 60
1 3557 53
1 3558 624
1 3559 58
1 3560 56
1 3561 44
1 3562 53
1 3563 52
1 3564 35
1 3565 48
1 3566 46
1 3567 52
1 3568 89
1 3569 49
1 3570 48
1 3571 48
1 3572 42
1 3573 34
1 3574 119
1 3575 89
1 3576 125
1 3577 40
1 3578 64
1 3579 36
1 3580 27
1 3581 60
1 3582 51
1 3583 49
1 3584 59
1 3585 1
1 3586 42
1 3587 109
1 3588 52
1 3589 87
1 3590 46
1 3591 50
1 3592 92
1 3593 49
1 3594 86
1 3595 106
1 3596 41
1 3597 58
1 3598 97
1 3599 58
1 3600 54
1 3601 48
1 3602 71
1 3603 86
1 3604 70
1 3605 44
1 3606 64
1 3607 129
1 3608 35
1 3609 52
1 3610 76
1 3611 62
1 3612 67
1 3613 55
1 3614 24
1 3615 65
1 3616 59
1 3617 45
1 3618 38
1 3619 43
1 3620 68
1 3621 45
1 3622 54
1 3623 122
1 3624 301
1 3625 57
1 3626 920
1 3627 168
1 3628 45
1 3629 45
1 3630 48
1 3631 45
1 3632 49
1 3633 22
1 3634 44
1 3635 45
1 3636 60
1 3637 33
1 3638 223
1 3639 51
1 3640 1219
1 3641 63
1 3642 59
1 3643 54
1 3644 54
1 3645 89
1 3646 65
1 3647 358
1 3648 48
1 3649 56
1 3650 64
1 3651 41
1 3652 51
1 3653 36
1 3654 45
1 3655 40
1 3656 37
1 3657 31
1 3658 65
1 3659 49
1 3660 56
1 3661 35
1 3662 343
1 3663 158
1 3664 36
1 3665 75
1 3666 41
1 3667 134
1 3668 45
1 3669 38
1 3670 37
1 3671 46
1 3672 44
1 3673 120
1 3674 51
1 3675 44
1 3676 29
1 3677 36
1 3678 23
1 3679 608
1 3680 69
1 3681 88
1 3682 37
1 3683 46
1 3684 44
1 3685 1
1 3686 549
1 3687 43
1 3688 29
1 3689 41
1 3690 41
1 3691 75
1 3692 55
1 3693 44
1 3694 60
1 3695 38
1 3696 48
1 3697 36
1 3698 35
1 3699 40
1 3700 55
1 3701 178
1 3703 709
1 3704 72
1 3705 43
1 3706 38
1 3707 101
1 3708 41
1 3709 45
1 3710 554
1 3711 195
1 3712 43
1 3713 36
1 3714 62
1 3715 46
1 3716 47
1 3717 81
1 3718 41
1 3719 42
1 3720 65
1 3721 428
1 3722 37
1 3723 38
1 3724 34
1 3725 39
1 3726 464
1 3727 156
1 3728 48
1 3729 38
1 3730 46
1 3731 46
1 3732 90
1 3733 42
1 3734 58
1 3735 41
1 3736 365
1 3737 33
1 3738 29
1 3739 25
1 3740 22
1 3741 35
1 3742 23
1 3743 29
1 3744 73
1 3745 32
1 3746 51
1 3747 34
1 3748 21
1 3749 13
1 3750 34
1 3751 32
1 3752 69
1 3753 42
1 3754 43
1 3755 45
1 3756 44
1 3757 36
1 3758 68
1 3759 27
1 3761 1042
1 3762 38
1 3763 91
1 3764 39
1 3765 35
1 3766 537
1 3767 83
1 3768 53
1 3769 49
1 3770 24
1 3771 35
1 3772 38
1 3773 39
1 3774 45
1 3775 819
1 3776 45
1 3777 170
1 3778 74
1 3779 36
1 3780 121
1 3781 44
1 3782 62
1 3783 30
1 3784 54
1 3785 24
1 3786 29
1 3787 27
1 3788 23
1 3790 15
1 3791 45
1 3792 38
1 3793 44
1 3794 43
1 3795 39
1 3796 37
1 3797 51
1 3798 36
1 3799 38
1 3800 53
1 3801 51
1 3802 140
1 3803 46
1 3804 77
1 3805 26
1 3806 36
1 3807 40
1 3808 45
1 3809 69
1 3810 33
1 3812 42
1 3813 32
1 3814 38
1 3815 51
1 3816 51
1 3817 31
1 3818 46
1 3819 36
1 3820 29
1 3821 42
1 3822 50
1 3823 46
1 3824 44
1 3825 55
1 3826 38
1 3827 44
1 3828 90
1 3829 123
1 3830 95
1 3831 39
1 3832 29
1 3834 60
1 3835 15
1 3836 36
1 3837 158
1 3838 24
1 3839 33
1 3840 36
1 3841 47
1 3842 39
1 3843 31
1 3844 3
1 3845 52
1 3846 39
1 3847 30
1 3848 38
1 3849 33
1 3850 34
1 3851 33
1 3852 21
1 3853 45
1 3854 33
1 3855 33
1 3856 31
1 3857 47
1 3859 45
1 3861 34
1 3862 40
1 3863 58
1 3864 33
1 3865 34
1 3866 60
1 3867 31
1 3869 67
1 3870 48
1 3871 38
1 3872 33
1 3873 29
1 3874 64
1 3875 52
1 3876 49
1 3877 36
1 3878 39
1 3879 50
1 3880 34
1 3881 53
1 3882 309
1 3883 26
1 3884 80
1 3885 41
1 3886 39
1 3887 59
1 3888 43
1 3889 41
1 3890 38
1 3891 45
1 3892 49
1 3893 50
1 3894 25
1 3895 38
1 3896 55
1 3897 50
1 3898 37
1 3899 51
1 3900 41
1 3901 46
1 3902 35
1 3903 38
1 3904 46
1 3905 28
1 3906 55
1 3907 80
1 3908 64
1 3909 27
1 3910 32
1 3911 35
1 3912 61
1 3913 41
1 3914 50
1 3915 58
1 3916 42
1 3917 46
1 3918 495
1 3919 51
1 3920 326
1 3921 46
1 3922 109
1 3923 26
1 3924 58
1 3925 30
1 3926 145
1 3927 49
1 3928 122
1 3929 143
1 3930 39
1 3931 38
1 3932 570
1 3934 48
1 3935 12
1 3936 40
1 3937 86
1 3938 40
1 3939 37
1 3940 67
1 3941 34
1 3942 871
1 3943 35
1 3944 4
1 3945 46
1 3946 41
1 3947 661
1 3948 25
1 3949 47
1 3950 137
1 3951 36
1 3952 58
1 3953 95
1 3954 43
1 3955 336
1 3956 73
1 3957 62
1 3958 30
1 3959 26
1 3960 21
1 3961 47
1 3962 27
1 3963 35
1 3964 37
1 3965 40
1 3966 27
1 3967 63
1 3968 157
1 3969 521
1 3970 77
1 3972 28
1 3973 36
1 3974 28
1 3975 36
1 3976 29
1 3977 30
1 3978 32
1 3979 44
1 3980 58
1 3981 39
1 3982 37
1 3983 36
1 3984 34
1 3985 28
1 3986 75
1 3987 42
1 3988 46
1 3989 121
1 3990 28
1 3991 26
1 3992 41
1 3993 50
1 3994 27
1 3995 36
1 3996 38
1 3997 32
1 3998 91
1 3999 40
1 4000 34
1 4001 32
1 4002 29
1 4003 28
1 4004 86
1 4005 201
1 4006 23
1 4007 29
1 4008 33
1 4009 34
1 4010 36
1 4011 35
1 4012 28
1 4013 38
1 4014 32
1 4015 31
1 4016 38
1 4017 39
1 4018 58
1 4019 75
1 4020 51
1 4021 97
1 4022 50
1 4023 573
1 4024 48
1 4025 55
1 4027 52
1 4028 410
1 4029 56
1 4030 51
1 4031 97
1 4032 97
1 4033 64
1 4034 67
1 4035 60
1 4036 85
1 4037 54
1 4038 78
1 4039 67
1 4040 183
1 4041 46
1 4042 35
1 4043 33
1 4044 39
1 4045 98
1 4046 73
1 4047 67
1 4048 57
1 4049 54
1 4050 1054
1 4051 58
1 4052 41
1 4053 78
1 4054 59
1 4055 67
1 4056 51
1 4057 67
1 4058 96
1 4059 56
1 4060 60
1 4061 60
1 4062 58
1 4063 689
1 4064 55
1 4065 88
1 4066 83
1 4068 79
1 4069 74
1 4070 65
1 4071 60
1 4072 60
1 4073 3
1 4074 69
1 4075 72
1 4076 79
1 4077 70
1 4078 91
1 4079 55
1 4080 870
1 4081 1130
1 4082 57
1 4085 51
1 4086 68
1 4087 81
1 4088 95
1 4089 47
1 4090 1011
1 4091 999
1 4092 77
1 4093 247
1 4094 62
1 4095 66
1 4096 98
1 4097 62
1 4098 90
1 4099 66
1 4100 62
1 4101 54
1 4102 718
1 4103 66
1 4104 48
1 4105 91
1 4106 75
1 4107 101
1 4108 65
1 4109 44
1 4110 74
1 4111 1121
1 4112 50
1 4113 48
1 4114 65
1 4115 65
1 4116 64
1 4117 53
1 4118 1
1 4119 81
1 4120 120
1 4121 63
1 4122 82
1 4123 51
1 4124 61
1 4125 364
1 4126 115
1 4127 61
1 4128 109
1 4129 49
1 4130 70
1 4131 115
1 4132 60
1 4133 60
1 4134 67
1 4135 637
1 4136 59
1 4137 81
1 4138 100
1 4139 815
1 4140 19
1 4141 69
1 4142 108
1 4143 310
1 4144 60
1 4145 66
1 4146 270
1 4147 69
1 4148 130
1 4149 122
1 4150 57
1 4152 64
1 4153 52
1 4154 54
1 4155 66
1 4156 64
1 4157 42
1 4158 52
1 4159 116
1 4160 52
1 4161 372
1 4162 47
1 4163 58
1 4164 36
1 4165 57
1 4166 65
1 4167 56
1 4168 41
1 4169 66
1 4170 57
1 4171 81
1 4172 69
1 4173 59
1 4174 25
1 4175 98
1 4176 206
1 4177 59
1 4178 51
1 4179 62
1 4180 102
1 4181 53
1 4182 54
1 4183 120
1 4184 58
1 4185 63
1 4186 60
1 4187 51
1 4188 54
1 4189 50
1 4190 39
1 4191 71
1 4192 58
1 4193 87
1 4194 650
1 4195 83
1 4196 68
1 4197 65
1 4198 42
1 4199 86
1 4200 62
1 4201 116
1 4202 113
1 4203 123
1 4204 210
1 4205 595
1 4206 53
1 4207 54
1 4208 52
1 4209 80
1 4210 109
1 4211 75
1 4212 204
1 4213 71
1 4214 69
1 4215 55
1 4216 1142
1 4217 53
1 4218 61
1 4219 583
1 4220 64
1 4221 1164
1 4222 32
1 4223 52
1 4224 151
1 4225 88
1 4226 62
1 4227 54
1 4228 50
1 4229 184
1 4230 31
1 4231 61
1 4232 69
1 4233 82
1 4234 58
1 4235 57
1 4236 58
1 4237 91
1 4238 57
1 4239 205
1 4240 52
1 4241 1
1 4242 168
1 4243 70
1 4244 50
1 4245 90
1 4246 72
1 4247 127
1 4248 51
1 4249 280
1 4250 1
1 4251 43
1 4252 47
1 4253 58
1 4254 107
1 4255 56
1 4257 65
1 4258 76
1 4259 53
1 4260 60
1 4261 67
1 4262 73
1 4263 67
1 4264 59
1 4265 164
1 4266 68
1 4267 90
1 4268 130
1 4269 39
1 4270 51
1 4271 85
1 4272 53
1 4273 51
1 4274 63
1 4275 65
1 4276 88
1 4277 50
1 4278 93
1 4279 47
1 4280 75
1 4281 88
1 4282 68
1 4283 129
1 4285 66
1 4286 101
1 4287 50
1 4288 451
1 4289 51
1 4290 486
1 4291 71
1 4292 145
1 4293 356
1 4294 71
1 4295 57
1 4296 49
1 4297 43
1 4298 68
1 4299 631
1 4300 68
1 4301 53
1 4302 61
1 4303 148
1 4305 104
1 4306 63
1 4307 53
1 4308 81
1 4309 61
1 4310 48
1 4311 112
1 4312 66
1 4313 111
1 4314 2
1 4315 56
1 4316 64
1 4317 2
1 4318 123
1 4319 174
1 4320 85
1 4321 58
1 4322 58
1 4323 42
1 4324 66
1 4325 694
1 4326 51
1 4327 51
1 4328 60
1 4329 215
1 4330 2
1 4331 58
1 4332 1127
1 4333 69
1 4334 58
1 4335 185
1 4336 54
1 4338 68
1 4339 116
1 4340 163
1 4341 77
1 4342 57
1 4343 44
1 4344 51
1 4345 120
1 4346 58
1 4347 61
1 4348 56
1 4349 75
1 4350 66
1 4351 955
1 4352 82
1 4353 69
1 4354 128
1 4355 40
1 4356 58
1 4357 58
1 4358 54
1 4359 170
1 4360 54
1 4361 59
1 4362 47
1 4363 85
1 4364 59
1 4365 67
1 4366 59
1 4367 60
1 4368 64
1 4369 81
1 4370 112
1 4371 139
1 4372 51
1 4373 56
1 4374 89
1 4375 65
1 4376 50
1 4377 52
1 4378 124
1 4379 1300
1 4380 61
1 4381 68
1 4382 54
1 4383 71
1 4384 60
1 4385 685
1 4386 783
1 4387 60
1 4388 59
1 4389 58
1 4390 72
1 4391 96
1 4392 55
1 4393 69
1 4394 62
1 4395 64
1 4396 115
1 4397 58
1 4398 76
1 4399 108
1 4400 59
1 4401 62
1 4402 49
1 4403 80
1 4404 77
1 4406 108
1 4407 71
1 4408 79
1 4409 59
1 4410 61
1 4411 22
1 4413 161
1 4415 57
1 4416 108
1 4417 55
1 4418 23
1 4419 227
1 4420 847
1 4421 37
1 4422 54
1 4423 55
1 4424 50
1 4425 102
1 4426 70
1 4427 75
1 4428 68
1 4429 40
1 4430 55
1 4431 56
1 4432 50
1 4433 87
1 4434 327
1 4435 37
1 4436 226
1 4437 60
1 4438 40
1 4439 92
1 4440 61
1 4441 56
1 4442 96
1 4443 126
1 4444 63
1 4445 63
1 4446 57
1 4447 112
1 4448 127
1 4449 77
1 4450 54
1 4451 58
1 4452 80
1 4453 157
1 4454 61
1 4455 84
1 4456 74
1 4457 63
1 4458 66
1 4460 50
1 4461 1
1 4462 76
1 4463 53
1 4464 100
1 4465 2
1 4466 55
1 4467 154
1 4468 55
1 4469 65
1 4470 61
1 4471 44
1 4472 82
1 4473 68
1 4474 64
1 4475 55
1 4476 151
1 4477 53
1 4478 85
1 4479 63
1 4480 108
1 4481 37
1 4482 58
1 4483 57
1 4484 103
1 4485 364
1 4486 68
1 4487 59
1 4488 53
1 4489 96
1 4490 68
1 4491 60
1 4492 68
1 4493 72
1 4494 110
1 4495 69
1 4496 62
1 4497 51
1 4498 50
1 4499 133
1 4500 86
1 4501 49
1 4502 59
1 4503 72
1 4504 55
1 4505 50
1 4506 73
1 4507 145
1 4508 44
1 4509 43
1 4510 100
1 4511 57
1 4512 111
1 4513 149
1 4514 55
1 4515 53
1 4516 42
1 4517 49
1 4518 54
1 4519 515
1 4520 73
1 4521 65
1 4522 75
1 4523 61
1 4524 79
1 4525 43
1 4526 47
1 4527 151
1 4528 520
1 4529 48
1 4530 56
1 4531 73
1 4532 60
1 4533 177
1 4534 59
1 4536 56
1 4537 159
1 4538 54
1 4539 435
1 4540 465
1 4541 78
1 4542 60
1 4543 1101
1 4544 46
1 4545 60
1 4546 57
1 4547 68
1 4548 61
1 4549 65
1 4550 635
1 4551 57
1 4552 64
1 4553 55
1 4554 98
1 4555 61
1 4556 55
1 4557 65
1 4558 84
1 4559 70
1 4560 34
1 4561 110
1 4562 63
1 4563 1502
1 4564 61
1 4565 52
1 4566 49
1 4567 48
1 4568 48
1 4569 121
1 4570 63
1 4571 19
1 4572 49
1 4573 59
1 4574 53
1 4575 74
1 4576 74
1 4577 2
1 4578 63
1 4579 48
1 4580 50
1 4582 231
1 4583 59
1 4584 251
1 4585 55
1 4586 71
1 4587 61
1 4588 68
1 4589 61
1 4590 64
1 4591 85
1 4592 77
1 4593 62
1 4594 51
1 4595 58
1 4596 55
1 4597 50
1 4598 241
1 4599 54
1 4600 72
1 4601 864
1 4602 103
1 4603 62
1 4604 94
1 4605 80
1 4606 64
1 4607 96
1 4608 51
1 4609 157
1 4610 108
1 4611 74
1 4612 67
1 4613 51
1 4614 51
1 4615 65
1 4616 56
1 4617 60
1 4618 47
1 4619 61
1 4620 101
1 4621 74
1 4622 2
1 4623 51
1 4624 57
1 4625 80
1 4626 51
1 4627 50
1 4628 67
1 4629 97
1 4630 52
1 4631 299
1 4632 70
1 4633 117
1 4634 82
1 4635 523
1 4636 67
1 4637 35
1 4638 82
1 4639 1609
1 4640 64
1 4641 87
1 4642 67
1 4643 40
1 4644 69
1 4645 841
1 4646 72
1 4647 60
1 4648 108
1 4649 1
1 4650 52
1 4651 6
1 4652 1
1 4653 56
1 4654 37
1 4655 143
1 4656 54
1 4657 74
1 4658 69
1 4659 77
1 4660 55
1 4661 58
1 4662 73
1 4663 61
1 4664 71
1 4665 52
1 4666 79
1 4667 61
1 4668 89
1 4669 77
1 4670 56
1 4671 141
1 4672 65
1 4673 166
1 4674 70
1 4675 69
1 4676 65
1 4677 71
1 4678 52
1 4679 860
1 4680 60
1 4681 59
1 4683 85
1 4684 48
1 4685 4
1 4686 245
1 4687 1641
1 4688 71
1 4689 81
1 4690 284
1 4691 66
1 4692 90
1 4693 43
1 4694 59
1 4695 1
1 4696 65
1 4697 109
1 4698 66
1 4699 57
1 4701 2
1 4702 52
1 4703 92
1 4704 232
1 4705 1556
1 4706 89
1 4707 87
1 4708 173
1 4709 371
1 4711 78
1 4712 76
1 4713 3
1 4714 56
1 4715 69
1 4716 56
1 4717 59
1 4718 102
1 4719 56
1 4720 66
1 4721 70
1 4722 70
1 4723 64
1 4724 59
1 4725 50
1 4726 38
1 4727 48
1 4728 54
1 4729 84
1 4730 158
1 4731 1
1 4732 104
1 4733 50
1 4734 44
1 4735 51
1 4736 81
1 4737 47
1 4738 73
1 4739 64
1 4740 76
1 4741 45
1 4742 337
1 4743 76
1 4744 46
1 4745 65
1 4746 56
1 4747 73
1 4748 400
1 4749 149
1 4750 48
1 4751 1
1 4752 56
1 4753 54
1 4754 65
1 4755 42
1 4756 65
1 4757 80
1 4758 76
1 4759 74
1 4760 74
1 4761 802
1 4762 58
1 4763 77
1 4764 84
1 4765 49
1 4766 45
1 4767 153
1 4768 39
1 4769 88
1 4770 51
1 4771 61
1 4772 262
1 4773 58
1 4774 316
1 4775 118
1 4776 60
1 4777 89
1 4778 62
1 4779 54
1 4780 58
1 4781 57
1 4782 72
1 4783 66
1 4784 1
1 4785 56
1 4786 113
1 4787 59
1 4788 76
1 4789 63
1 4790 43
1 4791 65
1 4792 69
1 4793 54
1 4794 74
1 4795 50
1 4796 133
1 4797 54
1 4798 60
1 4799 61
1 4800 87
1 4801 62
1 4802 66
1 4803 56
1 4804 71
1 4805 61
1 4806 53
1 4807 57
1 4809 55
1 4810 67
1 4811 74
1 4812 127
1 4813 58
1 4814 250
1 4815 74
1 4816 62
1 4817 122
1 4818 56
1 4819 82
1 4820 52
1 4821 31
1 4822 45
1 4823 60
1 4824 61
1 4825 63
1 4826 50
1 4827 51
1 4828 66
1 4829 66
1 4830 81
1 4831 61
1 4832 68
1 4833 68
1 4834 56
1 4835 80
1 4836 66
1 4837 63
1 4838 144
1 4839 52
1 4840 58
1 4841 124
1 4842 92
1 4843 53
1 4844 336
1 4845 984
1 4846 103
1 4847 45
1 4848 45
1 4849 104
1 4850 30
1 4851 137
1 4852 39
1 4853 317
1 4854 69
1 4855 73
1 4856 84
1 4857 65
1 4858 48
1 4859 59
1 4860 56
1 4861 105
1 4862 86
1 4863 109
1 4864 41
1 4865 122
1 4866 82
1 4867 66
1 4868 62
1 4869 94
1 4870 63
1 4871 64
1 4872 78
1 4873 54
1 4874 152
1 4875 90
1 4876 63
1 4877 44
1 4878 57
1 4879 57
1 4880 94
1 4881 60
1 4882 57
1 4883 44
1 4884 95
1 4885 65
1 4887 67
1 4888 31
1 4889 55
1 4890 65
1 4891 41
1 4892 51
1 4893 365
1 4894 68
1 4895 45
1 4896 67
1 4897 86
1 4898 365
1 4899 1
1 4900 54
1 4901 1079
1 4902 70
1 4903 46
1 4904 57
1 4905 98
1 4906 47
1 4907 59
1 4908 35
1 4909 115
1 4910 77
1 4911 54
1 4912 38
1 4913 104
1 4914 93
1 4915 64
1 4916 55
1 4917 650
1 4918 48
1 4919 100
1 4920 53
1 4921 685
1 4922 58
1 4923 49
1 4924 49
1 4925 43
1 4926 25
1 4927 90
1 4928 40
1 4929 52
1 4930 54
1 4931 60
1 4932 81
1 4933 39
1 4934 55
1 4935 36
1 4936 51
1 4937 44
1 4938 1
1 4939 65
1 4940 60
1 4941 564
1 4942 56
1 4943 44
1 4944 38
1 4945 49
1 4946 45
1 4947 72
1 4949 51
1 4950 42
1 4951 50
1 4952 67
1 4953 1
1 4954 76
1 4955 60
1 4956 54
1 4957 74
1 4958 51
1 4959 63
1 4960 199
1 4961 46
1 4962 57
1 4963 64
1 4964 51
1 4965 49
1 4966 70
1 4967 48
1 4968 49
1 4969 48
1 4970 59
1 4971 35
1 4972 63
1 4973 54
1 4974 315
1 4975 259
1 4976 71
1 4977 42
1 4978 40
1 4979 57
1 4980 52
1 4981 58
1 4982 59
1 4983 3
1 4984 47
1 4985 63
1 4986 115
1 4987 43
1 4989 63
1 4990 44
1 4991 51
1 4992 54
1 4993 46
1 4996 66
1 4997 1403
1 4998 72
1 4999 33
1 5000 67
1 5001 114
1 5002 47
1 5003 54
1 5004 66
1 5005 50
1 5006 836
1 5007 54
1 5008 1063
1 5009 47
1 5010 47
1 5011 66
1 5012 49
1 5013 98
1 5014 1157
1 5015 49
1 5016 48
1 5017 37
1 5018 238
1 5019 50
1 5020 200
1 5021 48
1 5022 305
1 5023 37
1 5024 59
1 5025 44
1 5026 66
1 5027 850
1 5028 38
1 5029 101
1 5030 68
1 5031 704
1 5032 65
1 5033 55
1 5034 62
1 5035 14
1 5036 49
1 5037 60
1 5038 57
1 5039 47
1 5040 62
1 5042 169
1 5043 49
1 5044 52
1 5045 56
1 5046 65
1 5047 3
1 5048 71
1 5049 104
1 5050 51
1 5051 101
1 5052 978
1 5053 209
1 5054 44
1 5055 12
1 5056 42
1 5057 58
1 5058 69
1 5059 39
1 5060 43
1 5061 427
1 5062 45
1 5063 117
1 5064 66
1 5065 57
1 5066 69
1 5067 52
1 5068 62
1 5069 35
1 5070 1
1 5072 87
1 5073 42
1 5074 66
1 5075 61
1 5076 149
1 5077 61
1 5078 413
1 5079 46
1 5080 1254
1 5081 60
1 5083 105
1 5084 153
1 5085 119
1 5086 98
1 5087 68
1 5088 107
1 5089 52
1 5090 58
1 5092 86
1 5093 40
1 5094 53
1 5095 75
1 5096 1
1 5097 46
1 5098 55
1 5099 262
1 5100 636
1 5101 59
1 5102 85
1 5103 850
1 5104 68
1 5105 49
1 5106 52
1 5107 70
1 5108 35
1 5109 52
1 5110 34
1 5111 54
1 5112 42
1 5113 56
1 5115 46
1 5116 93
1 5117 60
1 5118 59
1 5119 90
1 5120 222
1 5121 56
1 5122 45
1 5123 63
1 5124 43
1 5125 1056
1 5126 52
1 5127 54
1 5128 47
1 5129 607
1 5130 67
1 5131 837
1 5132 43
1 5133 41
1 5134 46
1 5135 35
1 5136 34
1 5137 15
1 5139 55
1 5140 40
1 5141 54
1 5142 1
1 5143 38
1 5144 29
1 5145 50
1 5146 35
1 5147 27
1 5148 28
1 5149 217
1 5150 86
1 5152 35
1 5153 31
1 5154 25
1 5156 37
1 5157 32
1 5158 51
1 5159 61
2 1 102
2 2 106
2 3 90
2 4 58
2 5 100
2 6 74
2 7 67
2 8 3
2 9 48
2 10 52
2 11 35
2 12 95
2 13 428
2 14 70
2 15 29
2 16 28
2 17 156
2 18 144
2 19 45
2 20 560
2 21 47
2 22 36
2 23 53
2 24 43
2 25 51
2 26 199
2 27 58
2 28 68
2 29 43
2 30 49
2 31 46
2 32 50
2 33 55
2 34 60
2 35 49
2 36 62
2 37 49
2 38 66
2 39 65
2 40 99
2 41 71
2 42 63
2 43 56
2 44 48
2 45 35
2 46 39
2 47 70
2 48 40
2 49 78
2 50 116
2 51 190
2 52 80
2 53 91
2 54 47
2 55 177
2 56 34
2 57 56
2 58 47
2 59 57
2 60 86
2 61 56
2 62 171
2 63 491
2 64 54
2 65 79
2 66 60
2 67 170
2 68 86
2 69 101
2 70 48
2 71 56
2 72 56
2 73 44
2 74 86
2 75 125
2 76 53
2 77 46
2 78 39
2 79 129
2 80 50
2 81 42
2 82 44
2 83 32
2 84 54
2 86 65
2 87 55
2 88 274
2 89 51
2 90 40
2 91 40
2 92 4
2 93 45
2 94 36
2 95 121
2 96 28
2 97 42
2 99 50
2 100 71
2 101 76
2 102 69
2 103 35
2 104 48
2 105 52
2 106 235
2 107 107
2 108 37
2 109 47
2 110 49
2 111 51
2 112 70
2 113 41
2 114 50
2 115 43
2 116 65
2 117 51
2 118 101
2 119 40
2 120 44
2 121 50
2 122 46
2 123 53
2 124 94
2 125 110
2 126 37
2 127 60
2 128 403
2 129 54
2 130 78
2 131 55
2 132 1
2 133 43
2 134 55
2 135 41
2 136 214
2 137 54
2 138 226
2 139 50
2 140 61
2 141 67
2 142 59
2 143 63
2 144 1023
2 145 47
2 146 96
2 147 43
2 148 331
2 149 855
2 150 53
2 151 94
2 152 48
2 153 75
2 154 55
2 155 78
2 156 143
2 157 37
2 158 46
2 159 76
2 160 48
2 161 42
2 162 56
2 163 491
2 165 57
2 166 606
2 167 51
2 168 41
2 169 115
2 170 329
2 171 60
2 172 48
2 173 69
2 174 5
2 175 642
2 176 92
2 177 63
2 178 142
2 179 43
2 180 33
2 181 64
2 182 48
2 183 47
2 184 64
2 185 72
2 186 203
2 187 34
2 188 72
2 189 55
2 190 57
2 191 2
2 192 84
2 193 163
2 194 57
2 195 1
2 196 54
2 197 1
2 198 45
2 199 37
2 200 240
2 201 44
2 202 457
2 203 2
2 204 60
2 205 55
2 206 36
2 207 52
2 208 54
2 209 521
2 210 40
2 211 63
2 212 42
2 213 46
2 214 43
2 215 68
2 216 143
2 217 43
2 218 363
2 219 76
2 220 63
2 221 38
2 222 55
2 223 87
2 224 70
2 225 62
2 226 63
2 227 166
2 228 46
2 229 49
2 230 64
2 231 40
2 232 224
2 233 150
2 234 61
2 235 445
2 236 44
2 237 45
2 238 51
2 239 150
2 240 56
2 241 66
2 242 164
2 243 65
2 244 48
2 245 55
2 246 97
2 247 60
2 248 48
2 249 64
2 250 701
2 251 49
2 252 56
2 253 74
2 254 54
2 255 1
2 256 55
2 257 2
2 258 200
2 259 173
2 260 59
2 261 310
2 262 51
2 263 113
2 264 47
2 265 80
2 266 200
2 267 50
2 268 200
2 269 44
2 270 39
2 271 59
2 272 37
2 273 39
2 274 43
2 275 51
2 276 54
2 277 1
2 278 45
2 279 54
2 280 46
2 281 148
2 282 68
2 283 54
2 284 64
2 285 75
2 286 113
2 287 59
2 288 74
2 289 44
2 290 78
2 291 49
2 292 42
2 293 52
2 294 59
2 295 60
2 296 55
2 297 31
2 298 659
2 299 67
2 300 74
2 301 71
2 302 40
2 303 516
2 304 40
2 305 351
2 306 72
2 307 60
2 308 48
2 309 41
2 310 54
2 311 65
2 312 55
2 313 55
2 314 49
2 315 53
2 316 42
2 317 57
2 318 1
2 319 80
2 320 1
2 321 51
2 322 48
2 323 131
2 324 100
2 325 78
2 326 35
2 327 367
2 328 178
2 329 66
2 330 69
2 331 57
2 332 60
2 333 58
2 334 55
2 335 255
2 336 103
2 337 1
2 338 52
2 339 42
2 340 60
2 341 62
2 342 82
2 343 53
2 344 55
2 345 59
2 346 58
2 347 62
2 348 61
2 349 100
2 350 227
2 351 65
2 352 38
2 353 78
2 354 2
2 355 34
2 356 47
2 357 48
2 358 48
2 359 216
2 360 41
2 361 367
2 362 70
2 363 36
2 364 58
2 365 205
2 366 99
2 367 58
2 368 96
2 369 46
2 370 60
2 371 63
2 372 62
2 373 15
2 374 46
2 375 54
2 376 58
2 377 44
2 378 52
2 379 60
2 380 50
2 381 24
2 382 58
2 383 48
2 384 135
2 385 271
2 386 56
2 387 46
2 388 188
2 389 43
2 390 185
2 391 59
2 392 62
2 393 51
2 394 59
2 395 63
2 396 57
2 397 62
2 398 37
2 399 63
2 400 62
2 401 47
2 402 45
2 403 58
2 404 57
2 405 54
2 406 180
2 407 115
2 408 62
2 409 43
2 410 66
2 411 62
2 412 73
2 413 47
2 414 56
2 415 90
2 416 73
2 417 544
2 418 1
2 419 32
2 420 1
2 421 49
2 422 78
2 423 40
2 424 65
2 425 46
2 426 38
2 427 104
2 428 180
2 429 83
2 430 77
2 432 70
2 433 44
2 434 63
2 435 83
2 436 110
2 437 63
2 438 184
2 439 53
2 440 120
2 441 60
2 442 62
2 443 61
2 444 72
2 445 60
2 446 60
2 447 90
2 448 57
2 449 50
2 450 69
2 451 55
2 452 34
2 453 56
2 454 47
2 455 332
2 456 47
2 457 101
2 458 70
2 459 49
2 460 70
2 461 121
2 462 140
2 463 69
2 464 52
2 465 77
2 466 46
2 467 63
2 468 52
2 469 103
2 470 73
2 471 62
2 472 63
2 473 251
2 474 35
2 475 83
2 476 101
2 478 150
2 479 129
2 480 184
2 481 61
2 482 58
2 483 66
2 484 175
2 485 75
2 486 64
2 487 53
2 488 72
2 489 43
2 490 307
2 491 52
2 492 168
2 493 46
2 495 79
2 496 615
2 497 109
2 498 58
2 499 115
2 500 50
2 501 16
2 502 56
2 503 139
2 504 49
2 505 52
2 506 61
2 507 411
2 508 74
2 509 43
2 510 49
2 511 55
2 512 53
2 513 50
2 514 680
2 515 152
2 516 58
2 517 116
2 518 59
2 519 465
2 520 129
2 521 110
2 522 28
2 523 81
2 524 57
2 525 43
2 526 53
2 527 110
2 528 123
2 529 51
2 530 82
2 531 43
2 532 40
2 533 54
2 535 48
2 537 38
2 538 62
2 539 77
2 540 60
2 541 57
2 542 63
2 543 121
2 544 44
2 545 29
2 546 44
2 547 42
2 548 58
2 549 102
2 550 71
2 551 49
2 552 57
2 553 151
2 554 57
2 555 46
2 556 153
2 557 58
2 558 94
2 559 61
2 560 71
2 561 48
2 562 48
2 563 134
2 564 51
2 565 109
2 566 44
2 567 51
2 568 137
2 569 249
2 570 40
2 571 140
2 572 52
2 573 84
2 574 51
2 575 47
2 576 63
2 577 48
2 578 55
2 579 1
2 580 185
2 581 89
2 583 62
2 584 65
2 585 1
2 586 48
2 587 47
2 588 57
2 589 37
2 590 52
2 591 41
2 592 46
2 593 56
2 594 35
2 595 73
2 596 79
2 597 50
2 598 31
2 599 49
2 600 49
2 601 51
2 602 28
2 604 61
2 605 629
2 606 90
2 607 44
2 608 43
2 609 50
2 610 45
2 611 65
2 612 34
2 613 43
2 614 96
2 615 42
2 616 324
2 618 2
2 619 86
2 620 50
2 621 57
2 622 49
2 623 43
2 624 59
2 625 57
2 626 54
2 627 950
2 628 34
2 629 49
2 630 40
2 631 76
2 632 49
2 633 58
2 634 51
2 635 48
2 636 44
2 637 48
2 638 55
2 639 48
2 640 34
2 641 36
2 642 55
2 643 28
2 644 56
2 645 49
2 646 1031
2 647 51
2 648 66
2 649 63
2 650 44
2 651 53
2 652 55
2 653 43
2 654 839
2 655 34
2 656 57
2 657 53
2 658 121
2 659 52
2 660 71
2 661 57
2 662 38
2 663 79
2 664 70
2 665 41
2 666 731
2 667 66
2 668 85
2 669 72
2 670 53
2 671 50
2 672 65
2 673 59
2 674 74
2 675 43
2 676 99
2 677 51
2 678 60
2 679 53
2 680 58
2 681 54
2 682 50
2 683 46
2 684 60
2 685 64
2 686 53
2 687 124
2 688 41
2 689 131
2 690 591
2 691 40
2 693 49
2 694 56
2 695 51
2 696 58
2 697 41
2 698 41
2 699 138
2 700 56
2 701 102
2 702 53
2 703 85
2 704 73
2 705 215
2 706 47
2 707 74
2 708 44
2 709 43
2 710 197
2 711 56
2 712 77
2 713 29
2 714 37
2 715 24
2 716 28
2 717 21
2 718 15
2 719 43
2 720 27
2 721 51
2 722 24
2 723 21
2 724 10
2 725 15
2 726 104
2 727 8
2 728 111
2 729 48
2 730 63
2 731 174
2 732 54
2 733 60
2 734 414
2 735 73
2 736 72
2 738 99
2 739 47
2 740 69
2 741 83
2 742 37
2 743 69
2 744 76
2 745 91
2 746 35
2 747 1
2 748 99
2 749 56
2 750 62
2 751 89
2 753 62
2 754 86
2 755 413
2 756 59
2 757 112
2 758 59
2 759 101
2 760 39
2 761 67
2 762 76
2 763 189
2 764 65
2 765 104
2 766 46
2 767 62
2 768 97
2 769 54
2 770 60
2 771 57
2 772 99
2 773 58
2 774 62
2 775 48
2 776 56
2 777 69
2 778 108
2 779 688
2 780 63
2 781 655
2 782 108
2 783 56
2 784 55
2 785 44
2 786 66
2 787 60
2 788 85
2 789 61
2 790 476
2 791 50
2 792 48
2 793 60
2 794 38
2 795 364
2 796 60
2 797 52
2 798 73
2 799 63
2 800 43
2 801 72
2 802 50
2 803 36
2 804 59
2 805 50
2 806 53
2 807 95
2 808 28
2 809 59
2 810 38
2 811 42
2 812 56
2 813 50
2 814 105
2 815 160
2 816 46
2 817 40
2 818 79
2 819 42
2 820 66
2 821 56
2 822 50
2 823 126
2 824 42
2 825 80
2 826 23
2 827 66
2 828 70
2 829 103
2 830 55
2 831 85
2 832 49
2 833 63
2 834 44
2 835 103
2 836 40
2 837 50
2 838 51
2 839 60
2 840 55
2 841 51
2 842 82
2 843 65
2 844 42
2 845 59
2 846 30
2 847 36
2 848 1
2 849 87
2 850 93
2 851 50
2 852 31
2 853 545
2 854 30
2 855 53
2 856 44
2 857 40
2 858 50
2 859 163
2 860 46
2 861 50
2 862 389
2 863 104
2 864 61
2 865 47
2 866 2
2 867 28
2 868 60
2 869 42
2 870 54
2 871 52
2 872 51
2 873 48
2 874 159
2 875 38
2 876 50
2 877 47
2 878 72
2 879 47
2 880 46
2 881 44
2 882 399
2 883 41
2 884 38
2 885 51
2 886 43
2 887 40
2 888 54
2 889 48
2 890 35
2 892 65
2 893 42
2 894 35
2 895 44
2 896 79
2 897 31
2 898 448
2 899 39
2 900 166
2 901 31
2 902 48
2 903 1
2 904 61
2 905 2
2 906 30
2 907 70
2 908 64
2 909 48
2 910 870
2 911 48
2 912 69
2 913 43
2 914 54
2 915 43
2 916 47
2 917 37
2 918 55
2 919 60
2 920 44
2 921 47
2 922 45
2 923 65
2 924 32
2 925 61
2 926 197
2 927 47
2 928 72
2 929 62
2 930 53
2 931 57
2 932 74
2 933 163
2 934 57
2 935 65
2 936 58
2 937 50
2 938 75
2 939 412
2 940 80
2 941 128
2 942 1
2 943 66
2 944 49
2 945 67
2 946 51
2 947 39
2 948 54
2 949 60
2 950 50
2 951 294
2 952 50
2 953 35
2 954 54
2 955 46
2 956 115
2 957 102
2 958 54
2 959 64
2 961 42
2 962 214
2 963 69
2 964 96
2 965 107
2 966 51
2 967 60
2 968 41
2 969 1
2 970 50
2 971 102
2 972 72
2 973 50
2 974 46
2 975 67
2 976 3
2 977 210
2 978 119
2 979 141
2 980 85
2 981 64
2 982 46
2 983 64
2 984 48
2 985 52
2 986 99
2 987 56
2 988 75
2 989 64
2 990 108
2 991 1
2 992 136
2 993 78
2 994 59
2 995 64
2 996 30
2 997 93
2 998 47
2 999 59
2 1000 53
2 1001 79
2 1002 71
2 1003 44
2 1004 30
2 1005 32
2 1006 35
2 1007 48
2 1008 47
2 1009 80
2 1010 162
2 1011 114
2 1012 50
2 1013 46
2 1014 59
2 1015 417
2 1016 44
2 1017 45
2 1018 51
2 1019 46
2 1020 62
2 1021 1
2 1022 115
2 1023 194
2 1024 69
2 1025 71
2 1026 1
2 1027 55
2 1028 373
2 1029 42
2 1030 61
2 1031 62
2 1032 50
2 1033 110
2 1034 62
2 1035 47
2 1036 45
2 1037 40
2 1038 62
2 1039 125
2 1040 40
2 1041 37
2 1042 38
2 1043 62
2 1044 57
2 1045 48
2 1046 47
2 1047 53
2 1048 48
2 1049 63
2 1050 61
2 1051 67
2 1052 69
2 1053 50
2 1054 56
2 1055 61
2 1056 120
2 1057 36
2 1058 43
2 1059 392
2 1060 105
2 1061 57
2 1062 64
2 1063 48
2 1064 162
2 1065 40
2 1066 108
2 1067 67
2 1068 69
2 1069 31
2 1070 46
2 1071 39
2 1072 72
2 1073 13
2 1075 42
2 1076 46
2 1077 35
2 1078 1
2 1079 138
2 1080 42
2 1081 51
2 1082 65
2 1083 51
2 1084 259
2 1085 42
2 1086 277
2 1087 45
2 1088 47
2 1089 48
2 1090 51
2 1091 49
2 1092 39
2 1093 84
2 1094 37
2 1095 1
2 1096 31
2 1097 67
2 1098 56
2 1099 52
2 1100 320
2 1101 43
2 1102 47
2 1103 42
2 1104 484
2 1105 134
2 1106 62
2 1107 44
2 1108 103
2 1109 91
2 1110 36
2 1111 37
2 1112 65
2 1113 46
2 1114 48
2 1115 116
2 1116 267
2 1117 54
2 1118 144
2 1119 446
2 1120 57
2 1121 46
2 1122 36
2 1123 54
2 1124 41
2 1125 46
2 1126 45
2 1127 44
2 1128 51
2 1129 42
2 1130 45
2 1131 52
2 1132 49
2 1133 47
2 1134 105
2 1135 41
2 1136 42
2 1137 396
2 1138 55
2 1139 31
2 1140 52
2 1141 101
2 1142 46
2 1143 57
2 1144 55
2 1145 336
2 1146 123
2 1147 49
2 1148 48
2 1149 48
2 1150 41
2 1151 135
2 1152 126
2 1153 67
2 1154 70
2 1155 57
2 1156 62
2 1157 117
2 1158 55
2 1159 40
2 1160 50
2 1161 4
2 1162 44
2 1163 34
2 1164 76
2 1165 46
2 1166 69
2 1167 3
2 1168 99
2 1169 40
2 1170 45
2 1171 34
2 1172 111
2 1173 61
2 1174 50
2 1175 531
2 1176 58
2 1177 49
2 1178 1
2 1179 39
2 1180 164
2 1181 61
2 1182 87
2 1183 15
2 1184 51
2 1185 82
2 1186 51
2 1187 66
2 1188 91
2 1189 50
2 1190 392
2 1191 296
2 1192 51
2 1193 62
2 1194 58
2 1195 85
2 1196 102
2 1197 57
2 1198 47
2 1199 54
2 1200 1
2 1201 1
2 1204 46
2 1205 54
2 1206 126
2 1207 47
2 1208 2
2 1209 304
2 1210 60
2 1211 40
2 1213 2
2 1214 86
2 1215 58
2 1216 56
2 1217 54
2 1218 52
2 1219 1
2 1220 47
2 1221 38
2 1222 103
2 1223 57
2 1224 71
2 1225 43
2 1226 45
2 1227 63
2 1228 48
2 1229 79
2 1230 58
2 1231 1
2 1232 59
2 1233 670
2 1234 43
2 1235 146
2 1236 239
2 1237 64
2 1238 48
2 1239 52
2 1240 380
2 1241 51
2 1242 51
2 1243 654
2 1244 48
2 1245 50
2 1246 52
2 1247 34
2 1248 109
2 1249 72
2 1250 86
2 1252 57
2 1253 59
2 1254 64
2 1255 41
2 1256 66
2 1257 95
2 1258 62
2 1259 20
2 1260 51
2 1261 42
2 1262 55
2 1263 53
2 1264 47
2 1265 69
2 1266 107
2 1267 228
2 1268 52
2 1269 54
2 1270 53
2 1271 64
2 1272 54
2 1273 77
2 1274 61
2 1275 55
2 1276 46
2 1277 59
2 1278 46
2 1279 88
2 1280 91
2 1281 562
2 1282 70
2 1283 57
2 1284 56
2 1285 184
2 1286 41
2 1287 49
2 1288 42
2 1289 64
2 1290 98
2 1291 1316
2 1292 55
2 1293 43
2 1294 59
2 1295 51
2 1296 1
2 1297 47
2 1298 48
2 1299 42
2 1300 59
2 1301 68
2 1302 55
2 1303 63
2 1304 55
2 1305 44
2 1306 65
2 1307 52
2 1308 518
2 1309 41
2 1310 66
2 1311 42
2 1312 107
2 1313 106
2 1314 46
2 1315 78
2 1316 10
2 1317 34
2 1318 66
2 1319 60
2 1320 51
2 1321 62
2 1322 63
2 1323 105
2 1324 54
2 1325 57
2 1326 74
2 1327 63
2 1328 124
2 1329 65
2 1330 55
2 1331 105
2 1332 59
2 1333 37
2 1334 58
2 1335 59
2 1336 101
2 1337 49
2 1338 76
2 1339 41
2 1340 628
2 1341 153
2 1342 43
2 1343 146
2 1344 49
2 1345 207
2 1346 95
2 1347 135
2 1348 52
2 1349 1
2 1350 53
2 1351 63
2 1352 50
2 1353 69
2 1354 1
2 1356 47
2 1357 61
2 1358 46
2 1359 56
2 1360 46
2 1361 58
2 1362 43
2 1363 57
2 1364 59
2 1365 43
2 1366 62
2 1367 64
2 1368 34
2 1369 80
2 1370 216
2 1371 70
2 1372 2
2 1373 435
2 1374 44
2 1375 78
2 1376 186
2 1377 61
2 1378 50
2 1379 57
2 1380 78
2 1382 95
2 1383 86
2 1384 1
2 1385 61
2 1386 86
2 1387 2
2 1388 59
2 1389 57
2 1390 42
2 1391 37
2 1392 54
2 1393 44
2 1394 72
2 1395 47
2 1396 78
2 1397 94
2 1398 60
2 1399 125
2 1400 197
2 1401 177
2 1402 54
2 1403 53
2 1404 54
2 1405 61
2 1406 106
2 1407 2
2 1408 56
2 1409 54
2 1410 240
2 1411 55
2 1413 83
2 1414 62
2 1415 45
2 1416 100
2 1417 62
2 1418 48
2 1419 53
2 1420 57
2 1421 46
2 1422 64
2 1423 68
2 1424 40
2 1425 80
2 1426 31
2 1427 52
2 1428 48
2 1429 2
2 1430 67
2 1431 67
2 1432 38
2 1433 78
2 1434 34
2 1435 53
2 1436 48
2 1437 46
2 1438 220
2 1439 41
2 1440 153
2 1441 55
2 1442 230
2 1443 85
2 1444 157
2 1445 162
2 1446 41
2 1447 51
2 1448 32
2 1449 50
2 1450 2
2 1451 74
2 1452 50
2 1453 36
2 1454 101
2 1455 59
2 1456 112
2 1457 44
2 1458 44
2 1459 64
2 1460 62
2 1461 59
2 1462 47
2 1463 72
2 1464 27
2 1465 1
2 1466 41
2 1467 45
2 1468 69
2 1469 73
2 1470 68
2 1471 101
2 1472 54
2 1473 105
2 1474 37
2 1475 70
2 1476 79
2 1477 50
2 1478 35
2 1479 44
2 1480 34
2 1481 58
2 1482 60
2 1483 49
2 1484 39
2 1485 54
2 1486 49
2 1487 41
2 1488 42
2 1489 40
2 1490 62
2 1491 43
2 1492 54
2 1493 104
2 1494 211
2 1495 56
2 1496 33
2 1497 43
2 1498 223
2 1499 49
2 1500 108
2 1501 1
2 1502 70
2 1503 54
2 1504 61
2 1505 54
2 1506 100
2 1507 79
2 1508 50
2 1510 131
2 1511 48
2 1512 62
2 1513 3
2 1514 61
2 1515 52
2 1516 62
2 1517 69
2 1518 56
2 1519 52
2 1520 50
2 1521 39
2 1522 99
2 1523 63
2 1524 79
2 1525 47
2 1526 57
2 1527 81
2 1528 62
2 1529 50
2 1530 52
2 1531 48
2 1532 48
2 1533 55
2 1534 49
2 1535 41
2 1536 727
2 1537 51
2 1538 52
2 1539 55
2 1540 92
2 1541 53
2 1542 56
2 1543 53
2 1544 77
2 1545 92
2 1546 52
2 1547 60
2 1548 69
2 1549 66
2 1550 115
2 1551 17
2 1552 52
2 1553 668
2 1554 641
2 1555 110
2 1556 57
2 1557 95
2 1558 56
2 1559 1
2 1560 123
2 1561 80
2 1562 48
2 1563 62
2 1564 62
2 1565 415
2 1566 69
2 1567 40
2 1568 107
2 1569 87
2 1570 62
2 1571 59
2 1572 159
2 1573 37
2 1574 247
2 1575 152
2 1576 42
2 1577 95
2 1578 67
2 1579 58
2 1580 325
2 1581 71
2 1582 59
2 1583 71
2 1584 66
2 1585 89
2 1586 39
2 1587 53
2 1588 58
2 1589 189
2 1590 55
2 1591 66
2 1592 41
2 1593 59
2 1594 69
2 1595 44
2 1596 105
2 1597 62
2 1598 85
2 1599 44
2 1600 52
2 1601 1102
2 1602 67
2 1603 87
2 1604 2
2 1605 49
2 1606 61
2 1607 36
2 1608 55
2 1609 44
2 1610 3
2 1611 44
2 1612 59
2 1613 685
2 1614 58
2 1615 79
2 1616 50
2 1617 55
2 1618 46
2 1619 65
2 1621 52
2 1622 42
2 1623 110
2 1624 69
2 1625 84
2 1626 92
2 1627 52
2 1628 49
2 1629 109
2 1630 69
2 1631 120
2 1632 54
2 1633 45
2 1634 97
2 1635 50
2 1636 75
2 1637 66
2 1638 83
2 1639 47
2 1640 68
2 1641 80
2 1642 43
2 1643 60
2 1644 46
2 1645 95
2 1646 60
2 1647 57
2 1648 112
2 1649 121
2 1650 52
2 1651 56
2 1652 188
2 1653 63
2 1654 47
2 1655 62
2 1656 28
2 1657 52
2 1658 81
2 1659 56
2 1660 40
2 1661 31
2 1662 65
2 1663 4
2 1664 54
2 1665 52
2 1666 59
2 1667 57
2 1668 61
2 1669 294
2 1670 41
2 1671 66
2 1672 60
2 1673 75
2 1674 51
2 1675 69
2 1676 44
2 1677 106
2 1678 83
2 1679 116
2 1680 55
2 1681 53
2 1682 137
2 1683 102
2 1684 44
2 1685 57
2 1686 71
2 1687 111
2 1688 48
2 1689 42
2 1690 49
2 1691 52
2 1692 68
2 1693 123
2 1694 67
2 1695 53
2 1696 46
2 1697 87
2 1698 2
2 1699 87
2 1700 70
2 1701 52
2 1702 55
2 1703 24
2 1704 59
2 1705 75
2 1706 35
2 1707 94
2 1709 60
2 1710 55
2 1711 202
2 1712 53
2 1713 97
2 1714 133
2 1715 105
2 1716 56
2 1717 88
2 1718 44
2 1719 53
2 1720 48
2 1721 104
2 1722 43
2 1723 46
2 1724 64
2 1725 55
2 1726 59
2 1727 42
2 1728 57
2 1729 163
2 1730 40
2 1731 82
2 1732 52
2 1733 56
2 1734 104
2 1735 5
2 1736 4
2 1737 48
2 1738 57
2 1739 55
2 1740 69
2 1741 318
2 1742 55
2 1743 48
2 1744 55
2 1745 37
2 1746 1
2 1747 233
2 1748 45
2 1749 70
2 1750 46
2 1751 109
2 1752 42
2 1753 62
2 1754 47
2 1755 59
2 1756 104
2 1757 55
2 1758 36
2 1759 48
2 1760 91
2 1761 81
2 1762 84
2 1763 54
2 1764 93
2 1765 66
2 1766 41
2 1767 38
2 1768 42
2 1769 634
2 1770 54
2 1771 50
2 1772 51
2 1773 90
2 1774 238
2 1775 52
2 1777 79
2 1778 48
2 1779 753
2 1780 48
2 1781 54
2 1782 72
2 1783 80
2 1784 54
2 1785 42
2 1786 52
2 1787 63
2 1788 64
2 1789 60
2 1790 129
2 1791 51
2 1792 55
2 1793 68
2 1794 338
2 1795 68
2 1796 76
2 1797 61
2 1798 2
2 1799 78
2 1800 195
2 1801 31
2 1802 69
2 1803 48
2 1804 209
2 1805 66
2 1806 77
2 1807 534
2 1808 3
2 1809 47
2 1810 39
2 1811 45
2 1812 82
2 1813 35
2 1814 50
2 1815 49
2 1816 81
2 1817 60
2 1818 59
2 1819 657
2 1820 47
2 1821 54
2 1822 54
2 1823 58
2 1824 53
2 1825 111
2 1826 27
2 1827 52
2 1828 65
2 1829 52
2 1830 283
2 1831 134
2 1832 59
2 1833 44
2 1834 209
2 1835 38
2 1836 636
2 1837 54
2 1838 53
2 1839 76
2 1840 60
2 1841 64
2 1842 72
2 1843 166
2 1844 44
2 1845 1
2 1846 32
2 1847 41
2 1848 39
2 1849 69
2 1850 47
2 1851 46
2 1852 32
2 1853 50
2 1854 55
2 1855 81
2 1856 91
2 1857 55
2 1858 51
2 1859 70
2 1860 1
2 1861 56
2 1862 176
2 1863 41
2 1864 58
2 1865 63
2 1866 49
2 1867 56
2 1868 57
2 1869 57
2 1870 86
2 1871 43
2 1872 160
2 1874 69
2 1875 48
2 1876 49
2 1877 68
2 1878 48
2 1879 54
2 1880 63
2 1881 51
2 1882 50
2 1883 1
2 1884 65
2 1885 90
2 1886 53
2 1887 62
2 1888 49
2 1889 50
2 1890 39
2 1891 51
2 1892 99
2 1893 35
2 1894 65
2 1895 45
2 1896 48
2 1897 43
2 1898 92
2 1899 1
2 1900 808
2 1901 57
2 1902 80
2 1903 62
2 1904 49
2 1905 42
2 1906 53
2 1907 49
2 1908 162
2 1909 77
2 1910 116
2 1911 47
2 1912 59
2 1913 336
2 1914 44
2 1915 40
2 1916 46
2 1917 38
2 1918 43
2 1919 91
2 1920 52
2 1921 54
2 1922 61
2 1923 94
2 1924 55
2 1925 36
2 1926 911
2 1927 23
2 1928 48
2 1929 39
2 1930 43
2 1931 39
2 1932 33
2 1933 49
2 1934 64
2 1935 49
2 1936 43
2 1937 558
2 1938 40
2 1939 36
2 1940 51
2 1941 51
2 1942 48
2 1943 359
2 1944 74
2 1945 48
2 1946 59
2 1947 45
2 1948 40
2 1949 119
2 1950 43
2 1951 54
2 1952 52
2 1953 74
2 1954 51
2 1955 79
2 1956 48
2 1957 79
2 1958 1
2 1959 1
2 1960 50
2 1961 51
2 1962 50
2 1963 48
2 1964 489
2 1965 92
2 1966 53
2 1967 2
2 1968 64
2 1969 50
2 1970 51
2 1971 60
2 1972 106
2 1973 33
2 1974 80
2 1975 112
2 1976 32
2 1977 58
2 1978 67
2 1979 65
2 1980 68
2 1981 120
2 1982 50
2 1983 68
2 1984 55
2 1985 1016
2 1986 56
2 1987 59
2 1988 60
2 1989 54
2 1990 83
2 1991 836
2 1992 36
2 1993 291
2 1994 103
2 1995 38
2 1996 35
2 1997 49
2 1998 140
2 1999 83
2 2000 60
2 2001 57
2 2002 62
2 2003 72
2 2004 45
2 2005 39
2 2006 48
2 2007 81
2 2008 46
2 2009 55
2 2010 1
2 2011 9
2 2012 60
2 2013 63
2 2014 56
2 2015 58
2 2016 56
2 2017 33
2 2018 39
2 2019 63
2 2020 44
2 2021 49
2 2022 72
2 2023 60
2 2024 49
2 2025 53
2 2026 40
2 2027 48
2 2028 60
2 2029 38
2 2030 58
2 2031 58
2 2032 58
2 2033 32
2 2034 66
2 2035 70
2 2036 61
2 2037 88
2 2038 527
2 2039 108
2 2040 86
2 2041 52
2 2042 17
2 2043 118
2 2044 45
2 2045 42
2 2046 48
2 2047 83
2 2048 42
2 2049 54
2 2050 46
2 2051 108
2 2052 61
2 2053 48
2 2054 67
2 2055 121
2 2056 40
2 2057 44
2 2058 63
2 2059 51
2 2060 52
2 2061 55
2 2062 47
2 2063 110
2 2064 30
2 2065 42
2 2066 59
2 2067 58
2 2068 56
2 2069 54
2 2070 47
2 2071 141
2 2072 60
2 2073 57
2 2074 180
2 2075 110
2 2076 1
2 2077 44
2 2078 660
2 2079 320
2 2080 34
2 2081 56
2 2082 719
2 2083 44
2 2084 39
2 2085 63
2 2086 134
2 2087 52
2 2088 50
2 2089 23
2 2090 63
2 2091 55
2 2092 26
2 2093 72
2 2094 82
2 2095 59
2 2096 76
2 2097 44
2 2098 40
2 2099 1
2 2100 142
2 2101 48
2 2102 58
2 2103 228
2 2104 22
2 2105 127
2 2106 110
2 2107 65
2 2108 44
2 2109 43
2 2110 63
2 2111 127
2 2112 51
2 2113 38
2 2114 61
2 2115 1
2 2116 40
2 2117 34
2 2118 54
2 2119 1
2 2120 99
2 2121 48
2 2122 62
2 2123 42
2 2124 53
2 2125 58
2 2126 60
2 2127 52
2 2128 36
2 2129 198
2 2130 42
2 2131 1
2 2132 46
2 2133 61
2 2134 52
2 2135 39
2 2136 40
2 2137 40
2 2138 54
2 2139 144
2 2140 46
2 2142 41
2 2143 118
2 2144 50
2 2145 46
2 2146 50
2 2147 91
2 2148 49
2 2149 1185
2 2150 61
2 2151 49
2 2152 80
2 2153 63
2 2154 45
2 2155 47
2 2156 139
2 2157 47
2 2158 67
2 2159 34
2 2160 28
2 2161 54
2 2162 149
2 2163 108
2 2164 27
2 2165 33
2 2166 53
2 2167 50
2 2168 51
2 2169 44
2 2170 54
2 2171 53
2 2172 96
2 2173 35
2 2174 56
2 2175 44
2 2176 53
2 2177 38
2 2178 61
2 2179 50
2 2180 36
2 2181 75
2 2183 2
2 2184 101
2 2185 55
2 2186 73
2 2187 51
2 2188 57
2 2189 87
2 2190 1
2 2191 42
2 2192 40
2 2193 67
2 2194 51
2 2195 100
2 2196 56
2 2197 587
2 2198 644
2 2199 48
2 2200 31
2 2201 122
2 2202 44
2 2203 40
2 2205 99
2 2206 62
2 2207 47
2 2208 45
2 2209 39
2 2210 59
2 2211 114
2 2212 55
2 2213 67
2 2214 45
2 2215 48
2 2216 42
2 2217 41
2 2218 26
2 2219 60
2 2220 59
2 2221 42
2 2222 1
2 2223 4
2 2224 7
2 2225 4
2 2226 3
2 2227 1
2 2228 1
2 2229 4
2 2230 5
2 2231 13
2 2232 1
2 2233 9
2 2234 6
2 2236 1
2 2237 10
2 2238 42
2 2239 43
2 2240 29
2 2241 46
2 2242 64
2 2243 28
2 2244 31
2 2245 46
2 2246 17
2 2247 72
2 2248 31
2 2249 32
2 2250 53
2 2251 32
2 2252 36
2 2253 46
2 2254 36
2 2255 244
2 2256 66
2 2257 75
2 2258 67
2 2259 48
2 2260 40
2 2261 50
2 2262 53
2 2263 39
2 2264 57
2 2265 56
2 2266 41
2 2267 73
2 2268 54
2 2269 50
2 2270 53
2 2271 34
2 2272 51
2 2273 236
2 2274 99
2 2275 57
2 2276 36
2 2277 49
2 2278 35
2 2279 77
2 2280 48
2 2281 28
2 2282 34
2 2283 63
2 2284 49
2 2285 5
2 2286 58
2 2287 109
2 2288 53
2 2289 57
2 2290 58
2 2291 1560
2 2292 185
2 2293 31
2 2294 65
2 2295 39
2 2296 57
2 2297 41
2 2298 57
2 2299 40
2 2300 51
2 2301 38
2 2302 398
2 2303 102
2 2304 54
2 2305 1
2 2306 19
2 2307 64
2 2308 35
2 2309 61
2 2310 87
2 2311 41
2 2312 45
2 2313 46
2 2314 1940
2 2315 40
2 2317 59
2 2318 45
2 2319 1
2 2320 88
2 2321 54
2 2322 35
2 2323 46
2 2324 52
2 2325 55
2 2326 64
2 2327 50
2 2328 38
2 2329 66
2 2330 87
2 2331 81
2 2332 42
2 2333 56
2 2334 117
2 2335 44
2 2336 37
2 2337 105
2 2338 50
2 2339 71
2 2340 36
2 2341 61
2 2342 96
2 2343 138
2 2344 43
2 2345 46
2 2346 3
2 2347 3
2 2348 43
2 2349 217
2 2350 46
2 2351 1060
2 2352 146
2 2353 146
2 2354 40
2 2355 44
2 2356 40
2 2357 51
2 2358 54
2 2359 35
2 2360 69
2 2361 54
2 2362 50
2 2363 47
2 2364 12
2 2365 230
2 2366 58
2 2367 62
2 2368 105
2 2369 59
2 2370 489
2 2371 39
2 2372 61
2 2373 50
2 2374 124
2 2375 49
2 2376 50
2 2377 91
2 2378 36
2 2379 40
2 2380 153
2 2381 116
2 2382 117
2 2383 150
2 2384 2
2 2385 86
2 2386 74
2 2387 41
2 2388 198
2 2389 1
2 2390 36
2 2391 53
2 2392 68
2 2393 52
2 2394 31
2 2395 2
2 2396 131
2 2397 141
2 2398 56
2 2399 65
2 2400 597
2 2401 56
2 2402 53
2 2403 130
2 2404 44
2 2405 80
2 2406 49
2 2407 48
2 2408 61
2 2409 78
2 2410 112
2 2411 135
2 2412 36
2 2413 87
2 2414 65
2 2415 60
2 2416 62
2 2417 155
2 2418 90
2 2419 128
2 2420 66
2 2421 59
2 2422 57
2 2423 18
2 2424 162
2 2425 47
2 2426 39
2 2427 52
2 2428 61
2 2429 44
2 2430 51
2 2431 46
2 2432 61
2 2433 130
2 2434 59
2 2435 50
2 2436 57
2 2437 60
2 2438 54
2 2439 37
2 2440 94
2 2441 49
2 2442 111
2 2443 257
2 2444 151
2 2445 59
2 2446 159
2 2447 168
2 2448 71
2 2449 62
2 2450 71
2 2451 295
2 2452 77
2 2453 39
2 2454 234
2 2455 40
2 2456 49
2 2457 54
2 2458 65
2 2459 58
2 2460 51
2 2461 88
2 2462 79
2 2463 50
2 2464 134
2 2465 212
2 2466 57
2 2467 35
2 2468 47
2 2469 54
2 2470 54
2 2471 204
2 2472 1
2 2473 55
2 2474 38
2 2475 64
2 2476 52
2 2477 36
2 2478 45
2 2479 57
2 2480 41
2 2481 44
2 2482 72
2 2483 60
2 2484 57
2 2485 83
2 2486 38
2 2487 31
2 2488 48
2 2489 73
2 2490 57
2 2491 738
2 2492 51
2 2493 77
2 2494 57
2 2495 68
2 2496 120
2 2497 43
2 2498 40
2 2499 80
2 2500 58
2 2501 78
2 2502 595
2 2503 55
2 2504 48
2 2505 45
2 2506 47
2 2507 44
2 2508 434
2 2509 40
2 2510 48
2 2511 73
2 2512 31
2 2513 41
2 2514 35
2 2515 239
2 2516 47
2 2517 118
2 2518 66
2 2519 58
2 2520 40
2 2521 62
2 2522 89
2 2523 129
2 2524 46
2 2525 65
2 2526 191
2 2527 54
2 2528 48
2 2529 1
2 2530 142
2 2531 313
2 2532 52
2 2533 48
2 2534 49
2 2535 41
2 2536 56
2 2537 80
2 2538 58
2 2539 136
2 2540 45
2 2541 69
2 2542 40
2 2543 135
2 2544 55
2 2545 394
2 2546 75
2 2547 158
2 2548 64
2 2549 44
2 2550 55
2 2551 1
2 2552 63
2 2553 63
2 2554 69
2 2555 54
2 2556 57
2 2557 85
2 2558 58
2 2559 39
2 2560 70
2 2561 1
2 2562 427
2 2563 62
2 2564 990
2 2565 74
2 2566 57
2 2567 62
2 2568 353
2 2569 33
2 2570 587
2 2571 50
2 2572 83
2 2573 50
2 2574 95
2 2575 57
2 2576 13
2 2577 111
2 2578 69
2 2579 33
2 2580 2
2 2581 19
2 2582 47
2 2583 55
2 2584 93
2 2586 73
2 2587 262
2 2588 83
2 2589 33
2 2590 1368
2 2591 110
2 2592 43
2 2593 99
2 2594 42
2 2595 64
2 2596 48
2 2597 46
2 2598 36
2 2599 1
2 2600 54
2 2601 256
2 2602 60
2 2603 57
2 2604 57
2 2605 48
2 2606 51
2 2607 60
2 2608 88
2 2609 1080
2 2610 87
2 2611 51
2 2612 932
2 2613 45
2 2614 175
2 2615 43
2 2616 374
2 2617 52
2 2618 66
2 2619 50
2 2620 51
2 2621 116
2 2622 106
2 2623 42
2 2624 61
2 2625 41
2 2626 112
2 2627 80
2 2628 42
2 2629 333
2 2630 49
2 2631 71
2 2632 35
2 2633 54
2 2634 39
2 2635 10
2 2636 45
2 2637 210
2 2638 379
2 2639 98
2 2640 37
2 2641 56
2 2642 52
2 2643 94
2 2644 39
2 2645 30
2 2646 97
2 2647 26
2 2648 53
2 2649 41
2 2650 4
2 2651 49
2 2652 46
2 2653 191
2 2654 36
2 2655 63
2 2656 50
2 2657 50
2 2658 44
2 2659 70
2 2660 167
2 2661 38
2 2662 145
2 2663 61
2 2664 507
2 2665 42
2 2666 71
2 2667 56
2 2668 48
2 2669 79
2 2670 52
2 2671 72
2 2672 44
2 2673 83
2 2674 80
2 2675 43
2 2676 37
2 2677 56
2 2678 42
2 2679 573
2 2680 38
2 2681 4
2 2682 58
2 2683 4
2 2684 52
2 2685 50
2 2686 65
2 2687 41
2 2688 90
2 2689 52
2 2690 39
2 2691 1033
2 2692 52
2 2693 54
2 2694 32
2 2695 82
2 2696 35
2 2697 37
2 2698 39
2 2699 30
2 2700 34
2 2701 80
2 2702 1
2 2703 14
2 2704 44
2 2705 42
2 2706 37
2 2707 59
2 2708 56
2 2709 55
2 2710 19
2 2711 50
2 2712 63
2 2713 124
2 2714 49
2 2715 63
2 2716 86
2 2717 29
2 2718 163
2 2719 48
2 2721 1065
2 2722 47
2 2723 390
2 2724 44
2 2725 39
2 2726 53
2 2727 41
2 2728 686
2 2729 478
2 2730 51
2 2731 57
2 2732 38
2 2733 44
2 2734 32
2 2735 660
2 2737 107
2 2738 115
2 2739 54
2 2740 136
2 2741 69
2 2742 61
2 2743 38
2 2744 56
2 2745 180
2 2746 44
2 2747 51
2 2748 48
2 2749 29
2 2750 3
2 2751 87
2 2752 38
2 2753 411
2 2754 72
2 2755 49
2 2756 45
2 2757 46
2 2758 31
2 2759 43
2 2760 58
2 2761 96
2 2762 28
2 2763 79
2 2764 2
2 2765 32
2 2766 59
2 2767 28
2 2768 41
2 2769 33
2 2770 40
2 2771 64
2 2772 38
2 2773 48
2 2774 64
2 2775 39
2 2776 44
2 2777 41
2 2778 34
2 2779 33
2 2780 50
2 2781 36
2 2782 36
2 2783 524
2 2784 88
2 2785 79
2 2786 37
2 2787 49
2 2788 74
2 2789 70
2 2790 38
2 2791 499
2 2792 43
2 2793 43
2 2794 43
2 2795 85
2 2796 51
2 2797 68
2 2798 44
2 2799 51
2 2800 31
2 2801 54
2 2802 47
2 2803 48
2 2804 51
2 2805 74
2 2806 26
2 2807 38
2 2808 136
2 2809 44
2 2810 49
2 2811 53
2 2812 40
2 2813 42
2 2814 119
2 2815 26
2 2816 47
2 2817 33
2 2818 31
2 2819 71
2 2820 176
2 2821 38
2 2822 34
2 2823 39
2 2824 29
2 2825 60
2 2826 71
2 2827 43
2 2828 43
2 2829 76
2 2830 98
2 2831 51
2 2832 67
2 2833 41
2 2834 83
2 2835 57
2 2836 35
2 2837 60
2 2838 116
2 2839 74
2 2840 36
2 2841 446
2 2843 44
2 2844 44
2 2845 222
2 2846 30
2 2847 48
2 2848 93
2 2849 69
2 2850 42
2 2851 38
2 2852 35
2 2853 52
2 2854 7
2 2855 41
2 2856 49
2 2857 96
2 2858 60
2 2859 107
2 2860 1
2 2861 35
2 2862 223
2 2863 32
2 2864 99
2 2865 48
2 2866 1055
2 2867 43
2 2868 40
2 2869 77
2 2870 46
2 2871 29
2 2872 46
2 2873 131
2 2874 37
2 2875 89
2 2876 48
2 2877 46
2 2878 70
2 2879 47
2 2880 38
2 2881 60
2 2882 414
2 2883 42
2 2884 45
2 2885 210
2 2887 39
2 2888 40
2 2889 47
2 2890 27
2 2891 41
2 2892 38
2 2893 51
2 2894 39
2 2895 96
2 2896 34
2 2897 90
2 2898 48
2 2899 43
2 2900 45
2 2901 30
2 2902 48
2 2903 50
2 2904 1
2 2905 508
2 2906 40
2 2907 66
2 2908 8
2 2909 35
2 2910 53
2 2911 50
2 2912 46
2 2913 68
2 2914 36
2 2915 115
2 2916 76
2 2917 31
2 2918 49
2 2919 67
2 2920 94
2 2921 31
2 2923 39
2 2924 52
2 2925 53
2 2926 50
2 2927 47
2 2928 31
2 2929 47
2 2930 104
2 2931 60
2 2932 68
2 2933 46
2 2934 510
2 2935 42
2 2936 84
2 2937 34
2 2938 22
2 2939 44
2 2940 62
2 2941 29
2 2942 35
2 2943 383
2 2944 32
2 2945 32
2 2946 54
2 2947 32
2 2948 33
2 2949 35
2 2950 251
2 2951 42
2 2952 40
2 2953 55
2 2954 38
2 2955 30
2 2956 137
2 2957 33
2 2958 66
2 2959 41
2 2960 28
2 2961 27
2 2962 32
2 2963 66
2 2964 43
2 2965 44
2 2966 44
2 2967 40
2 2968 37
2 2969 64
2 2970 63
2 2971 110
2 2972 100
2 2973 29
2 2974 55
2 2975 79
2 2976 35
2 2977 49
2 2978 47
2 2979 23
2 2980 19
2 2981 35
2 2982 32
2 2983 41
2 2984 32
2 2985 42
2 2986 426
2 2987 63
2 2988 68
2 2989 76
2 2990 31
2 2991 32
2 2992 67
2 2993 26
2 2994 31
2 2995 92
2 2996 32
2 2997 45
2 2999 42
2 3000 44
2 3001 35
2 3002 1
2 3003 48
2 3004 29
2 3005 31
2 3006 120
2 3007 1
2 3008 412
2 3009 152
2 3010 37
2 3011 37
2 3012 35
2 3013 4
2 3014 39
2 3015 30
2 3016 42
2 3017 35
2 3018 37
2 3019 28
2 3021 73
2 3022 28
2 3023 111
2 3024 82
2 3025 181
2 3026 485
2 3027 63
2 3028 45
2 3029 29
2 3030 136
2 3031 90
2 3032 85
2 3033 308
2 3034 67
2 3035 105
2 3036 25
2 3037 38
2 3038 409
2 3039 52
2 3040 38
2 3041 44
2 3042 73
2 3043 36
2 3044 37
2 3045 65
2 3046 605
2 3047 41
2 3048 56
2 3049 48
2 3050 480
2 3051 45
2 3052 54
2 3053 43
2 3054 429
2 3055 28
2 3056 38
2 3057 42
2 3058 46
2 3059 112
2 3060 39
2 3061 32
2 3062 117
2 3063 9
2 3064 42
2 3065 70
2 3066 31
2 3067 48
2 3068 36
2 3069 40
2 3070 71
2 3071 76
2 3072 32
2 3073 26
2 3074 40
2 3075 105
2 3076 34
2 3077 51
2 3078 97
2 3079 66
2 3080 36
2 3081 48
2 3083 57
2 3084 617
2 3085 35
2 3086 1
2 3087 45
2 3088 49
2 3089 56
2 3090 96
2 3091 60
2 3092 42
2 3093 45
2 3094 190
2 3095 92
2 3096 584
2 3097 55
2 3098 27
2 3099 111
2 3100 41
2 3101 144
2 3102 140
2 3103 197
2 3104 23
2 3105 41
2 3106 105
2 3107 25
2 3108 59
2 3109 41
2 3110 31
2 3111 37
2 3112 33
2 3113 131
2 3114 32
2 3115 42
2 3116 35
2 3117 33
2 3118 26
2 3119 38
2 3120 49
2 3121 32
2 3122 41
2 3123 36
2 3124 29
2 3125 51
2 3126 29
2 3127 33
2 3128 37
2 3129 284
2 3130 38
2 3131 38
2 3132 42
2 3133 54
2 3134 1
2 3135 122
2 3136 55
2 3137 46
2 3138 36
2 3139 40
2 3140 35
2 3141 50
2 3142 57
2 3143 109
2 3144 39
2 3145 38
2 3146 58
2 3147 110
2 3148 23
2 3149 45
2 3150 25
2 3151 28
2 3152 39
2 3153 39
2 3154 46
2 3155 31
2 3156 41
2 3157 240
2 3158 61
2 3159 29
2 3160 390
2 3161 57
2 3162 45
2 3163 41
2 3165 36
2 3166 55
2 3167 40
2 3168 29
2 3169 72
2 3170 72
2 3171 59
2 3172 103
2 3173 49
2 3174 144
2 3175 37
2 3176 56
2 3177 27
2 3178 22
2 3180 54
2 3181 53
2 3182 57
2 3183 46
2 3184 64
2 3185 143
2 3186 583
2 3187 46
2 3188 72
2 3189 638
2 3190 39
2 3191 48
2 3192 42
2 3193 46
2 3194 62
2 3195 39
2 3196 109
2 3197 33
2 3198 39
2 3199 48
2 3200 57
2 3201 46
2 3202 63
2 3203 41
2 3204 31
2 3205 114
2 3206 32
2 3207 298
2 3208 103
2 3209 68
2 3210 40
2 3211 35
2 3212 19
2 3213 40
2 3214 31
2 3215 52
2 3216 37
2 3217 94
2 3218 29
2 3219 48
2 3220 31
2 3221 24
2 3222 195
2 3223 41
2 3224 35
2 3225 620
2 3226 81
2 3227 40
2 3228 36
2 3229 47
2 3230 24
2 3231 49
2 3232 66
2 3233 67
2 3234 80
2 3236 24
2 3237 87
2 3238 39
2 3239 40
2 3240 44
2 3241 32
2 3242 441
2 3243 69
2 3244 38
2 3245 56
2 3246 45
2 3247 53
2 3248 71
2 3249 33
2 3250 172
2 3251 84
2 3252 49
2 3253 32
2 3254 42
2 3255 55
2 3256 38
2 3257 41
2 3258 182
2 3259 68
2 3260 39
2 3261 84
2 3262 337
2 3263 44
2 3264 44
2 3265 37
2 3266 26
2 3267 51
2 3268 103
2 3269 45
2 3270 64
2 3271 35
2 3272 24
2 3273 60
2 3274 39
2 3275 47
2 3276 35
2 3277 40
2 3278 37
2 3279 33
2 3280 1
2 3281 49
2 3282 45
2 3283 35
2 3284 115
2 3285 38
2 3286 38
2 3287 463
2 3288 79
2 3289 29
2 3290 67
2 3291 43
2 3292 55
2 3293 40
2 3294 48
2 3295 25
2 3296 40
2 3297 27
2 3298 70
2 3299 39
2 3300 82
2 3301 1
2 3302 37
2 3303 39
2 3304 35
2 3305 71
2 3306 642
2 3307 27
2 3308 100
2 3309 1
2 3310 27
2 3311 39
2 3312 43
2 3313 31
2 3314 30
2 3315 21
2 3316 29
2 3317 66
2 3319 40
2 3320 27
2 3321 41
2 3322 83
2 3323 88
2 3324 44
2 3325 42
2 3326 35
2 3327 41
2 3328 66
2 3329 52
2 3331 42
2 3332 37
2 3333 239
2 3334 64
2 3335 79
2 3336 97
2 3337 36
2 3338 33
2 3339 41
2 3340 53
2 3341 540
2 3342 118
2 3343 44
2 3344 52
2 3345 48
2 3346 67
2 3347 66
2 3348 66
2 3349 374
2 3350 468
2 3351 34
2 3352 40
2 3353 33
2 3354 46
2 3355 38
2 3356 44
2 3357 35
2 3358 39
2 3359 28
2 3360 35
2 3361 39
2 3362 49
2 3363 41
2 3364 37
2 3365 46
2 3366 33
2 3367 26
2 3368 30
2 3369 34
2 3370 37
2 3371 76
2 3372 42
2 3373 44
2 3374 41
2 3375 36
2 3376 35
2 3377 71
2 3378 50
2 3379 42
2 3380 42
2 3381 793
2 3382 37
2 3383 29
2 3384 43
2 3385 39
2 3386 46
2 3387 46
2 3388 48
2 3389 51
2 3390 65
2 3391 33
2 3392 43
2 3393 39
2 3394 38
2 3395 50
2 3396 46
2 3397 49
2 3398 47
2 3399 46
2 3400 50
2 3401 90
2 3402 60
2 3403 82
2 3404 48
2 3405 44
2 3406 24
2 3407 34
2 3408 69
2 3409 45
2 3410 288
2 3411 31
2 3412 1
2 3413 43
2 3414 57
2 3415 47
2 3416 39
2 3417 81
2 3418 115
2 3419 29
2 3420 39
2 3421 159
2 3422 30
2 3423 74
2 3424 43
2 3425 581
2 3426 102
2 3427 46
2 3428 52
2 3429 37
2 3430 71
2 3431 38
2 3432 50
2 3433 47
2 3434 44
2 3435 46
2 3436 30
2 3437 75
2 3438 59
2 3439 43
2 3440 34
2 3441 36
2 3442 31
2 3443 34
2 3444 1186
2 3445 47
2 3446 34
2 3447 35
2 3448 53
2 3449 38
2 3450 37
2 3451 46
2 3452 37
2 3453 32
2 3454 51
2 3455 54
2 3457 30
2 3458 34
2 3459 34
2 3460 45
2 3461 46
2 3462 39
2 3463 72
2 3464 35
2 3465 37
2 3466 47
2 3467 39
2 3468 47
2 3469 32
2 3470 50
2 3471 51
2 3472 136
2 3473 150
2 3474 72
2 3475 61
2 3476 30
2 3477 34
2 3478 40
2 3479 57
2 3481 39
2 3482 42
2 3483 40
2 3484 56
2 3485 80
2 3486 80
2 3487 66
2 3488 2
2 3489 69
2 3490 44
2 3491 33
2 3492 39
2 3493 31
2 3494 45
2 3495 74
2 3496 54
2 3497 44
2 3498 29
2 3499 33
2 3500 55
2 3501 38
2 3502 119
2 3503 34
2 3504 132
2 3505 8
2 3506 8
2 3507 38
2 3508 65
2 3509 37
2 3510 27
2 3511 42
2 3512 66
2 3513 28
2 3514 54
2 3515 48
2 3516 29
2 3517 34
2 3518 30
2 3519 64
2 3520 137
2 3521 47
2 3522 43
2 3523 45
2 3524 46
2 3525 49
2 3526 29
2 3527 36
2 3528 87
2 3529 1
2 3530 134
2 3531 28
2 3532 51
2 3533 62
2 3534 33
2 3535 47
2 3536 36
2 3537 100
2 3538 55
2 3539 75
2 3540 239
2 3542 49
2 3543 38
2 3544 87
2 3545 40
2 3546 41
2 3547 49
2 3548 83
2 3549 56
2 3550 34
2 3552 40
2 3553 43
2 3554 46
2 3555 40
2 3556 38
2 3557 46
2 3558 35
2 3559 285
2 3560 41
2 3561 47
2 3562 83
2 3563 43
2 3564 38
2 3565 34
2 3566 35
2 3567 50
2 3568 82
2 3569 41
2 3570 121
2 3571 53
2 3572 27
2 3573 46
2 3574 39
2 3575 23
2 3576 248
2 3577 40
2 3578 52
2 3579 39
2 3580 23
2 3581 142
2 3582 34
2 3583 36
2 3584 53
2 3585 1
2 3586 46
2 3587 72
2 3588 63
2 3589 52
2 3590 24
2 3591 48
2 3592 55
2 3593 135
2 3594 90
2 3595 36
2 3596 55
2 3597 65
2 3598 25
2 3599 70
2 3600 42
2 3601 62
2 3602 72
2 3603 141
2 3604 57
2 3605 25
2 3606 377
2 3607 27
2 3608 32
2 3609 47
2 3610 46
2 3611 116
2 3612 159
2 3613 64
2 3614 20
2 3615 36
2 3616 43
2 3617 45
2 3618 58
2 3619 58
2 3620 99
2 3621 46
2 3622 46
2 3623 36
2 3624 403
2 3625 55
2 3626 33
2 3627 26
2 3628 39
2 3629 39
2 3630 790
2 3631 33
2 3632 29
2 3633 21
2 3634 75
2 3635 166
2 3636 57
2 3637 363
2 3638 35
2 3639 31
2 3640 88
2 3641 52
2 3642 35
2 3643 343
2 3644 34
2 3645 50
2 3646 77
2 3647 40
2 3648 55
2 3649 39
2 3650 50
2 3651 47
2 3652 34
2 3653 30
2 3654 60
2 3655 40
2 3656 35
2 3657 31
2 3658 37
2 3659 35
2 3660 38
2 3661 43
2 3662 38
2 3663 58
2 3664 37
2 3665 142
2 3666 37
2 3667 92
2 3668 101
2 3669 31
2 3670 14
2 3671 113
2 3672 35
2 3673 218
2 3674 40
2 3675 47
2 3676 156
2 3677 92
2 3678 22
2 3679 52
2 3680 184
2 3681 59
2 3682 30
2 3683 36
2 3684 30
2 3686 40
2 3687 21
2 3688 23
2 3689 34
2 3690 40
2 3691 95
2 3692 33
2 3693 59
2 3694 43
2 3695 36
2 3696 105
2 3697 76
2 3698 81
2 3699 46
2 3700 47
2 3701 34
2 3702 1
2 3703 36
2 3704 34
2 3705 30
2 3706 42
2 3707 98
2 3708 31
2 3709 161
2 3710 27
2 3711 33
2 3712 69
2 3713 25
2 3714 50
2 3715 24
2 3716 48
2 3717 26
2 3718 32
2 3719 36
2 3720 65
2 3721 30
2 3722 41
2 3723 35
2 3724 31
2 3725 49
2 3726 46
2 3727 57
2 3728 60
2 3729 31
2 3730 31
2 3731 29
2 3732 31
2 3733 20
2 3734 28
2 3735 36
2 3736 27
2 3737 21
2 3738 31
2 3739 16
2 3740 19
2 3741 14
2 3742 9
2 3743 20
2 3744 22
2 3745 16
2 3746 14
2 3747 28
2 3748 27
2 3749 10
2 3750 20
2 3751 28
2 3752 90
2 3753 24
2 3754 35
2 3755 40
2 3756 80
2 3757 8
2 3758 56
2 3759 33
2 3761 26
2 3762 35
2 3763 16
2 3764 28
2 3765 25
2 3766 36
2 3767 196
2 3768 49
2 3769 26
2 3770 29
2 3771 20
2 3772 26
2 3773 21
2 3774 33
2 3775 31
2 3776 18
2 3777 30
2 3778 58
2 3779 36
2 3780 398
2 3781 92
2 3782 57
2 3783 31
2 3784 71
2 3785 27
2 3786 32
2 3787 42
2 3788 27
2 3790 20
2 3791 117
2 3792 21
2 3793 29
2 3794 28
2 3795 51
2 3796 29
2 3797 161
2 3798 29
2 3799 38
2 3800 48
2 3801 37
2 3802 70
2 3803 35
2 3804 39
2 3805 41
2 3806 34
2 3807 37
2 3808 18
2 3809 25
2 3810 32
2 3811 1
2 3812 36
2 3813 316
2 3814 45
2 3815 28
2 3816 27
2 3817 19
2 3818 160
2 3819 37
2 3820 28
2 3821 78
2 3822 38
2 3823 62
2 3824 32
2 3825 37
2 3826 37
2 3827 35
2 3828 104
2 3829 57
2 3830 578
2 3831 529
2 3832 194
2 3833 3
2 3834 4
2 3835 11
2 3836 74
2 3837 183
2 3838 23
2 3839 25
2 3840 28
2 3841 260
2 3842 25
2 3843 24
2 3845 495
2 3846 70
2 3847 32
2 3848 200
2 3849 36
2 3850 22
2 3851 36
2 3852 18
2 3853 25
2 3854 31
2 3855 18
2 3856 21
2 3857 31
2 3859 31
2 3860 1
2 3861 22
2 3862 25
2 3863 45
2 3864 19
2 3865 37
2 3866 49
2 3867 24
2 3868 1
2 3869 142
2 3870 38
2 3871 27
2 3872 58
2 3873 39
2 3874 108
2 3875 42
2 3876 43
2 3877 35
2 3878 70
2 3879 28
2 3880 16
2 3881 75
2 3882 41
2 3883 31
2 3884 72
2 3885 33
2 3886 17
2 3887 31
2 3888 32
2 3889 50
2 3890 78
2 3891 72
2 3892 76
2 3893 56
2 3894 36
2 3895 109
2 3896 46
2 3897 56
2 3898 32
2 3899 32
2 3900 21
2 3901 29
2 3902 41
2 3903 38
2 3904 73
2 3905 28
2 3906 74
2 3907 23
2 3908 30
2 3909 18
2 3910 30
2 3911 25
2 3912 60
2 3913 95
2 3914 93
2 3915 44
2 3916 81
2 3917 30
2 3918 44
2 3919 353
2 3920 29
2 3921 37
2 3922 40
2 3923 43
2 3924 108
2 3925 37
2 3926 159
2 3927 50
2 3928 317
2 3929 29
2 3930 32
2 3931 167
2 3932 36
2 3934 33
2 3935 2
2 3936 41
2 3937 56
2 3938 24
2 3939 26
2 3940 68
2 3941 33
2 3942 37
2 3943 33
2 3944 4
2 3945 10
2 3946 26
2 3947 36
2 3948 45
2 3949 36
2 3950 211
2 3951 32
2 3952 50
2 3953 39
2 3954 32
2 3955 59
2 3956 55
2 3957 64
2 3958 34
2 3959 29
2 3960 24
2 3961 211
2 3962 29
2 3963 23
2 3964 75
2 3965 37
2 3966 24
2 3967 38
2 3968 19
2 3969 25
2 3970 61
2 3971 2
2 3972 27
2 3973 37
2 3974 28
2 3975 26
2 3976 26
2 3977 53
2 3978 33
2 3979 34
2 3980 29
2 3981 21
2 3982 101
2 3983 93
2 3984 43
2 3985 37
2 3986 2
2 3987 37
2 3988 35
2 3989 29
2 3990 25
2 3991 31
2 3992 41
2 3993 46
2 3994 26
2 3995 29
2 3996 17
2 3997 24
2 3998 54
2 3999 28
2 4000 31
2 4001 18
2 4002 38
2 4003 32
2 4004 639
2 4005 22
2 4006 33
2 4007 22
2 4008 22
2 4009 51
2 4010 30
2 4011 27
2 4012 31
2 4013 20
2 4014 36
2 4015 19
2 4016 26
2 4017 35
2 4018 45
2 4019 49
2 4020 50
2 4021 86
2 4022 44
2 4023 54
2 4024 45
2 4025 49
2 4026 1
2 4027 39
2 4028 40
2 4029 1067
2 4030 25
2 4031 80
2 4032 505
2 4033 38
2 4034 37
2 4035 36
2 4036 74
2 4037 38
2 4038 48
2 4039 39
2 4040 481
2 4041 37
2 4042 45
2 4043 27
2 4044 31
2 4045 71
2 4046 42
2 4047 36
2 4048 46
2 4049 68
2 4050 45
2 4051 39
2 4052 59
2 4053 49
2 4054 42
2 4055 41
2 4056 57
2 4057 49
2 4058 82
2 4059 132
2 4060 85
2 4061 40
2 4062 77
2 4063 41
2 4064 77
2 4065 105
2 4066 80
2 4068 354
2 4069 50
2 4070 45
2 4071 36
2 4072 54
2 4073 3
2 4074 59
2 4075 481
2 4076 52
2 4077 58
2 4078 79
2 4079 53
2 4080 38
2 4081 64
2 4082 66
2 4084 1
2 4085 208
2 4086 289
2 4087 58
2 4088 136
2 4089 42
2 4090 51
2 4091 50
2 4092 330
2 4093 90
2 4094 46
2 4095 52
2 4096 41
2 4097 39
2 4098 79
2 4099 98
2 4100 33
2 4101 57
2 4102 44
2 4103 122
2 4104 36
2 4105 108
2 4106 50
2 4107 67
2 4108 116
2 4109 46
2 4110 188
2 4111 43
2 4112 39
2 4113 40
2 4114 39
2 4115 83
2 4116 55
2 4117 41
2 4118 5
2 4119 47
2 4120 70
2 4121 46
2 4122 56
2 4123 60
2 4124 47
2 4125 89
2 4126 80
2 4127 55
2 4128 71
2 4129 36
2 4130 446
2 4131 41
2 4132 55
2 4133 47
2 4134 50
2 4135 51
2 4136 42
2 4137 386
2 4138 68
2 4139 45
2 4140 16
2 4141 55
2 4142 107
2 4143 252
2 4144 48
2 4145 128
2 4146 83
2 4147 52
2 4148 104
2 4149 79
2 4150 54
2 4151 1
2 4152 54
2 4153 62
2 4154 49
2 4155 51
2 4156 104
2 4157 44
2 4158 34
2 4159 68
2 4160 73
2 4161 41
2 4162 55
2 4163 56
2 4164 24
2 4165 50
2 4166 654
2 4167 52
2 4168 90
2 4169 53
2 4170 135
2 4171 64
2 4172 70
2 4173 38
2 4174 25
2 4175 62
2 4176 28
2 4177 42
2 4178 60
2 4179 130
2 4180 33
2 4181 50
2 4182 50
2 4183 140
2 4184 45
2 4185 59
2 4186 46
2 4187 100
2 4188 44
2 4189 32
2 4190 273
2 4191 79
2 4192 54
2 4193 51
2 4194 50
2 4195 60
2 4196 63
2 4197 55
2 4198 31
2 4199 74
2 4200 53
2 4201 90
2 4202 89
2 4203 108
2 4204 41
2 4205 79
2 4206 50
2 4207 42
2 4208 56
2 4209 113
2 4210 76
2 4211 73
2 4212 35
2 4213 35
2 4214 40
2 4215 66
2 4216 49
2 4217 48
2 4218 49
2 4219 293
2 4220 49
2 4221 69
2 4222 33
2 4223 110
2 4224 443
2 4225 67
2 4226 68
2 4227 46
2 4228 49
2 4229 781
2 4230 41
2 4231 43
2 4232 65
2 4233 67
2 4234 48
2 4235 519
2 4236 52
2 4237 132
2 4238 54
2 4239 51
2 4240 252
2 4241 2
2 4242 46
2 4243 55
2 4244 45
2 4245 76
2 4246 87
2 4247 210
2 4248 54
2 4249 51
2 4250 1
2 4251 66
2 4252 32
2 4253 66
2 4254 76
2 4255 73
2 4256 1
2 4257 50
2 4258 80
2 4259 41
2 4260 39
2 4261 46
2 4262 50
2 4263 56
2 4264 44
2 4265 584
2 4266 61
2 4267 86
2 4268 72
2 4269 35
2 4270 47
2 4271 67
2 4272 46
2 4273 36
2 4274 35
2 4275 56
2 4276 80
2 4277 40
2 4278 357
2 4279 70
2 4280 61
2 4281 72
2 4282 44
2 4283 81
2 4284 1
2 4285 63
2 4286 69
2 4287 39
2 4288 40
2 4289 36
2 4290 50
2 4291 51
2 4292 73
2 4293 50
2 4294 79
2 4295 452
2 4296 72
2 4297 55
2 4298 60
2 4299 40
2 4300 58
2 4301 571
2 4302 68
2 4303 141
2 4304 3
2 4305 101
2 4306 76
2 4307 39
2 4308 59
2 4309 53
2 4310 46
2 4311 78
2 4312 61
2 4313 113
2 4314 1
2 4315 45
2 4316 248
2 4318 52
2 4319 57
2 4320 43
2 4321 52
2 4322 19
2 4323 27
2 4324 63
2 4325 52
2 4326 37
2 4327 45
2 4328 135
2 4329 38
2 4330 1
2 4331 57
2 4332 55
2 4333 55
2 4334 57
2 4335 255
2 4336 52
2 4337 1
2 4338 123
2 4339 104
2 4340 37
2 4341 97
2 4342 66
2 4343 64
2 4344 35
2 4345 83
2 4346 172
2 4347 41
2 4348 57
2 4349 64
2 4350 75
2 4351 45
2 4352 82
2 4353 435
2 4354 290
2 4355 50
2 4356 70
2 4357 64
2 4358 86
2 4359 55
2 4360 55
2 4361 44
2 4362 49
2 4363 74
2 4364 48
2 4365 60
2 4366 52
2 4367 234
2 4368 49
2 4369 121
2 4370 82
2 4371 32
2 4372 85
2 4373 39
2 4374 69
2 4375 60
2 4376 42
2 4377 29
2 4378 107
2 4379 35
2 4380 49
2 4381 405
2 4382 57
2 4383 43
2 4384 26
2 4385 53
2 4386 196
2 4387 46
2 4388 37
2 4389 58
2 4390 67
2 4391 62
2 4392 388
2 4393 41
2 4394 89
2 4395 47
2 4396 85
2 4397 85
2 4398 106
2 4399 145
2 4400 53
2 4401 90
2 4402 54
2 4403 284
2 4404 304
2 4406 41
2 4407 42
2 4408 166
2 4409 43
2 4410 46
2 4411 14
2 4413 49
2 4415 48
2 4416 106
2 4417 43
2 4418 65
2 4419 39
2 4420 33
2 4421 25
2 4422 49
2 4423 43
2 4424 45
2 4425 146
2 4426 66
2 4427 46
2 4428 58
2 4429 32
2 4430 47
2 4431 58
2 4432 157
2 4433 60
2 4434 44
2 4435 44
2 4436 50
2 4437 41
2 4438 23
2 4439 105
2 4440 526
2 4441 65
2 4442 54
2 4443 77
2 4444 130
2 4445 51
2 4446 57
2 4447 96
2 4448 39
2 4449 72
2 4450 45
2 4451 63
2 4452 55
2 4453 49
2 4454 58
2 4455 71
2 4456 53
2 4457 270
2 4458 48
2 4460 48
2 4462 57
2 4463 63
2 4464 80
2 4465 1
2 4466 38
2 4467 119
2 4468 47
2 4469 52
2 4470 71
2 4471 28
2 4472 57
2 4473 51
2 4474 43
2 4475 87
2 4476 36
2 4477 43
2 4478 29
2 4479 44
2 4480 89
2 4481 32
2 4482 52
2 4483 58
2 4484 74
2 4485 47
2 4486 259
2 4487 49
2 4488 43
2 4489 79
2 4490 64
2 4491 110
2 4492 41
2 4493 148
2 4494 95
2 4495 68
2 4496 62
2 4497 53
2 4498 46
2 4499 53
2 4500 67
2 4501 39
2 4502 47
2 4503 45
2 4504 76
2 4505 85
2 4506 998
2 4507 38
2 4508 47
2 4509 35
2 4510 35
2 4511 413
2 4512 99
2 4513 41
2 4514 47
2 4515 65
2 4516 50
2 4517 33
2 4518 37
2 4519 47
2 4520 66
2 4521 69
2 4522 68
2 4523 58
2 4524 57
2 4525 31
2 4526 56
2 4527 114
2 4528 47
2 4529 106
2 4530 47
2 4531 63
2 4532 47
2 4533 45
2 4534 52
2 4536 40
2 4537 112
2 4538 138
2 4539 430
2 4540 37
2 4541 68
2 4542 43
2 4543 52
2 4544 47
2 4545 74
2 4546 50
2 4547 46
2 4548 62
2 4549 454
2 4550 49
2 4551 57
2 4552 74
2 4553 38
2 4554 90
2 4555 76
2 4556 37
2 4557 76
2 4558 56
2 4559 86
2 4560 51
2 4561 156
2 4562 50
2 4563 53
2 4564 38
2 4565 38
2 4566 95
2 4567 57
2 4568 35
2 4569 68
2 4570 47
2 4571 19
2 4572 51
2 4573 388
2 4574 43
2 4575 282
2 4576 55
2 4577 1
2 4578 63
2 4579 46
2 4580 42
2 4582 47
2 4583 57
2 4584 657
2 4585 75
2 4586 203
2 4587 44
2 4588 52
2 4589 53
2 4590 54
2 4591 53
2 4592 74
2 4593 50
2 4594 55
2 4595 52
2 4596 31
2 4597 104
2 4598 64
2 4599 56
2 4600 60
2 4601 52
2 4602 80
2 4603 49
2 4604 85
2 4605 70
2 4606 58
2 4607 75
2 4608 44
2 4609 106
2 4610 79
2 4611 77
2 4612 64
2 4613 29
2 4614 61
2 4615 60
2 4616 55
2 4617 107
2 4618 35
2 4619 53
2 4620 84
2 4621 75
2 4622 2
2 4623 35
2 4624 31
2 4625 62
2 4626 35
2 4627 30
2 4628 72
2 4629 263
2 4630 45
2 4631 44
2 4632 204
2 4633 100
2 4634 73
2 4635 50
2 4636 60
2 4637 36
2 4638 85
2 4639 44
2 4640 49
2 4641 342
2 4642 53
2 4643 32
2 4644 49
2 4645 42
2 4646 63
2 4647 558
2 4648 76
2 4649 2
2 4650 57
2 4651 1
2 4652 1
2 4653 41
2 4654 40
2 4655 36
2 4656 36
2 4657 59
2 4658 31
2 4659 57
2 4660 35
2 4661 57
2 4662 57
2 4663 54
2 4664 47
2 4665 31
2 4666 67
2 4667 53
2 4668 65
2 4669 69
2 4670 58
2 4671 53
2 4672 75
2 4673 44
2 4674 90
2 4675 102
2 4676 49
2 4677 62
2 4678 76
2 4679 40
2 4680 44
2 4681 42
2 4682 1
2 4683 69
2 4684 48
2 4685 1
2 4686 55
2 4687 60
2 4688 50
2 4689 127
2 4690 421
2 4691 69
2 4692 61
2 4693 27
2 4694 39
2 4696 40
2 4697 82
2 4698 60
2 4699 55
2 4700 1
2 4701 1
2 4702 76
2 4703 220
2 4704 417
2 4705 80
2 4706 81
2 4707 115
2 4708 167
2 4709 53
2 4710 3
2 4711 57
2 4712 160
2 4713 3
2 4714 52
2 4715 54
2 4716 42
2 4717 42
2 4718 245
2 4719 189
2 4720 61
2 4721 52
2 4722 53
2 4723 113
2 4724 99
2 4725 43
2 4726 90
2 4727 37
2 4728 77
2 4729 168
2 4730 53
2 4731 2
2 4732 98
2 4733 40
2 4734 39
2 4735 44
2 4736 47
2 4737 92
2 4738 56
2 4739 84
2 4740 52
2 4741 43
2 4742 47
2 4743 42
2 4744 45
2 4745 751
2 4746 55
2 4747 68
2 4748 28
2 4749 44
2 4750 34
2 4752 112
2 4753 56
2 4754 64
2 4755 38
2 4756 46
2 4757 55
2 4758 52
2 4759 57
2 4760 43
2 4761 42
2 4762 45
2 4763 68
2 4764 61
2 4765 43
2 4766 41
2 4767 111
2 4768 35
2 4769 49
2 4770 45
2 4771 49
2 4772 595
2 4773 44
2 4774 536
2 4775 120
2 4776 53
2 4777 185
2 4778 150
2 4779 41
2 4780 39
2 4781 57
2 4782 60
2 4783 42
2 4784 3
2 4785 58
2 4786 104
2 4787 69
2 4788 55
2 4789 49
2 4790 572
2 4791 53
2 4792 66
2 4793 41
2 4794 56
2 4795 46
2 4796 528
2 4797 50
2 4798 60
2 4799 64
2 4800 127
2 4801 56
2 4802 148
2 4803 48
2 4804 45
2 4805 42
2 4806 73
2 4807 49
2 4808 1
2 4809 369
2 4810 47
2 4811 62
2 4812 88
2 4813 31
2 4814 98
2 4815 53
2 4816 54
2 4817 90
2 4818 58
2 4819 50
2 4820 40
2 4821 41
2 4822 41
2 4823 31
2 4824 55
2 4825 52
2 4826 41
2 4827 42
2 4828 188
2 4829 97
2 4830 71
2 4831 56
2 4832 53
2 4833 62
2 4834 40
2 4835 141
2 4836 713
2 4837 45
2 4838 118
2 4839 126
2 4840 103
2 4841 888
2 4842 102
2 4843 49
2 4844 57
2 4845 50
2 4846 96
2 4847 46
2 4848 44
2 4849 72
2 4850 17
2 4851 102
2 4852 29
2 4853 41
2 4854 40
2 4855 119
2 4856 51
2 4857 71
2 4858 85
2 4859 71
2 4860 91
2 4861 74
2 4862 62
2 4863 81
2 4864 44
2 4865 97
2 4866 49
2 4867 68
2 4868 50
2 4869 46
2 4870 58
2 4871 1190
2 4872 41
2 4873 50
2 4874 43
2 4875 76
2 4876 127
2 4877 43
2 4878 48
2 4879 290
2 4880 65
2 4881 112
2 4882 32
2 4883 47
2 4884 57
2 4885 32
2 4887 42
2 4888 33
2 4889 47
2 4890 51
2 4891 44
2 4892 93
2 4893 44
2 4894 60
2 4895 35
2 4896 53
2 4897 45
2 4898 42
2 4900 62
2 4901 102
2 4902 43
2 4903 32
2 4904 47
2 4905 126
2 4906 43
2 4907 42
2 4908 33
2 4909 670
2 4910 63
2 4911 33
2 4912 46
2 4913 86
2 4914 76
2 4915 47
2 4916 34
2 4917 46
2 4918 130
2 4919 88
2 4920 37
2 4921 37
2 4922 52
2 4923 37
2 4924 48
2 4925 34
2 4926 19
2 4927 71
2 4928 39
2 4929 46
2 4930 69
2 4931 272
2 4932 85
2 4933 52
2 4934 48
2 4935 39
2 4936 24
2 4937 43
2 4939 39
2 4940 54
2 4941 51
2 4942 49
2 4943 37
2 4944 533
2 4945 36
2 4946 33
2 4947 99
2 4948 2
2 4949 36
2 4950 36
2 4951 98
2 4952 62
2 4953 3
2 4954 152
2 4955 39
2 4956 64
2 4957 40
2 4958 34
2 4959 48
2 4960 563
2 4961 235
2 4962 40
2 4963 55
2 4964 43
2 4965 53
2 4966 34
2 4967 40
2 4968 52
2 4969 53
2 4970 96
2 4971 25
2 4972 55
2 4973 41
2 4974 44
2 4975 484
2 4976 46
2 4977 29
2 4978 39
2 4979 52
2 4980 169
2 4981 52
2 4982 67
2 4983 1
2 4984 61
2 4985 219
2 4986 34
2 4987 44
2 4988 4
2 4989 53
2 4990 32
2 4991 34
2 4992 118
2 4993 40
2 4994 3
2 4996 58
2 4997 46
2 4998 52
2 4999 28
2 5000 48
2 5001 398
2 5002 54
2 5003 117
2 5004 339
2 5005 37
2 5006 44
2 5007 44
2 5008 63
2 5009 30
2 5010 36
2 5011 44
2 5012 43
2 5013 73
2 5014 47
2 5015 40
2 5016 40
2 5017 42
2 5018 584
2 5019 107
2 5020 57
2 5021 32
2 5022 94
2 5023 40
2 5024 47
2 5025 34
2 5026 63
2 5027 36
2 5028 39
2 5029 224
2 5030 45
2 5031 55
2 5032 168
2 5033 51
2 5034 51
2 5035 18
2 5036 36
2 5037 158
2 5038 37
2 5039 35
2 5040 48
2 5042 203
2 5043 46
2 5044 101
2 5045 43
2 5046 43
2 5048 70
2 5049 779
2 5050 34
2 5051 61
2 5052 44
2 5053 57
2 5054 22
2 5055 15
2 5056 31
2 5057 46
2 5058 57
2 5059 42
2 5060 31
2 5061 38
2 5062 56
2 5063 375
2 5064 41
2 5065 39
2 5066 35
2 5067 38
2 5068 49
2 5069 26
2 5070 9
2 5071 1
2 5072 80
2 5073 39
2 5074 535
2 5075 41
2 5076 138
2 5077 58
2 5078 45
2 5079 38
2 5080 40
2 5081 68
2 5083 155
2 5084 46
2 5085 89
2 5086 72
2 5087 73
2 5088 848
2 5089 37
2 5090 72
2 5092 64
2 5093 28
2 5094 41
2 5095 47
2 5097 41
2 5098 53
2 5099 29
2 5100 85
2 5101 986
2 5102 127
2 5103 46
2 5104 39
2 5105 41
2 5106 38
2 5107 49
2 5108 37
2 5109 41
2 5110 24
2 5111 50
2 5112 30
2 5113 46
2 5115 41
2 5116 76
2 5117 211
2 5118 47
2 5119 82
2 5120 29
2 5121 48
2 5122 30
2 5123 156
2 5124 41
2 5125 59
2 5126 42
2 5127 42
2 5128 46
2 5129 49
2 5130 40
2 5131 50
2 5132 29
2 5133 36
2 5134 44
2 5135 29
2 5136 25
2 5137 19
2 5139 51
2 5140 42
2 5141 83
2 5142 1
2 5143 44
2 5144 21
2 5145 50
2 5146 46
2 5147 21
2 5148 16
2 5149 16
2 5150 55
2 5151 1
2 5152 55
2 5153 28
2 5154 26
2 5155 1
2 5156 24
2 5157 23
2 5158 67
2 5159 61
3 1 111
3 2 55
3 3 92
3 4 89
3 5 122
3 6 123
3 7 58
3 8 1
3 9 136
3 10 192
3 11 33
3 12 66
3 13 64
3 14 53
3 15 29
3 16 52
3 17 63
3 18 47
3 19 58
3 20 71
3 21 62
3 22 54
3 23 301
3 24 50
3 25 51
3 26 64
3 27 82
3 28 55
3 29 54
3 30 52
3 31 42
3 32 41
3 33 55
3 34 1201
3 35 46
3 36 53
3 37 62
3 38 55
3 39 62
3 40 50
3 41 43
3 42 59
3 43 35
3 44 35
3 45 48
3 46 57
3 47 57
3 48 41
3 49 92
3 50 202
3 51 64
3 52 58
3 53 117
3 54 778
3 55 77
3 56 53
3 57 174
3 58 119
3 59 71
3 60 48
3 61 57
3 62 52
3 63 76
3 64 58
3 65 121
3 66 71
3 67 2243
3 68 123
3 69 105
3 70 58
3 71 104
3 72 282
3 73 48
3 74 119
3 75 154
3 76 323
3 77 79
3 78 63
3 79 56
3 80 44
3 81 52
3 82 48
3 83 27
3 84 100
3 85 1
3 86 58
3 87 80
3 88 57
3 89 63
3 90 40
3 91 100
3 93 54
3 94 39
3 95 39
3 96 28
3 97 48
3 98 1
3 99 58
3 100 63
3 101 80
3 102 53
3 103 113
3 104 45
3 105 231
3 106 84
3 107 44
3 108 41
3 109 56
3 110 93
3 111 63
3 112 2924
3 113 39
3 114 1156
3 115 47
3 116 69
3 117 58
3 118 46
3 119 52
3 120 62
3 121 664
3 122 57
3 123 181
3 124 50
3 125 54
3 126 33
3 127 44
3 128 51
3 129 51
3 130 2483
3 131 874
3 133 45
3 134 52
3 135 179
3 136 55
3 137 1728
3 138 68
3 139 32
3 140 3124
3 141 69
3 142 91
3 143 1919
3 144 62
3 145 77
3 146 64
3 147 54
3 148 53
3 149 70
3 150 731
3 151 266
3 152 43
3 153 187
3 154 1492
3 155 94
3 156 48
3 157 46
3 158 47
3 159 59
3 160 53
3 161 62
3 162 55
3 163 51
3 165 58
3 166 75
3 167 673
3 168 58
3 169 101
3 170 93
3 171 75
3 172 51
3 173 39
3 175 86
3 176 45
3 177 66
3 178 55
3 179 646
3 180 28
3 181 67
3 182 63
3 183 77
3 184 751
3 185 73
3 186 86
3 187 52
3 188 1814
3 189 578
3 190 100
3 192 78
3 193 144
3 194 58
3 196 79
3 198 63
3 199 66
3 200 66
3 201 45
3 202 52
3 203 1
3 204 70
3 205 174
3 206 53
3 207 64
3 208 40
3 209 294
3 210 40
3 211 98
3 212 52
3 213 40
3 214 38
3 215 61
3 216 101
3 217 38
3 218 52
3 219 94
3 220 79
3 221 51
3 222 43
3 223 104
3 224 43
3 225 72
3 226 171
3 227 120
3 228 272
3 229 59
3 230 354
3 231 50
3 232 60
3 233 187
3 234 57
3 235 50
3 236 45
3 237 35
3 238 50
3 239 81
3 240 57
3 241 65
3 242 112
3 243 48
3 244 72
3 245 48
3 246 113
3 247 84
3 248 61
3 249 54
3 250 133
3 251 226
3 252 65
3 253 1652
3 254 63
3 256 50
3 258 48
3 259 81
3 260 70
3 261 65
3 262 69
3 263 98
3 264 54
3 265 86
3 266 64
3 267 51
3 268 81
3 269 55
3 270 43
3 271 182
3 272 58
3 273 50
3 274 44
3 275 56
3 276 60
3 277 3
3 278 183
3 279 51
3 280 57
3 281 79
3 282 87
3 283 58
3 284 78
3 285 77
3 286 162
3 287 1224
3 288 61
3 289 46
3 290 955
3 291 95
3 292 85
3 293 47
3 294 66
3 295 68
3 296 52
3 297 57
3 298 118
3 299 112
3 300 49
3 301 91
3 302 62
3 303 74
3 304 51
3 305 71
3 306 70
3 307 53
3 308 67
3 309 46
3 310 110
3 311 55
3 312 29
3 313 61
3 314 55
3 315 35
3 316 53
3 317 49
3 319 67
3 320 1
3 321 81
3 322 73
3 323 1444
3 324 50
3 325 70
3 326 55
3 327 62
3 328 63
3 329 65
3 330 2269
3 331 93
3 332 67
3 333 56
3 334 56
3 335 80
3 336 122
3 338 67
3 339 54
3 340 60
3 341 57
3 342 83
3 343 65
3 344 77
3 345 43
3 346 65
3 347 112
3 348 74
3 349 61
3 350 101
3 351 68
3 352 65
3 353 63
3 354 1
3 355 158
3 356 87
3 357 71
3 358 72
3 359 65
3 360 253
3 361 87
3 362 2826
3 363 55
3 364 56
3 365 95
3 366 89
3 367 1718
3 368 123
3 369 55
3 370 77
3 371 81
3 372 86
3 373 25
3 374 56
3 375 40
3 376 313
3 377 46
3 378 60
3 379 1764
3 380 57
3 381 24
3 382 58
3 383 56
3 384 43
3 385 62
3 386 67
3 387 74
3 388 69
3 389 59
3 390 55
3 391 47
3 392 83
3 393 56
3 394 85
3 395 59
3 396 66
3 397 55
3 398 55
3 399 82
3 400 70
3 401 47
3 402 59
3 403 67
3 404 49
3 405 63
3 406 100
3 407 112
3 408 61
3 409 56
3 410 50
3 411 59
3 412 83
3 413 66
3 414 149
3 415 72
3 416 57
3 417 66
3 419 46
3 421 64
3 422 89
3 423 50
3 424 89
3 425 65
3 426 58
3 427 66
3 428 72
3 429 66
3 430 72
3 432 90
3 433 54
3 434 80
3 435 1416
3 436 104
3 437 90
3 438 64
3 439 70
3 440 69
3 441 54
3 442 64
3 443 57
3 444 72
3 445 59
3 446 56
3 447 51
3 448 175
3 449 57
3 450 58
3 451 57
3 452 126
3 453 62
3 454 57
3 455 101
3 456 692
3 457 919
3 458 102
3 459 54
3 460 95
3 461 162
3 462 54
3 463 70
3 464 81
3 465 83
3 466 783
3 467 62
3 468 49
3 469 279
3 470 925
3 471 63
3 472 66
3 473 82
3 474 54
3 475 49
3 476 64
3 478 116
3 479 53
3 480 20
3 481 47
3 482 72
3 483 52
3 484 73
3 485 71
3 486 87
3 487 123
3 488 60
3 489 114
3 490 74
3 491 301
3 492 112
3 493 52
3 494 2
3 495 95
3 496 111
3 497 105
3 498 61
3 499 53
3 500 85
3 501 24
3 502 742
3 503 136
3 504 59
3 505 2881
3 506 52
3 507 49
3 508 45
3 509 31
3 510 67
3 511 48
3 512 51
3 513 46
3 514 50
3 515 54
3 516 62
3 517 56
3 518 65
3 519 86
3 520 145
3 521 1019
3 522 33
3 523 61
3 524 56
3 525 44
3 526 53
3 527 105
3 528 103
3 529 66
3 530 218
3 531 132
3 532 1776
3 533 57
3 534 2
3 535 170
3 536 1
3 537 39
3 538 83
3 539 104
3 540 61
3 541 1188
3 542 873
3 543 112
3 544 151
3 545 59
3 546 184
3 547 160
3 548 718
3 549 52
3 550 99
3 551 75
3 552 36
3 553 44
3 554 81
3 555 44
3 556 129
3 557 1013
3 558 51
3 559 73
3 560 49
3 561 257
3 562 62
3 563 106
3 564 53
3 565 111
3 566 51
3 567 60
3 568 67
3 569 62
3 570 58
3 571 46
3 572 45
3 573 95
3 574 56
3 575 48
3 576 46
3 577 58
3 578 41
3 579 1
3 580 73
3 581 97
3 583 1176
3 584 66
3 585 1
3 586 41
3 587 37
3 588 63
3 589 64
3 590 47
3 591 124
3 592 43
3 593 65
3 594 36
3 595 100
3 596 86
3 597 58
3 598 33
3 599 37
3 600 50
3 601 1317
3 602 55
3 603 1
3 604 68
3 605 73
3 606 86
3 607 55
3 608 140
3 609 65
3 610 55
3 611 67
3 612 58
3 613 247
3 614 114
3 615 56
3 616 58
3 617 1
3 619 96
3 620 103
3 621 51
3 622 54
3 623 49
3 624 62
3 625 47
3 626 80
3 627 68
3 628 44
3 629 66
3 630 66
3 631 106
3 632 52
3 633 80
3 634 949
3 635 185
3 636 50
3 637 75
3 638 65
3 639 51
3 640 50
3 641 52
3 642 62
3 643 46
3 644 1947
3 645 66
3 646 56
3 647 130
3 648 52
3 649 84
3 650 48
3 651 95
3 652 60
3 653 45
3 654 45
3 655 54
3 656 76
3 657 76
3 658 78
3 659 51
3 660 104
3 661 75
3 662 45
3 663 40
3 664 52
3 665 60
3 666 59
3 667 57
3 668 59
3 669 80
3 670 76
3 671 54
3 672 61
3 673 38
3 674 70
3 675 51
3 676 2613
3 677 68
3 678 79
3 679 144
3 680 84
3 681 56
3 682 54
3 683 46
3 684 79
3 685 675
3 686 52
3 687 60
3 688 60
3 689 106
3 690 71
3 691 53
3 693 125
3 694 38
3 695 52
3 696 76
3 697 44
3 698 51
3 699 166
3 700 58
3 701 59
3 702 333
3 703 60
3 704 51
3 705 72
3 706 57
3 707 61
3 708 46
3 709 72
3 710 99
3 711 58
3 712 58
3 713 28
3 714 29
3 715 30
3 716 629
3 717 21
3 718 33
3 719 29
3 720 30
3 721 36
3 722 72
3 723 27
3 724 14
3 725 18
3 726 18
3 727 15
3 728 94
3 729 107
3 730 72
3 731 123
3 732 77
3 733 62
3 734 54
3 735 56
3 736 89
3 738 111
3 739 48
3 740 55
3 741 69
3 742 52
3 743 65
3 744 77
3 745 61
3 746 46
3 747 1
3 748 57
3 749 57
3 750 91
3 751 46
3 752 1
3 753 62
3 754 58
3 755 60
3 756 1068
3 757 128
3 758 67
3 759 531
3 760 48
3 761 56
3 762 46
3 763 96
3 764 82
3 765 258
3 766 68
3 767 61
3 768 101
3 769 71
3 770 307
3 771 56
3 772 84
3 773 81
3 774 1617
3 775 944
3 776 60
3 777 79
3 778 69
3 779 92
3 780 55
3 781 82
3 782 54
3 783 64
3 784 11
3 785 47
3 786 53
3 787 41
3 788 96
3 789 62
3 790 66
3 791 49
3 792 83
3 793 70
3 794 58
3 795 55
3 796 1357
3 797 28
3 798 78
3 799 62
3 800 65
3 801 71
3 802 62
3 803 177
3 804 66
3 805 62
3 806 50
3 807 65
3 808 49
3 809 69
3 810 59
3 811 47
3 812 83
3 813 53
3 814 104
3 815 59
3 816 65
3 817 71
3 818 3025
3 819 47
3 820 70
3 821 53
3 822 60
3 823 46
3 824 73
3 825 99
3 826 88
3 827 2329
3 828 49
3 829 63
3 830 280
3 831 82
3 832 53
3 833 164
3 834 61
3 835 193
3 836 52
3 837 52
3 838 80
3 839 189
3 840 73
3 841 210
3 842 104
3 843 74
3 844 67
3 845 1330
3 846 24
3 847 45
3 849 46
3 850 34
3 851 62
3 852 941
3 853 66
3 854 33
3 855 66
3 856 102
3 857 47
3 858 59
3 859 64
3 860 46
3 861 220
3 862 55
3 863 43
3 864 52
3 865 63
3 867 56
3 868 59
3 869 58
3 870 61
3 871 66
3 872 145
3 873 61
3 874 57
3 875 1716
3 876 31
3 877 53
3 878 90
3 879 66
3 880 1088
3 881 68
3 882 106
3 883 57
3 884 49
3 885 60
3 886 61
3 887 46
3 888 850
3 889 60
3 890 43
3 892 61
3 893 42
3 894 50
3 895 53
3 896 49
3 897 42
3 898 117
3 899 312
3 900 83
3 901 116
3 902 49
3 904 40
3 906 26
3 907 69
3 908 91
3 909 70
3 910 76
3 911 65
3 912 92
3 913 41
3 914 68
3 915 37
3 916 49
3 917 43
3 918 73
3 919 50
3 920 47
3 921 40
3 922 50
3 923 76
3 924 235
3 925 39
3 926 76
3 927 49
3 928 88
3 929 81
3 930 127
3 931 43
3 932 67
3 933 54
3 934 68
3 935 102
3 936 48
3 937 52
3 938 75
3 939 79
3 940 34
3 941 65
3 943 52
3 944 55
3 945 38
3 946 68
3 947 57
3 948 140
3 949 84
3 950 65
3 951 83
3 952 51
3 953 46
3 954 67
3 955 80
3 956 199
3 957 45
3 958 315
3 959 55
3 960 2
3 961 47
3 962 181
3 963 936
3 964 138
3 965 877
3 966 43
3 967 101
3 968 56
3 969 1
3 970 43
3 971 95
3 972 80
3 973 70
3 974 66
3 975 113
3 976 3
3 977 80
3 978 120
3 979 37
3 980 61
3 981 65
3 982 118
3 983 66
3 984 59
3 985 71
3 986 66
3 987 57
3 988 52
3 989 1579
3 990 120
3 991 1
3 992 82
3 993 59
3 994 76
3 995 53
3 996 32
3 997 125
3 998 58
3 999 44
3 1000 63
3 1001 76
3 1002 2842
3 1003 41
3 1004 60
3 1005 49
3 1006 42
3 1007 1178
3 1008 70
3 1009 91
3 1010 248
3 1011 37
3 1012 50
3 1013 47
3 1014 60
3 1015 49
3 1016 1409
3 1017 357
3 1018 61
3 1019 67
3 1020 45
3 1021 1
3 1022 64
3 1023 57
3 1024 50
3 1025 70
3 1027 64
3 1028 69
3 1029 39
3 1030 362
3 1031 56
3 1032 50
3 1033 61
3 1034 61
3 1035 49
3 1036 64
3 1037 324
3 1038 62
3 1039 43
3 1040 58
3 1041 48
3 1042 41
3 1043 58
3 1044 75
3 1045 75
3 1046 76
3 1047 48
3 1048 58
3 1049 45
3 1050 459
3 1051 63
3 1052 128
3 1053 63
3 1054 62
3 1055 71
3 1056 69
3 1057 69
3 1058 137
3 1059 45
3 1060 55
3 1061 98
3 1062 51
3 1063 62
3 1064 50
3 1065 103
3 1066 51
3 1067 69
3 1068 155
3 1069 47
3 1070 1199
3 1071 44
3 1072 53
3 1073 8
3 1074 1
3 1075 59
3 1076 48
3 1077 34
3 1079 40
3 1080 40
3 1081 58
3 1082 57
3 1083 51
3 1084 51
3 1085 50
3 1086 56
3 1087 1656
3 1088 63
3 1089 74
3 1090 44
3 1091 58
3 1092 44
3 1093 84
3 1094 43
3 1096 34
3 1097 55
3 1098 92
3 1099 57
3 1100 69
3 1101 50
3 1102 69
3 1103 35
3 1104 91
3 1105 50
3 1106 1568
3 1107 982
3 1108 52
3 1109 51
3 1110 59
3 1111 648
3 1112 74
3 1113 280
3 1114 64
3 1115 74
3 1116 53
3 1117 47
3 1118 55
3 1119 65
3 1120 677
3 1121 56
3 1122 34
3 1123 55
3 1124 52
3 1125 51
3 1126 233
3 1127 52
3 1128 54
3 1129 56
3 1130 283
3 1131 134
3 1132 261
3 1133 73
3 1134 104
3 1135 59
3 1136 39
3 1137 52
3 1138 36
3 1139 35
3 1140 48
3 1141 49
3 1142 54
3 1143 96
3 1144 232
3 1145 60
3 1146 150
3 1147 67
3 1148 66
3 1149 179
3 1150 59
3 1151 54
3 1152 106
3 1153 168
3 1154 70
3 1155 48
3 1156 62
3 1157 66
3 1158 66
3 1159 60
3 1160 70
3 1161 3
3 1162 67
3 1163 50
3 1164 47
3 1165 48
3 1166 70
3 1168 67
3 1169 48
3 1170 51
3 1171 29
3 1172 105
3 1173 49
3 1174 69
3 1175 97
3 1176 1124
3 1177 52
3 1179 49
3 1180 62
3 1181 61
3 1182 101
3 1183 32
3 1184 64
3 1185 92
3 1186 52
3 1187 3422
3 1188 55
3 1189 73
3 1190 87
3 1191 69
3 1192 59
3 1193 74
3 1194 1937
3 1195 62
3 1196 102
3 1197 63
3 1198 59
3 1199 46
3 1200 1
3 1204 38
3 1205 59
3 1206 56
3 1207 327
3 1209 63
3 1210 65
3 1211 47
3 1213 1
3 1214 34
3 1215 82
3 1216 56
3 1217 52
3 1218 61
3 1220 62
3 1221 54
3 1222 116
3 1223 44
3 1224 69
3 1225 41
3 1226 49
3 1227 56
3 1228 252
3 1229 97
3 1230 58
3 1232 1315
3 1233 73
3 1234 46
3 1235 58
3 1236 143
3 1237 2563
3 1238 51
3 1239 55
3 1240 67
3 1241 53
3 1242 69
3 1243 60
3 1244 230
3 1245 51
3 1246 61
3 1247 60
3 1248 73
3 1249 57
3 1250 48
3 1252 71
3 1253 361
3 1254 81
3 1255 52
3 1256 45
3 1257 125
3 1258 61
3 1259 29
3 1260 68
3 1261 59
3 1262 62
3 1263 64
3 1264 69
3 1265 66
3 1266 113
3 1267 85
3 1268 72
3 1269 67
3 1270 69
3 1271 64
3 1272 51
3 1273 70
3 1274 85
3 1275 53
3 1276 54
3 1277 55
3 1278 60
3 1279 110
3 1280 75
3 1281 60
3 1282 64
3 1283 139
3 1284 52
3 1285 118
3 1286 44
3 1287 67
3 1288 66
3 1289 239
3 1290 58
3 1291 117
3 1292 55
3 1293 285
3 1294 55
3 1295 47
3 1296 1
3 1297 823
3 1298 52
3 1299 65
3 1300 49
3 1301 63
3 1302 250
3 1303 82
3 1304 59
3 1305 53
3 1306 106
3 1307 52
3 1308 167
3 1309 180
3 1310 39
3 1311 261
3 1312 161
3 1313 73
3 1314 60
3 1315 104
3 1316 15
3 1317 70
3 1318 134
3 1319 163
3 1320 83
3 1321 54
3 1322 72
3 1323 60
3 1324 61
3 1325 53
3 1326 87
3 1327 61
3 1328 85
3 1329 67
3 1330 55
3 1331 68
3 1332 53
3 1333 71
3 1334 77
3 1335 130
3 1336 122
3 1337 49
3 1338 71
3 1339 72
3 1340 73
3 1341 110
3 1342 58
3 1343 68
3 1344 98
3 1345 55
3 1346 90
3 1347 78
3 1348 54
3 1350 71
3 1351 64
3 1352 52
3 1353 70
3 1355 1
3 1356 51
3 1357 64
3 1358 59
3 1359 78
3 1360 60
3 1361 46
3 1362 64
3 1363 64
3 1364 140
3 1365 53
3 1366 1870
3 1367 70
3 1368 62
3 1369 53
3 1370 108
3 1371 1218
3 1373 68
3 1374 46
3 1375 57
3 1376 64
3 1377 56
3 1378 59
3 1379 46
3 1380 50
3 1382 111
3 1383 63
3 1384 2
3 1385 57
3 1386 109
3 1387 1
3 1388 726
3 1389 342
3 1390 60
3 1391 47
3 1392 45
3 1393 57
3 1394 68
3 1395 106
3 1396 86
3 1397 115
3 1398 59
3 1399 51
3 1400 143
3 1401 117
3 1402 70
3 1403 60
3 1404 53
3 1405 85
3 1406 57
3 1407 1
3 1408 52
3 1409 51
3 1410 61
3 1411 57
3 1412 1
3 1413 59
3 1414 55
3 1415 213
3 1416 47
3 1417 75
3 1418 61
3 1419 87
3 1420 74
3 1421 894
3 1422 191
3 1423 83
3 1424 60
3 1425 52
3 1426 54
3 1427 54
3 1428 113
3 1430 67
3 1431 68
3 1432 140
3 1433 105
3 1434 49
3 1435 95
3 1436 62
3 1437 53
3 1438 62
3 1439 142
3 1440 67
3 1441 190
3 1442 57
3 1443 50
3 1444 69
3 1445 62
3 1446 61
3 1447 44
3 1448 159
3 1449 72
3 1450 1
3 1451 68
3 1452 340
3 1453 51
3 1454 70
3 1455 144
3 1456 68
3 1457 183
3 1458 70
3 1459 57
3 1460 44
3 1461 54
3 1462 52
3 1463 131
3 1464 35
3 1465 1
3 1466 46
3 1467 59
3 1468 59
3 1469 60
3 1470 46
3 1471 94
3 1472 77
3 1473 77
3 1474 43
3 1475 871
3 1476 58
3 1477 58
3 1478 66
3 1479 44
3 1480 71
3 1481 62
3 1482 67
3 1483 71
3 1484 249
3 1485 52
3 1486 59
3 1487 51
3 1488 58
3 1489 59
3 1490 78
3 1491 44
3 1492 92
3 1493 68
3 1494 78
3 1495 77
3 1496 44
3 1497 58
3 1498 105
3 1499 53
3 1500 127
3 1501 1
3 1502 28
3 1503 55
3 1504 48
3 1505 60
3 1506 550
3 1507 196
3 1508 64
3 1509 1
3 1510 150
3 1511 39
3 1512 1608
3 1513 1
3 1514 52
3 1515 82
3 1516 72
3 1517 304
3 1518 51
3 1519 79
3 1520 77
3 1521 74
3 1522 93
3 1523 61
3 1524 101
3 1525 45
3 1526 37
3 1527 91
3 1528 52
3 1529 65
3 1530 171
3 1531 69
3 1532 48
3 1533 50
3 1534 36
3 1535 51
3 1536 105
3 1537 54
3 1538 60
3 1539 68
3 1540 107
3 1541 400
3 1542 75
3 1543 75
3 1544 71
3 1545 122
3 1546 1179
3 1547 1400
3 1548 60
3 1549 83
3 1550 87
3 1551 76
3 1552 46
3 1553 77
3 1554 69
3 1555 61
3 1556 46
3 1557 65
3 1558 80
3 1560 59
3 1561 50
3 1562 60
3 1563 70
3 1564 58
3 1565 78
3 1566 70
3 1567 57
3 1568 103
3 1569 120
3 1570 56
3 1571 68
3 1572 4786
3 1573 661
3 1574 69
3 1575 90
3 1576 58
3 1577 356
3 1578 84
3 1579 173
3 1580 201
3 1581 96
3 1582 114
3 1583 1691
3 1584 69
3 1585 104
3 1586 36
3 1587 49
3 1588 58
3 1589 55
3 1590 65
3 1591 63
3 1592 52
3 1593 41
3 1594 71
3 1595 37
3 1596 58
3 1597 66
3 1598 99
3 1599 142
3 1600 64
3 1601 64
3 1602 198
3 1603 1554
3 1605 60
3 1606 60
3 1607 40
3 1608 265
3 1609 48
3 1611 66
3 1612 56
3 1613 85
3 1614 63
3 1615 157
3 1616 40
3 1617 212
3 1618 67
3 1619 70
3 1620 1
3 1621 2658
3 1622 49
3 1623 125
3 1624 476
3 1625 64
3 1626 77
3 1627 44
3 1628 53
3 1629 58
3 1630 83
3 1631 56
3 1632 57
3 1633 47
3 1634 75
3 1635 1774
3 1636 73
3 1637 62
3 1638 71
3 1639 147
3 1640 1084
3 1641 59
3 1642 59
3 1643 68
3 1644 116
3 1645 78
3 1646 64
3 1647 49
3 1648 159
3 1649 120
3 1650 71
3 1651 56
3 1652 126
3 1653 88
3 1654 61
3 1655 1981
3 1656 41
3 1657 225
3 1658 60
3 1659 39
3 1660 40
3 1661 42
3 1662 70
3 1664 150
3 1665 52
3 1666 73
3 1667 59
3 1668 1123
3 1669 52
3 1670 51
3 1671 60
3 1672 50
3 1673 2394
3 1674 60
3 1675 86
3 1676 61
3 1677 50
3 1678 46
3 1679 105
3 1680 58
3 1681 127
3 1682 72
3 1683 48
3 1684 54
3 1685 57
3 1686 1596
3 1687 111
3 1688 75
3 1689 63
3 1690 59
3 1691 71
3 1692 91
3 1693 95
3 1694 84
3 1695 55
3 1696 16
3 1697 74
3 1699 62
3 1700 96
3 1701 47
3 1702 59
3 1703 30
3 1704 62
3 1705 57
3 1706 57
3 1707 220
3 1709 45
3 1710 164
3 1711 111
3 1712 73
3 1713 108
3 1714 61
3 1715 45
3 1716 66
3 1717 110
3 1718 36
3 1719 57
3 1720 52
3 1721 95
3 1722 50
3 1723 48
3 1724 1075
3 1725 52
3 1726 67
3 1727 56
3 1728 60
3 1729 51
3 1730 70
3 1731 66
3 1732 49
3 1733 57
3 1734 225
3 1735 7
3 1736 3
3 1737 54
3 1738 46
3 1739 48
3 1740 83
3 1741 55
3 1742 27
3 1743 65
3 1744 852
3 1745 48
3 1747 52
3 1748 61
3 1749 56
3 1750 48
3 1751 65
3 1752 64
3 1753 77
3 1754 50
3 1755 58
3 1756 109
3 1757 61
3 1758 46
3 1759 486
3 1760 45
3 1761 59
3 1762 1434
3 1763 71
3 1764 117
3 1765 49
3 1766 64
3 1767 64
3 1768 566
3 1769 70
3 1770 54
3 1771 78
3 1772 65
3 1773 100
3 1774 61
3 1775 58
3 1776 1
3 1777 91
3 1778 43
3 1779 175
3 1780 372
3 1781 66
3 1782 62
3 1783 85
3 1784 50
3 1785 47
3 1786 55
3 1787 71
3 1788 61
3 1789 1217
3 1790 61
3 1791 75
3 1792 53
3 1793 66
3 1794 48
3 1795 53
3 1796 125
3 1797 1614
3 1798 1
3 1799 60
3 1800 68
3 1801 37
3 1802 56
3 1803 46
3 1804 52
3 1805 72
3 1806 78
3 1807 66
3 1808 1
3 1809 52
3 1810 54
3 1811 44
3 1812 49
3 1813 229
3 1814 48
3 1815 56
3 1816 43
3 1817 62
3 1818 39
3 1819 65
3 1820 61
3 1821 149
3 1822 76
3 1823 81
3 1824 515
3 1825 101
3 1826 43
3 1827 48
3 1828 1231
3 1829 82
3 1830 49
3 1831 74
3 1832 73
3 1833 518
3 1834 43
3 1835 69
3 1836 45
3 1837 60
3 1838 60
3 1839 86
3 1840 70
3 1841 89
3 1842 117
3 1843 52
3 1844 61
3 1845 1
3 1846 39
3 1847 48
3 1848 40
3 1849 52
3 1850 33
3 1851 62
3 1852 49
3 1853 79
3 1854 63
3 1855 83
3 1856 126
3 1857 157
3 1858 144
3 1859 39
3 1861 74
3 1862 67
3 1863 44
3 1864 58
3 1865 56
3 1866 54
3 1867 74
3 1868 58
3 1869 2474
3 1870 115
3 1871 121
3 1872 78
3 1874 89
3 1875 193
3 1876 61
3 1877 67
3 1878 51
3 1879 262
3 1880 82
3 1881 52
3 1882 57
3 1884 88
3 1885 62
3 1886 63
3 1887 1787
3 1888 52
3 1889 40
3 1890 36
3 1891 58
3 1892 87
3 1893 45
3 1894 62
3 1895 38
3 1896 64
3 1897 60
3 1898 58
3 1900 71
3 1901 222
3 1902 206
3 1903 71
3 1904 60
3 1905 58
3 1906 47
3 1907 63
3 1908 44
3 1909 93
3 1910 91
3 1911 1254
3 1912 131
3 1913 66
3 1914 50
3 1915 44
3 1916 58
3 1917 260
3 1918 37
3 1919 43
3 1920 73
3 1921 161
3 1922 58
3 1923 108
3 1924 122
3 1925 37
3 1926 76
3 1927 66
3 1928 57
3 1929 58
3 1930 47
3 1931 135
3 1932 64
3 1933 52
3 1934 1980
3 1935 57
3 1936 43
3 1937 84
3 1938 49
3 1939 60
3 1940 65
3 1941 1016
3 1942 57
3 1943 76
3 1944 94
3 1945 52
3 1946 61
3 1947 48
3 1948 44
3 1949 109
3 1950 127
3 1951 179
3 1952 95
3 1953 76
3 1954 71
3 1955 392
3 1956 56
3 1957 94
3 1959 1
3 1960 57
3 1961 66
3 1962 584
3 1963 59
3 1964 70
3 1965 45
3 1966 64
3 1967 2
3 1968 84
3 1969 43
3 1970 57
3 1971 164
3 1972 57
3 1973 62
3 1974 90
3 1975 138
3 1976 28
3 1977 61
3 1978 84
3 1979 72
3 1980 66
3 1981 55
3 1982 66
3 1983 74
3 1984 58
3 1985 61
3 1986 69
3 1987 84
3 1988 77
3 1989 65
3 1990 3742
3 1991 88
3 1992 218
3 1993 65
3 1994 68
3 1995 146
3 1996 66
3 1997 66
3 1998 55
3 1999 106
3 2000 66
3 2001 157
3 2002 55
3 2003 73
3 2004 65
3 2005 54
3 2006 160
3 2007 96
3 2008 40
3 2009 76
3 2011 1046
3 2012 86
3 2013 55
3 2014 52
3 2015 67
3 2016 71
3 2017 282
3 2018 51
3 2019 68
3 2020 48
3 2021 37
3 2022 79
3 2023 62
3 2024 53
3 2025 76
3 2026 61
3 2027 57
3 2028 65
3 2029 65
3 2030 67
3 2031 41
3 2032 56
3 2033 47
3 2034 45
3 2035 2378
3 2036 63
3 2037 59
3 2038 62
3 2039 50
3 2040 62
3 2041 69
3 2042 15
3 2043 122
3 2044 47
3 2045 58
3 2046 286
3 2047 63
3 2048 84
3 2049 56
3 2050 53
3 2051 54
3 2052 72
3 2053 54
3 2054 86
3 2055 111
3 2056 60
3 2057 1118
3 2058 67
3 2059 65
3 2060 59
3 2061 41
3 2062 55
3 2063 61
3 2064 63
3 2065 59
3 2066 49
3 2067 65
3 2068 50
3 2069 56
3 2070 52
3 2071 1903
3 2072 67
3 2073 66
3 2074 68
3 2075 66
3 2077 65
3 2078 71
3 2079 61
3 2080 43
3 2081 83
3 2082 71
3 2083 51
3 2084 56
3 2085 55
3 2086 78
3 2087 76
3 2088 36
3 2089 23
3 2090 73
3 2091 58
3 2092 427
3 2093 72
3 2094 61
3 2095 58
3 2096 73
3 2097 48
3 2098 40
3 2099 1
3 2100 50
3 2101 53
3 2102 412
3 2103 61
3 2104 90
3 2105 71
3 2106 54
3 2107 58
3 2108 176
3 2109 33
3 2110 67
3 2111 59
3 2112 436
3 2113 38
3 2114 68
3 2116 58
3 2117 43
3 2118 638
3 2120 75
3 2121 61
3 2122 52
3 2123 65
3 2124 136
3 2125 72
3 2126 96
3 2127 70
3 2128 51
3 2129 61
3 2130 178
3 2132 60
3 2133 56
3 2134 76
3 2135 50
3 2136 35
3 2137 32
3 2138 35
3 2139 93
3 2140 53
3 2142 84
3 2143 71
3 2144 46
3 2145 168
3 2146 253
3 2147 123
3 2148 62
3 2149 68
3 2150 60
3 2151 59
3 2152 74
3 2153 58
3 2154 40
3 2155 59
3 2156 64
3 2157 66
3 2158 77
3 2159 45
3 2160 45
3 2161 154
3 2162 39
3 2163 59
3 2164 37
3 2165 39
3 2166 40
3 2167 55
3 2168 51
3 2169 45
3 2170 53
3 2171 209
3 2172 90
3 2173 43
3 2174 83
3 2175 598
3 2176 48
3 2177 57
3 2178 45
3 2179 69
3 2180 58
3 2181 89
3 2182 1
3 2184 60
3 2185 80
3 2186 54
3 2187 54
3 2188 60
3 2189 113
3 2190 2
3 2191 47
3 2192 48
3 2193 63
3 2194 46
3 2195 102
3 2196 57
3 2197 47
3 2198 65
3 2199 51
3 2200 63
3 2201 83
3 2202 56
3 2203 54
3 2204 1
3 2205 57
3 2206 2395
3 2207 50
3 2208 49
3 2209 48
3 2210 35
3 2211 49
3 2212 45
3 2213 47
3 2214 70
3 2215 54
3 2216 40
3 2217 36
3 2218 34
3 2219 75
3 2220 1239
3 2221 56
3 2222 1
3 2223 5
3 2224 2
3 2225 8
3 2226 4
3 2227 1
3 2228 70
3 2229 3
3 2230 3
3 2231 4
3 2232 5
3 2233 3
3 2234 6
3 2235 3
3 2236 7
3 2237 7
3 2238 48
3 2239 40
3 2240 32
3 2241 208
3 2242 32
3 2243 42
3 2244 42
3 2245 62
3 2246 39
3 2247 47
3 2248 36
3 2249 26
3 2250 60
3 2251 332
3 2252 46
3 2253 32
3 2254 46
3 2255 52
3 2256 85
3 2257 108
3 2258 60
3 2259 56
3 2260 41
3 2261 62
3 2262 44
3 2263 57
3 2264 50
3 2265 78
3 2266 61
3 2267 67
3 2268 55
3 2269 47
3 2270 59
3 2271 31
3 2272 52
3 2273 58
3 2274 68
3 2275 37
3 2276 37
3 2277 57
3 2278 34
3 2279 537
3 2280 55
3 2281 44
3 2282 58
3 2283 193
3 2284 88
3 2285 1
3 2286 64
3 2287 105
3 2288 53
3 2289 56
3 2290 38
3 2291 1333
3 2292 141
3 2293 39
3 2294 80
3 2295 2610
3 2296 68
3 2297 460
3 2298 66
3 2299 48
3 2300 52
3 2301 56
3 2302 59
3 2303 83
3 2304 61
3 2305 1
3 2306 13
3 2307 68
3 2308 50
3 2309 68
3 2310 44
3 2311 162
3 2312 114
3 2313 69
3 2314 85
3 2315 50
3 2317 363
3 2318 269
3 2319 1
3 2320 56
3 2321 67
3 2322 100
3 2323 46
3 2324 51
3 2325 2385
3 2326 1498
3 2327 114
3 2328 56
3 2329 64
3 2330 112
3 2331 638
3 2332 49
3 2333 55
3 2334 104
3 2335 33
3 2336 63
3 2337 65
3 2338 52
3 2339 89
3 2340 319
3 2341 55
3 2342 62
3 2343 70
3 2344 54
3 2345 201
3 2346 1
3 2347 1
3 2348 60
3 2349 57
3 2350 51
3 2351 72
3 2352 62
3 2353 102
3 2354 37
3 2355 57
3 2356 43
3 2357 49
3 2358 63
3 2359 54
3 2360 53
3 2361 53
3 2362 55
3 2363 112
3 2364 638
3 2365 46
3 2366 77
3 2367 48
3 2368 56
3 2369 66
3 2370 56
3 2371 52
3 2372 136
3 2373 337
3 2374 67
3 2375 105
3 2376 56
3 2377 54
3 2378 45
3 2379 46
3 2380 70
3 2381 120
3 2382 47
3 2383 71
3 2385 108
3 2386 52
3 2387 67
3 2388 58
3 2389 1
3 2390 39
3 2391 68
3 2392 77
3 2393 62
3 2394 60
3 2396 143
3 2397 56
3 2398 63
3 2399 309
3 2400 83
3 2401 2235
3 2402 59
3 2403 62
3 2404 52
3 2405 45
3 2406 57
3 2407 57
3 2408 69
3 2409 93
3 2410 104
3 2411 52
3 2412 45
3 2413 110
3 2414 962
3 2415 70
3 2416 1333
3 2417 60
3 2418 65
3 2419 68
3 2420 67
3 2421 66
3 2422 62
3 2423 17
3 2424 60
3 2425 219
3 2426 56
3 2427 47
3 2428 56
3 2429 47
3 2430 58
3 2431 68
3 2432 73
3 2433 587
3 2434 68
3 2435 67
3 2436 45
3 2437 55
3 2438 74
3 2439 55
3 2440 67
3 2441 69
3 2442 71
3 2443 74
3 2444 89
3 2445 122
3 2446 75
3 2447 50
3 2448 227
3 2449 62
3 2450 59
3 2451 48
3 2452 92
3 2453 86
3 2454 88
3 2455 53
3 2456 65
3 2457 1199
3 2458 2411
3 2459 163
3 2460 58
3 2461 70
3 2462 51
3 2463 52
3 2464 33
3 2465 78
3 2466 64
3 2467 44
3 2468 67
3 2469 64
3 2470 56
3 2471 60
3 2473 52
3 2474 42
3 2475 56
3 2476 53
3 2477 40
3 2478 70
3 2479 53
3 2480 38
3 2481 49
3 2482 80
3 2483 73
3 2484 230
3 2485 81
3 2486 44
3 2487 51
3 2488 51
3 2489 78
3 2490 40
3 2491 51
3 2492 40
3 2493 65
3 2494 47
3 2495 50
3 2496 42
3 2497 49
3 2498 47
3 2499 109
3 2500 64
3 2501 54
3 2502 71
3 2503 108
3 2504 111
3 2505 44
3 2506 56
3 2507 49
3 2508 55
3 2509 43
3 2510 41
3 2511 42
3 2512 44
3 2513 59
3 2514 38
3 2515 67
3 2516 66
3 2517 131
3 2518 138
3 2519 62
3 2520 68
3 2521 69
3 2522 95
3 2523 64
3 2524 65
3 2525 46
3 2526 35
3 2527 1094
3 2528 57
3 2530 49
3 2531 48
3 2532 54
3 2533 153
3 2534 276
3 2535 50
3 2536 56
3 2537 107
3 2538 65
3 2539 63
3 2540 50
3 2541 71
3 2542 504
3 2543 150
3 2544 63
3 2545 61
3 2546 63
3 2547 53
3 2548 57
3 2549 66
3 2550 1440
3 2552 83
3 2553 528
3 2554 79
3 2555 65
3 2556 210
3 2557 874
3 2558 58
3 2559 28
3 2560 72
3 2561 1
3 2562 81
3 2563 58
3 2564 69
3 2565 69
3 2566 64
3 2567 68
3 2568 80
3 2569 56
3 2570 111
3 2571 56
3 2572 54
3 2573 68
3 2574 126
3 2575 387
3 2576 13
3 2577 145
3 2578 796
3 2579 45
3 2581 127
3 2582 69
3 2583 182
3 2584 78
3 2586 96
3 2587 69
3 2588 108
3 2589 40
3 2590 43
3 2591 46
3 2592 63
3 2593 273
3 2594 56
3 2595 101
3 2596 39
3 2597 44
3 2598 36
3 2600 52
3 2601 47
3 2602 47
3 2603 507
3 2604 149
3 2605 114
3 2606 54
3 2607 65
3 2608 109
3 2609 72
3 2610 55
3 2611 51
3 2612 57
3 2613 49
3 2614 54
3 2615 66
3 2616 58
3 2617 69
3 2618 264
3 2619 45
3 2620 52
3 2621 56
3 2622 72
3 2623 44
3 2624 57
3 2625 991
3 2626 88
3 2627 50
3 2628 59
3 2629 93
3 2630 78
3 2631 83
3 2632 43
3 2633 51
3 2634 40
3 2635 7
3 2636 65
3 2637 61
3 2638 54
3 2639 121
3 2640 51
3 2641 80
3 2642 64
3 2643 105
3 2644 55
3 2645 47
3 2646 64
3 2647 21
3 2648 646
3 2649 51
3 2651 49
3 2652 117
3 2653 34
3 2654 52
3 2655 53
3 2656 59
3 2657 38
3 2658 140
3 2659 1466
3 2660 53
3 2661 54
3 2662 69
3 2663 1946
3 2664 44
3 2665 51
3 2666 87
3 2667 53
3 2668 1538
3 2669 40
3 2670 60
3 2671 70
3 2672 59
3 2673 75
3 2674 55
3 2675 40
3 2676 1045
3 2677 55
3 2678 43
3 2679 71
3 2680 60
3 2681 4
3 2682 59
3 2683 4
3 2684 81
3 2685 57
3 2686 77
3 2687 102
3 2688 93
3 2689 51
3 2690 146
3 2691 71
3 2692 1825
3 2693 112
3 2694 29
3 2695 53
3 2696 59
3 2697 42
3 2698 1106
3 2699 90
3 2700 31
3 2701 85
3 2703 36
3 2704 41
3 2705 180
3 2706 39
3 2707 34
3 2708 45
3 2709 44
3 2710 28
3 2711 1737
3 2712 78
3 2713 76
3 2714 147
3 2715 122
3 2716 50
3 2717 52
3 2718 39
3 2719 45
3 2721 59
3 2722 71
3 2723 57
3 2724 46
3 2725 115
3 2726 46
3 2727 46
3 2728 97
3 2729 59
3 2730 43
3 2731 118
3 2732 48
3 2733 48
3 2734 47
3 2735 58
3 2737 40
3 2738 44
3 2739 2499
3 2740 48
3 2741 299
3 2742 64
3 2743 45
3 2744 49
3 2745 50
3 2746 94
3 2747 51
3 2748 55
3 2749 182
3 2751 110
3 2752 127
3 2753 88
3 2754 75
3 2755 44
3 2756 40
3 2757 63
3 2758 46
3 2759 38
3 2760 49
3 2761 41
3 2762 27
3 2763 348
3 2764 1
3 2765 49
3 2766 58
3 2767 142
3 2768 53
3 2769 55
3 2770 48
3 2771 1148
3 2772 126
3 2773 45
3 2774 48
3 2775 46
3 2776 76
3 2777 47
3 2778 58
3 2779 57
3 2780 63
3 2781 74
3 2782 31
3 2783 52
3 2784 46
3 2785 39
3 2786 34
3 2787 53
3 2788 104
3 2789 92
3 2790 41
3 2791 53
3 2792 58
3 2793 56
3 2794 44
3 2795 103
3 2796 85
3 2797 49
3 2798 45
3 2799 53
3 2800 42
3 2801 58
3 2802 29
3 2803 44
3 2804 49
3 2805 163
3 2806 58
3 2807 118
3 2808 44
3 2809 55
3 2810 59
3 2811 66
3 2812 58
3 2813 232
3 2814 43
3 2815 39
3 2816 48
3 2817 58
3 2818 40
3 2819 67
3 2820 60
3 2821 45
3 2822 35
3 2823 161
3 2824 257
3 2825 154
3 2826 54
3 2827 45
3 2828 42
3 2829 85
3 2830 126
3 2831 47
3 2832 104
3 2833 56
3 2834 46
3 2835 352
3 2836 35
3 2837 44
3 2838 70
3 2839 56
3 2840 27
3 2841 41
3 2843 139
3 2844 81
3 2845 45
3 2846 38
3 2847 49
3 2848 40
3 2849 75
3 2850 47
3 2851 37
3 2852 71
3 2853 39
3 2854 12
3 2855 44
3 2856 102
3 2857 37
3 2858 66
3 2859 59
3 2860 1
3 2861 44
3 2862 33
3 2863 36
3 2864 28
3 2865 65
3 2866 156
3 2867 50
3 2868 116
3 2869 38
3 2870 45
3 2871 52
3 2872 53
3 2873 60
3 2874 48
3 2875 103
3 2876 53
3 2877 49
3 2878 86
3 2879 51
3 2880 56
3 2881 53
3 2882 56
3 2883 64
3 2884 42
3 2885 38
3 2887 53
3 2888 50
3 2889 43
3 2890 40
3 2891 48
3 2892 48
3 2893 41
3 2894 39
3 2895 69
3 2896 41
3 2897 43
3 2898 1893
3 2899 36
3 2900 53
3 2901 33
3 2902 50
3 2903 72
3 2905 40
3 2906 51
3 2907 50
3 2908 11
3 2909 80
3 2910 81
3 2911 66
3 2912 60
3 2913 70
3 2914 37
3 2915 50
3 2916 103
3 2917 343
3 2918 57
3 2919 49
3 2920 43
3 2921 41
3 2923 47
3 2924 53
3 2925 129
3 2926 57
3 2927 46
3 2928 22
3 2929 42
3 2930 1305
3 2931 55
3 2932 275
3 2933 39
3 2934 63
3 2935 985
3 2936 103
3 2937 48
3 2938 70
3 2939 152
3 2940 32
3 2941 36
3 2942 193
3 2943 54
3 2944 108
3 2945 277
3 2946 53
3 2947 390
3 2948 39
3 2949 46
3 2950 33
3 2951 53
3 2952 495
3 2953 68
3 2954 46
3 2955 45
3 2956 52
3 2957 46
3 2958 43
3 2959 60
3 2960 55
3 2961 158
3 2962 46
3 2963 826
3 2964 39
3 2965 46
3 2966 35
3 2967 56
3 2968 1454
3 2969 35
3 2970 64
3 2971 48
3 2972 68
3 2973 33
3 2974 42
3 2975 562
3 2976 43
3 2977 40
3 2978 31
3 2979 15
3 2980 6
3 2981 50
3 2982 2418
3 2983 52
3 2984 39
3 2985 34
3 2986 44
3 2987 79
3 2988 55
3 2989 51
3 2990 35
3 2991 303
3 2992 69
3 2993 42
3 2994 51
3 2995 44
3 2996 45
3 2997 41
3 2999 98
3 3000 39
3 3001 56
3 3003 47
3 3004 39
3 3005 61
3 3006 44
3 3007 2
3 3008 45
3 3009 39
3 3010 51
3 3011 46
3 3012 49
3 3013 355
3 3014 48
3 3015 44
3 3016 38
3 3017 57
3 3018 52
3 3019 59
3 3020 1
3 3021 700
3 3022 47
3 3023 79
3 3024 25
3 3025 72
3 3026 45
3 3027 52
3 3028 39
3 3029 41
3 3030 43
3 3031 49
3 3032 94
3 3033 44
3 3034 82
3 3035 41
3 3036 34
3 3037 115
3 3038 104
3 3039 76
3 3040 41
3 3041 36
3 3042 72
3 3043 56
3 3044 45
3 3045 45
3 3046 37
3 3047 52
3 3048 59
3 3049 50
3 3050 51
3 3051 47
3 3052 36
3 3053 55
3 3054 66
3 3055 159
3 3056 42
3 3057 77
3 3058 47
3 3059 37
3 3060 60
3 3061 50
3 3062 50
3 3063 18
3 3064 45
3 3065 74
3 3066 59
3 3067 44
3 3068 37
3 3069 1207
3 3070 80
3 3071 46
3 3072 36
3 3073 43
3 3074 248
3 3075 47
3 3076 50
3 3077 52
3 3078 96
3 3079 165
3 3080 31
3 3081 53
3 3082 1
3 3083 37
3 3084 43
3 3085 45
3 3087 53
3 3088 41
3 3089 93
3 3090 37
3 3091 37
3 3092 50
3 3093 58
3 3094 61
3 3095 97
3 3096 53
3 3097 41
3 3098 40
3 3099 48
3 3100 43
3 3101 39
3 3102 38
3 3103 52
3 3104 75
3 3105 44
3 3106 40
3 3107 30
3 3108 35
3 3109 49
3 3110 35
3 3111 23
3 3112 32
3 3113 83
3 3114 30
3 3115 80
3 3116 59
3 3117 45
3 3118 45
3 3119 37
3 3120 110
3 3121 41
3 3122 2402
3 3123 38
3 3124 122
3 3125 44
3 3126 41
3 3127 43
3 3128 42
3 3129 49
3 3130 49
3 3131 1148
3 3132 35
3 3133 67
3 3134 2
3 3135 44
3 3136 88
3 3137 45
3 3138 495
3 3139 48
3 3140 80
3 3141 63
3 3142 66
3 3143 64
3 3144 52
3 3145 46
3 3146 88
3 3147 51
3 3148 29
3 3149 55
3 3150 36
3 3151 20
3 3152 51
3 3153 70
3 3154 56
3 3155 50
3 3156 40
3 3157 40
3 3158 31
3 3159 46
3 3160 68
3 3161 37
3 3162 1764
3 3163 41
3 3165 39
3 3166 49
3 3167 103
3 3168 45
3 3169 37
3 3170 52
3 3171 81
3 3172 40
3 3173 94
3 3174 39
3 3175 37
3 3176 58
3 3177 34
3 3178 34
3 3179 1
3 3180 44
3 3181 56
3 3182 85
3 3183 23
3 3184 970
3 3185 32
3 3186 52
3 3187 130
3 3188 99
3 3189 62
3 3190 48
3 3191 47
3 3192 54
3 3193 46
3 3194 58
3 3195 50
3 3196 60
3 3197 279
3 3198 36
3 3199 118
3 3200 61
3 3201 131
3 3202 4079
3 3203 41
3 3204 28
3 3205 44
3 3206 44
3 3207 80
3 3208 52
3 3209 71
3 3210 148
3 3211 38
3 3212 36
3 3213 38
3 3214 52
3 3215 66
3 3216 37
3 3217 89
3 3218 64
3 3219 49
3 3220 272
3 3221 34
3 3222 46
3 3223 42
3 3224 47
3 3225 40
3 3226 38
3 3227 49
3 3228 27
3 3229 44
3 3230 46
3 3231 47
3 3232 50
3 3233 52
3 3234 45
3 3235 1
3 3236 39
3 3237 1541
3 3238 41
3 3239 44
3 3240 35
3 3241 248
3 3242 93
3 3243 105
3 3244 27
3 3245 52
3 3246 1358
3 3247 36
3 3248 33
3 3249 42
3 3250 30
3 3251 90
3 3252 73
3 3253 149
3 3254 53
3 3255 61
3 3256 95
3 3257 30
3 3258 46
3 3259 73
3 3260 48
3 3261 85
3 3262 101
3 3263 50
3 3264 73
3 3265 39
3 3266 39
3 3267 53
3 3268 187
3 3269 66
3 3270 94
3 3271 45
3 3272 48
3 3273 86
3 3274 43
3 3275 79
3 3276 159
3 3277 125
3 3278 75
3 3279 38
3 3280 1
3 3281 125
3 3282 33
3 3283 963
3 3284 30
3 3285 60
3 3286 39
3 3287 45
3 3288 90
3 3289 43
3 3290 46
3 3291 1057
3 3292 60
3 3293 49
3 3294 43
3 3295 278
3 3296 49
3 3297 39
3 3298 126
3 3299 28
3 3300 36
3 3302 50
3 3303 41
3 3304 31
3 3305 35
3 3306 35
3 3307 40
3 3308 31
3 3309 1
3 3310 45
3 3311 169
3 3312 40
3 3313 48
3 3314 41
3 3315 549
3 3316 33
3 3317 1941
3 3319 42
3 3320 39
3 3321 58
3 3322 74
3 3323 68
3 3324 44
3 3325 80
3 3326 39
3 3327 58
3 3328 37
3 3329 44
3 3331 35
3 3332 579
3 3333 43
3 3334 94
3 3335 75
3 3336 45
3 3337 46
3 3338 220
3 3339 139
3 3340 49
3 3341 54
3 3342 37
3 3343 31
3 3344 68
3 3345 40
3 3346 40
3 3347 53
3 3348 97
3 3349 46
3 3350 52
3 3351 36
3 3352 39
3 3353 33
3 3354 47
3 3355 98
3 3356 185
3 3357 66
3 3358 35
3 3359 50
3 3360 43
3 3361 32
3 3362 58
3 3363 845
3 3364 123
3 3365 52
3 3366 43
3 3367 34
3 3368 46
3 3369 44
3 3370 47
3 3371 44
3 3372 43
3 3373 56
3 3374 64
3 3375 40
3 3376 46
3 3377 84
3 3378 45
3 3379 48
3 3380 43
3 3381 48
3 3382 39
3 3383 33
3 3384 51
3 3385 36
3 3386 49
3 3387 61
3 3388 54
3 3389 49
3 3390 41
3 3391 36
3 3392 42
3 3393 51
3 3394 46
3 3395 46
3 3396 129
3 3397 61
3 3398 46
3 3399 52
3 3400 52
3 3401 52
3 3402 42
3 3403 98
3 3404 49
3 3405 42
3 3406 21
3 3407 30
3 3408 44
3 3409 231
3 3410 75
3 3411 58
3 3413 44
3 3414 74
3 3415 33
3 3416 52
3 3417 97
3 3418 44
3 3419 35
3 3420 35
3 3421 97
3 3422 33
3 3423 45
3 3424 1665
3 3425 81
3 3426 41
3 3427 37
3 3428 1017
3 3429 44
3 3430 39
3 3431 57
3 3432 43
3 3433 43
3 3434 45
3 3435 52
3 3436 134
3 3437 74
3 3438 65
3 3439 47
3 3440 46
3 3441 111
3 3442 45
3 3443 60
3 3444 295
3 3445 42
3 3446 122
3 3447 66
3 3448 53
3 3449 62
3 3450 127
3 3451 51
3 3452 45
3 3453 45
3 3454 62
3 3455 88
3 3456 1
3 3457 105
3 3458 47
3 3459 57
3 3460 41
3 3461 38
3 3462 47
3 3463 62
3 3464 54
3 3465 36
3 3466 140
3 3467 43
3 3468 45
3 3469 42
3 3470 73
3 3471 63
3 3472 44
3 3473 47
3 3474 49
3 3475 172
3 3476 50
3 3477 35
3 3478 34
3 3479 65
3 3481 55
3 3482 149
3 3483 39
3 3484 58
3 3485 57
3 3486 88
3 3487 60
3 3489 82
3 3490 542
3 3491 48
3 3492 48
3 3493 36
3 3494 60
3 3495 165
3 3496 55
3 3497 71
3 3498 38
3 3499 38
3 3500 87
3 3501 51
3 3502 54
3 3503 43
3 3504 38
3 3505 5
3 3506 77
3 3507 44
3 3508 61
3 3509 39
3 3510 35
3 3511 38
3 3512 40
3 3513 35
3 3514 37
3 3515 44
3 3516 36
3 3517 39
3 3518 33
3 3519 68
3 3520 47
3 3521 56
3 3522 118
3 3523 1145
3 3524 44
3 3525 44
3 3526 28
3 3527 42
3 3528 48
3 3529 3
3 3530 54
3 3531 43
3 3532 35
3 3533 44
3 3534 48
3 3535 72
3 3536 46
3 3537 36
3 3538 44
3 3539 56
3 3540 49
3 3541 1
3 3542 47
3 3543 44
3 3544 45
3 3545 32
3 3546 50
3 3547 62
3 3548 103
3 3549 41
3 3550 46
3 3551 2
3 3552 66
3 3553 27
3 3554 31
3 3555 43
3 3556 41
3 3557 44
3 3558 39
3 3559 55
3 3560 39
3 3561 49
3 3562 58
3 3563 48
3 3564 42
3 3565 46
3 3566 43
3 3567 57
3 3568 82
3 3569 42
3 3570 55
3 3571 50
3 3572 166
3 3573 258
3 3574 48
3 3575 46
3 3576 42
3 3577 40
3 3578 2124
3 3579 43
3 3580 88
3 3581 55
3 3582 48
3 3583 34
3 3584 72
3 3586 85
3 3587 84
3 3588 1230
3 3589 130
3 3590 49
3 3591 56
3 3592 95
3 3593 50
3 3594 79
3 3595 47
3 3596 55
3 3597 58
3 3598 40
3 3599 151
3 3600 45
3 3601 35
3 3602 90
3 3603 89
3 3604 678
3 3605 89
3 3606 53
3 3607 36
3 3608 35
3 3609 40
3 3610 45
3 3611 49
3 3612 77
3 3613 40
3 3614 23
3 3615 51
3 3616 53
3 3617 38
3 3618 40
3 3619 29
3 3620 73
3 3621 132
3 3622 312
3 3623 39
3 3624 59
3 3625 49
3 3626 24
3 3627 40
3 3628 58
3 3629 49
3 3630 64
3 3631 42
3 3632 41
3 3633 23
3 3634 46
3 3635 63
3 3636 1003
3 3637 55
3 3638 37
3 3639 49
3 3640 96
3 3641 58
3 3642 47
3 3643 48
3 3644 47
3 3645 73
3 3646 100
3 3647 50
3 3648 526
3 3649 53
3 3650 47
3 3651 902
3 3652 31
3 3653 24
3 3654 37
3 3655 38
3 3656 39
3 3657 18
3 3658 67
3 3659 45
3 3660 115
3 3661 885
3 3662 29
3 3663 48
3 3664 61
3 3665 43
3 3666 42
3 3667 919
3 3668 41
3 3669 27
3 3670 72
3 3671 47
3 3672 696
3 3673 46
3 3674 47
3 3675 35
3 3676 35
3 3677 39
3 3678 25
3 3679 43
3 3680 43
3 3681 82
3 3682 46
3 3683 37
3 3684 34
3 3685 1
3 3686 53
3 3687 32
3 3688 39
3 3689 716
3 3690 34
3 3691 68
3 3692 1202
3 3693 40
3 3694 51
3 3695 100
3 3696 30
3 3697 36
3 3698 34
3 3699 33
3 3700 46
3 3701 33
3 3703 60
3 3704 32
3 3705 25
3 3706 46
3 3707 113
3 3708 30
3 3709 38
3 3710 41
3 3711 23
3 3712 47
3 3713 30
3 3714 58
3 3715 774
3 3716 67
3 3717 43
3 3718 218
3 3719 30
3 3720 78
3 3721 40
3 3722 42
3 3723 32
3 3724 29
3 3725 58
3 3726 34
3 3727 73
3 3728 25
3 3729 38
3 3730 39
3 3731 36
3 3732 31
3 3733 46
3 3734 40
3 3735 1229
3 3736 20
3 3737 28
3 3738 27
3 3739 17
3 3740 84
3 3741 90
3 3742 54
3 3743 28
3 3744 34
3 3745 34
3 3746 28
3 3747 30
3 3748 29
3 3749 9
3 3750 44
3 3751 44
3 3752 77
3 3753 37
3 3754 34
3 3755 35
3 3756 41
3 3757 31
3 3758 214
3 3759 91
3 3761 32
3 3762 447
3 3763 32
3 3764 33
3 3765 34
3 3766 35
3 3767 21
3 3768 76
3 3769 30
3 3770 31
3 3771 41
3 3772 86
3 3773 23
3 3774 41
3 3775 34
3 3776 27
3 3777 44
3 3778 61
3 3779 42
3 3780 30
3 3781 42
3 3782 54
3 3783 117
3 3784 80
3 3785 23
3 3786 35
3 3787 27
3 3788 24
3 3789 1
3 3790 12
3 3791 38
3 3792 36
3 3793 38
3 3794 35
3 3795 636
3 3796 144
3 3797 92
3 3798 34
3 3799 35
3 3800 45
3 3801 43
3 3802 62
3 3803 172
3 3804 34
3 3805 44
3 3806 38
3 3807 40
3 3808 29
3 3809 25
3 3810 117
3 3812 27
3 3813 39
3 3814 21
3 3815 248
3 3816 45
3 3817 29
3 3818 52
3 3819 35
3 3820 45
3 3821 36
3 3822 46
3 3823 37
3 3824 44
3 3825 42
3 3826 28
3 3827 197
3 3828 99
3 3829 62
3 3830 58
3 3831 57
3 3832 34
3 3834 4
3 3835 8
3 3836 27
3 3837 52
3 3838 28
3 3839 31
3 3840 377
3 3841 34
3 3842 33
3 3843 36
3 3845 46
3 3846 30
3 3847 14
3 3848 35
3 3849 32
3 3850 37
3 3851 400
3 3852 121
3 3853 578
3 3854 90
3 3855 22
3 3856 38
3 3857 73
3 3859 28
3 3860 1
3 3861 46
3 3862 38
3 3863 63
3 3864 35
3 3865 40
3 3866 56
3 3867 33
3 3869 62
3 3870 1540
3 3871 39
3 3872 29
3 3873 39
3 3874 48
3 3875 53
3 3876 1895
3 3877 58
3 3878 57
3 3879 34
3 3880 83
3 3881 32
3 3882 34
3 3883 41
3 3884 53
3 3885 39
3 3886 36
3 3887 99
3 3888 30
3 3889 39
3 3890 41
3 3891 24
3 3892 37
3 3893 26
3 3894 31
3 3895 33
3 3896 45
3 3897 32
3 3898 43
3 3899 54
3 3900 41
3 3901 70
3 3902 36
3 3903 49
3 3904 46
3 3905 33
3 3906 54
3 3907 33
3 3908 70
3 3909 36
3 3910 31
3 3911 115
3 3912 79
3 3913 41
3 3914 37
3 3915 34
3 3916 46
3 3917 844
3 3918 41
3 3919 50
3 3920 37
3 3921 44
3 3922 31
3 3923 29
3 3924 33
3 3925 25
3 3926 204
3 3927 32
3 3928 52
3 3929 17
3 3930 40
3 3931 37
3 3932 41
3 3934 33
3 3935 6
3 3936 36
3 3937 1787
3 3938 61
3 3939 31
3 3940 71
3 3941 74
3 3942 33
3 3943 36
3 3944 6
3 3945 16
3 3946 236
3 3947 42
3 3948 26
3 3949 36
3 3950 76
3 3951 716
3 3952 38
3 3953 38
3 3954 42
3 3955 52
3 3956 91
3 3957 59
3 3958 101
3 3959 37
3 3960 29
3 3961 55
3 3962 243
3 3963 73
3 3964 32
3 3965 42
3 3966 46
3 3967 419
3 3968 35
3 3969 45
3 3970 142
3 3971 1
3 3972 42
3 3973 68
3 3974 31
3 3975 32
3 3976 39
3 3977 37
3 3978 38
3 3979 40
3 3980 30
3 3981 41
3 3982 37
3 3983 26
3 3984 28
3 3985 38
3 3986 3
3 3987 27
3 3988 38
3 3989 39
3 3990 37
3 3991 30
3 3992 43
3 3993 39
3 3994 42
3 3995 142
3 3996 39
3 3997 33
3 3998 84
3 3999 31
3 4000 1567
3 4001 50
3 4002 34
3 4003 32
3 4004 31
3 4005 36
3 4006 21
3 4007 15
3 4008 23
3 4009 32
3 4010 33
3 4011 40
3 4012 104
3 4013 78
3 4014 30
3 4015 32
3 4016 73
3 4017 34
3 4018 68
3 4019 65
3 4020 54
3 4021 98
3 4022 44
3 4023 53
3 4024 66
3 4025 300
3 4026 2
3 4027 43
3 4028 48
3 4029 49
3 4030 46
3 4031 78
3 4032 44
3 4033 35
3 4034 66
3 4035 35
3 4036 91
3 4037 57
3 4038 1733
3 4039 42
3 4040 44
3 4041 46
3 4042 60
3 4043 33
3 4044 31
3 4045 95
3 4046 49
3 4047 58
3 4048 57
3 4049 37
3 4050 58
3 4051 62
3 4052 40
3 4053 118
3 4054 58
3 4055 45
3 4056 31
3 4057 47
3 4058 89
3 4059 57
3 4060 57
3 4061 66
3 4062 68
3 4063 59
3 4064 30
3 4065 57
3 4066 83
3 4067 1
3 4068 49
3 4069 48
3 4070 440
3 4071 47
3 4072 62
3 4073 1
3 4074 64
3 4075 67
3 4076 58
3 4077 1097
3 4078 115
3 4079 60
3 4080 57
3 4081 61
3 4082 1293
3 4085 48
3 4086 62
3 4087 61
3 4088 63
3 4089 54
3 4090 41
3 4091 59
3 4092 66
3 4093 91
3 4094 65
3 4095 1041
3 4096 41
3 4097 127
3 4098 100
3 4099 58
3 4100 52
3 4101 31
3 4102 53
3 4103 56
3 4104 58
3 4105 60
3 4106 113
3 4107 90
3 4108 45
3 4109 41
3 4110 58
3 4111 80
3 4112 68
3 4113 49
3 4114 53
3 4115 46
3 4116 62
3 4117 100
3 4119 54
3 4120 2393
3 4121 123
3 4122 74
3 4123 46
3 4124 59
3 4125 212
3 4126 66
3 4127 63
3 4128 62
3 4129 52
3 4130 69
3 4131 58
3 4132 57
3 4133 55
3 4134 83
3 4135 53
3 4136 51
3 4137 64
3 4138 109
3 4139 39
3 4140 9
3 4141 61
3 4142 115
3 4143 93
3 4144 62
3 4145 64
3 4146 92
3 4147 60
3 4148 1286
3 4149 145
3 4150 53
3 4152 194
3 4153 53
3 4154 54
3 4155 56
3 4156 47
3 4157 39
3 4158 31
3 4159 99
3 4160 68
3 4161 38
3 4162 73
3 4163 178
3 4164 95
3 4165 86
3 4166 60
3 4167 44
3 4168 47
3 4169 167
3 4170 52
3 4171 75
3 4172 65
3 4173 55
3 4174 27
3 4175 85
3 4176 43
3 4177 67
3 4178 79
3 4179 49
3 4180 40
3 4181 40
3 4182 58
3 4183 93
3 4184 241
3 4185 55
3 4186 73
3 4187 60
3 4188 63
3 4189 43
3 4190 40
3 4191 58
3 4192 76
3 4193 1787
3 4194 55
3 4195 1308
3 4196 52
3 4197 1049
3 4198 39
3 4199 76
3 4200 65
3 4201 115
3 4202 110
3 4203 267
3 4204 54
3 4205 70
3 4206 51
3 4207 69
3 4208 81
3 4209 71
3 4210 86
3 4211 70
3 4212 44
3 4213 45
3 4214 225
3 4215 54
3 4216 65
3 4217 66
3 4218 67
3 4219 61
3 4220 35
3 4221 54
3 4222 111
3 4223 46
3 4224 113
3 4225 74
3 4226 52
3 4227 47
3 4228 74
3 4229 1628
3 4230 32
3 4231 63
3 4232 57
3 4233 86
3 4234 42
3 4235 43
3 4236 54
3 4237 88
3 4238 467
3 4239 56
3 4240 55
3 4242 39
3 4243 207
3 4244 63
3 4245 128
3 4246 58
3 4247 97
3 4248 40
3 4249 32
3 4250 1
3 4251 58
3 4252 42
3 4253 69
3 4254 177
3 4255 41
3 4257 42
3 4258 39
3 4259 57
3 4260 50
3 4261 78
3 4262 42
3 4263 118
3 4264 59
3 4265 75
3 4266 52
3 4267 83
3 4268 101
3 4269 52
3 4270 124
3 4271 71
3 4272 108
3 4273 137
3 4274 124
3 4275 55
3 4276 193
3 4277 34
3 4278 67
3 4279 40
3 4280 54
3 4281 245
3 4282 197
3 4283 113
3 4285 64
3 4286 100
3 4287 115
3 4288 42
3 4289 45
3 4290 58
3 4291 63
3 4292 41
3 4293 44
3 4294 858
3 4295 51
3 4296 48
3 4297 55
3 4298 71
3 4299 35
3 4300 2440
3 4301 47
3 4302 63
3 4303 144
3 4304 1
3 4305 88
3 4306 3085
3 4307 61
3 4308 76
3 4309 49
3 4310 39
3 4311 92
3 4312 74
3 4313 105
3 4315 60
3 4316 67
3 4318 45
3 4319 44
3 4320 1605
3 4321 54
3 4322 51
3 4323 48
3 4324 46
3 4325 56
3 4326 66
3 4327 38
3 4328 64
3 4329 43
3 4330 1
3 4331 66
3 4332 65
3 4333 927
3 4334 51
3 4335 127
3 4336 44
3 4338 65
3 4339 95
3 4340 49
3 4341 61
3 4342 146
3 4343 53
3 4344 47
3 4345 91
3 4346 48
3 4347 49
3 4348 76
3 4349 56
3 4350 48
3 4351 52
3 4352 2259
3 4353 38
3 4354 136
3 4355 58
3 4356 40
3 4357 60
3 4358 63
3 4359 64
3 4360 47
3 4361 56
3 4362 42
3 4363 72
3 4364 61
3 4365 75
3 4366 61
3 4367 47
3 4368 48
3 4369 61
3 4370 82
3 4371 47
3 4372 51
3 4373 48
3 4374 80
3 4375 38
3 4376 53
3 4377 29
3 4378 124
3 4379 59
3 4380 61
3 4381 46
3 4382 53
3 4383 38
3 4384 1618
3 4385 38
3 4386 110
3 4387 46
3 4388 37
3 4389 63
3 4390 82
3 4391 61
3 4392 432
3 4393 54
3 4394 43
3 4395 65
3 4396 117
3 4397 45
3 4398 45
3 4399 114
3 4400 57
3 4401 60
3 4402 44
3 4403 55
3 4404 63
3 4406 40
3 4407 57
3 4408 61
3 4409 55
3 4410 60
3 4411 14
3 4412 1
3 4413 55
3 4414 2
3 4415 43
3 4416 125
3 4417 52
3 4418 35
3 4419 55
3 4420 31
3 4421 219
3 4422 162
3 4423 64
3 4424 35
3 4425 58
3 4426 85
3 4427 67
3 4428 54
3 4429 75
3 4430 73
3 4431 1598
3 4432 41
3 4433 76
3 4434 60
3 4435 33
3 4436 45
3 4437 63
3 4438 48
3 4439 92
3 4440 56
3 4441 149
3 4442 89
3 4443 100
3 4444 48
3 4445 62
3 4446 274
3 4447 183
3 4448 75
3 4449 60
3 4450 40
3 4451 52
3 4452 58
3 4453 48
3 4454 45
3 4455 56
3 4456 51
3 4457 71
3 4458 54
3 4460 66
3 4461 1
3 4462 60
3 4463 54
3 4464 82
3 4466 63
3 4467 132
3 4468 58
3 4469 47
3 4470 62
3 4471 43
3 4472 1701
3 4473 50
3 4474 86
3 4475 88
3 4476 43
3 4477 44
3 4478 41
3 4479 45
3 4480 141
3 4481 122
3 4482 57
3 4483 55
3 4484 62
3 4485 55
3 4486 59
3 4487 51
3 4488 56
3 4489 175
3 4490 64
3 4491 50
3 4492 155
3 4493 58
3 4494 122
3 4495 53
3 4496 58
3 4497 51
3 4498 68
3 4499 42
3 4500 2038
3 4501 46
3 4502 51
3 4503 50
3 4504 49
3 4505 59
3 4506 72
3 4507 56
3 4508 36
3 4509 34
3 4510 40
3 4511 59
3 4512 102
3 4513 52
3 4514 51
3 4515 44
3 4516 61
3 4517 65
3 4518 197
3 4519 37
3 4520 78
3 4521 51
3 4522 69
3 4523 116
3 4524 2002
3 4525 56
3 4526 56
3 4527 176
3 4528 52
3 4529 56
3 4530 55
3 4531 70
3 4532 44
3 4533 57
3 4534 47
3 4535 3
3 4536 47
3 4537 3335
3 4538 69
3 4539 31185
3 4540 55
3 4541 61
3 4542 64
3 4543 44
3 4544 60
3 4545 67
3 4546 48
3 4547 51
3 4548 62
3 4549 62
3 4550 44
3 4551 53
3 4552 61
3 4553 71
3 4554 88
3 4555 56
3 4556 36
3 4557 46
3 4558 46
3 4559 53
3 4560 133
3 4561 64
3 4562 59
3 4563 70
3 4564 54
3 4565 46
3 4566 58
3 4567 597
3 4568 30
3 4569 89
3 4570 68
3 4571 36
3 4572 37
3 4573 65
3 4574 51
3 4575 75
3 4576 70
3 4577 1
3 4578 61
3 4579 55
3 4580 55
3 4581 1
3 4582 59
3 4583 56
3 4584 69
3 4585 66
3 4586 54
3 4587 55
3 4588 50
3 4589 43
3 4590 165
3 4591 187
3 4592 53
3 4593 62
3 4594 66
3 4595 44
3 4596 41
3 4597 57
3 4598 48
3 4599 121
3 4600 50
3 4601 41
3 4602 75
3 4603 74
3 4604 38
3 4605 51
3 4606 55
3 4607 94
3 4608 64
3 4609 114
3 4610 87
3 4611 80
3 4612 207
3 4613 47
3 4614 717
3 4615 69
3 4616 63
3 4617 530
3 4618 48
3 4619 48
3 4620 105
3 4621 89
3 4622 1
3 4623 79
3 4624 39
3 4625 75
3 4626 35
3 4627 56
3 4628 69
3 4629 91
3 4630 48
3 4631 52
3 4632 51
3 4633 177
3 4634 75
3 4635 55
3 4636 65
3 4637 21
3 4638 66
3 4639 83
3 4640 57
3 4641 50
3 4642 57
3 4643 46
3 4644 49
3 4645 56
3 4646 80
3 4647 68
3 4648 99
3 4649 2
3 4650 312
3 4653 42
3 4654 43
3 4655 40
3 4656 43
3 4657 74
3 4658 463
3 4659 162
3 4660 55
3 4661 67
3 4662 78
3 4663 48
3 4664 49
3 4665 62
3 4666 76
3 4667 58
3 4668 63
3 4669 66
3 4670 61
3 4671 60
3 4672 60
3 4673 43
3 4674 48
3 4675 67
3 4676 57
3 4677 65
3 4678 55
3 4679 42
3 4680 55
3 4681 50
3 4683 106
3 4684 55
3 4685 3
3 4686 63
3 4687 68
3 4688 63
3 4689 82
3 4690 79
3 4691 69
3 4692 90
3 4693 31
3 4694 65
3 4695 1
3 4696 54
3 4697 113
3 4698 64
3 4699 54
3 4700 1
3 4701 1
3 4702 44
3 4703 72
3 4704 59
3 4705 78
3 4706 72
3 4707 51
3 4708 156
3 4709 47
3 4710 1
3 4711 40
3 4712 66
3 4713 1
3 4714 51
3 4715 77
3 4716 164
3 4717 148
3 4718 110
3 4719 56
3 4720 870
3 4721 83
3 4722 62
3 4723 80
3 4724 47
3 4725 146
3 4726 36
3 4727 72
3 4728 60
3 4729 66
3 4730 47
3 4732 111
3 4733 63
3 4734 45
3 4735 57
3 4736 58
3 4737 43
3 4738 58
3 4739 49
3 4740 56
3 4741 57
3 4742 43
3 4743 54
3 4744 42
3 4745 63
3 4746 44
3 4747 80
3 4748 26
3 4749 39
3 4750 51
3 4752 51
3 4753 61
3 4754 58
3 4755 40
3 4756 44
3 4757 2014
3 4758 70
3 4759 60
3 4760 72
3 4761 50
3 4762 49
3 4763 52
3 4764 66
3 4765 59
3 4766 43
3 4767 905
3 4768 39
3 4769 83
3 4770 55
3 4771 53
3 4772 97
3 4773 30
3 4774 72
3 4775 752
3 4776 78
3 4777 61
3 4778 56
3 4779 190
3 4780 47
3 4781 81
3 4782 61
3 4783 145
3 4784 2
3 4785 58
3 4786 319
3 4787 63
3 4788 274
3 4789 1573
3 4790 41
3 4791 54
3 4792 1789
3 4793 51
3 4794 66
3 4795 208
3 4796 121
3 4797 56
3 4798 54
3 4799 60
3 4800 63
3 4801 58
3 4802 55
3 4803 66
3 4804 63
3 4805 95
3 4806 41
3 4807 71
3 4809 60
3 4810 62
3 4811 77
3 4812 123
3 4813 53
3 4814 117
3 4815 151
3 4816 243
3 4817 107
3 4818 59
3 4819 49
3 4820 58
3 4821 60
3 4822 187
3 4823 44
3 4824 47
3 4825 209
3 4826 71
3 4827 60
3 4828 47
3 4829 37
3 4830 76
3 4831 374
3 4832 54
3 4833 57
3 4834 50
3 4835 58
3 4836 75
3 4837 49
3 4838 320
3 4839 44
3 4840 56
3 4841 61
3 4842 52
3 4843 41
3 4844 72
3 4845 55
3 4846 65
3 4847 784
3 4848 50
3 4849 123
3 4850 22
3 4851 127
3 4852 48
3 4853 63
3 4854 60
3 4855 71
3 4856 64
3 4857 63
3 4858 58
3 4859 76
3 4860 45
3 4861 100
3 4862 71
3 4863 89
3 4864 48
3 4865 98
3 4866 1381
3 4867 61
3 4868 51
3 4869 63
3 4870 64
3 4871 54
3 4872 328
3 4873 65
3 4874 66
3 4875 1740
3 4876 67
3 4877 42
3 4878 43
3 4879 49
3 4880 78
3 4881 48
3 4882 346
3 4883 319
3 4884 65
3 4885 53
3 4887 61
3 4888 56
3 4889 53
3 4890 65
3 4891 48
3 4892 39
3 4893 45
3 4894 61
3 4895 40
3 4896 1285
3 4897 60
3 4898 51
3 4900 43
3 4901 52
3 4902 61
3 4903 250
3 4904 39
3 4905 93
3 4906 53
3 4907 54
3 4908 41
3 4909 33
3 4910 73
3 4911 41
3 4912 42
3 4913 105
3 4914 131
3 4915 68
3 4916 36
3 4917 40
3 4918 44
3 4919 99
3 4920 51
3 4921 46
3 4922 46
3 4923 48
3 4924 785
3 4925 40
3 4926 28
3 4927 86
3 4928 31
3 4929 65
3 4930 54
3 4931 58
3 4932 109
3 4933 50
3 4934 58
3 4935 57
3 4936 44
3 4937 63
3 4938 1
3 4939 50
3 4940 48
3 4941 54
3 4942 663
3 4943 49
3 4944 38
3 4945 65
3 4946 31
3 4947 56
3 4948 2
3 4949 46
3 4950 1244
3 4951 40
3 4952 3118
3 4954 62
3 4955 43
3 4956 49
3 4957 69
3 4958 51
3 4959 70
3 4960 92
3 4961 60
3 4962 49
3 4963 238
3 4964 64
3 4965 177
3 4966 175
3 4967 107
3 4968 733
3 4969 123
3 4970 61
3 4971 41
3 4972 168
3 4973 38
3 4974 39
3 4975 59
3 4976 60
3 4977 42
3 4978 42
3 4979 915
3 4980 68
3 4981 43
3 4982 57
3 4983 2
3 4984 91
3 4985 49
3 4986 50
3 4987 43
3 4988 1
3 4989 70
3 4990 47
3 4991 31
3 4992 59
3 4993 102
3 4994 1
3 4996 54
3 4997 81
3 4998 42
3 4999 34
3 5000 68
3 5001 85
3 5002 67
3 5003 70
3 5004 61
3 5005 52
3 5006 47
3 5007 62
3 5008 46
3 5009 58
3 5010 98
3 5011 51
3 5012 53
3 5013 79
3 5014 70
3 5015 35
3 5016 29
3 5017 34
3 5018 76
3 5019 44
3 5020 38
3 5021 44
3 5022 77
3 5023 49
3 5024 78
3 5025 38
3 5026 65
3 5027 76
3 5028 42
3 5029 125
3 5030 36
3 5031 38
3 5032 60
3 5033 59
3 5034 45
3 5035 17
3 5036 42
3 5037 48
3 5038 142
3 5039 37
3 5040 93
3 5041 3
3 5042 67
3 5043 42
3 5044 34
3 5045 60
3 5046 64
3 5048 74
3 5049 66
3 5050 116
3 5051 1777
3 5052 54
3 5053 55
3 5054 47
3 5055 11
3 5056 49
3 5057 43
3 5058 64
3 5059 61
3 5060 53
3 5061 33
3 5062 144
3 5063 51
3 5064 217
3 5065 42
3 5066 70
3 5067 51
3 5068 77
3 5069 14
3 5070 6
3 5071 1
3 5072 82
3 5073 33
3 5074 68
3 5075 47
3 5076 1164
3 5077 61
3 5078 43
3 5079 42
3 5080 55
3 5081 59
3 5083 67
3 5084 59
3 5085 88
3 5086 89
3 5087 42
3 5088 54
3 5089 67
3 5090 41
3 5092 67
3 5093 35
3 5094 61
3 5095 79
3 5096 1
3 5097 125
3 5098 45
3 5099 64
3 5100 85
3 5101 55
3 5102 50
3 5103 54
3 5104 48
3 5105 173
3 5106 159
3 5107 90
3 5108 48
3 5109 130
3 5110 30
3 5111 44
3 5112 119
3 5113 52
3 5114 1
3 5115 47
3 5116 91
3 5117 52
3 5118 47
3 5119 114
3 5120 54
3 5121 158
3 5122 40
3 5123 57
3 5124 38
3 5125 46
3 5126 37
3 5127 177
3 5128 39
3 5129 55
3 5130 221
3 5131 70
3 5132 45
3 5133 52
3 5134 48
3 5135 52
3 5136 29
3 5137 7
3 5138 1
3 5139 50
3 5140 317
3 5141 46
3 5142 2
3 5143 56
3 5144 30
3 5145 51
3 5146 30
3 5147 17
3 5148 36
3 5149 24
3 5150 64
3 5152 43
3 5153 28
3 5154 27
3 5155 1
3 5156 34
3 5157 31
3 5158 34
3 5159 158
4 1 82
4 2 52
4 3 62
4 4 45
4 5 86
4 6 76
4 7 46
4 9 41
4 10 34
4 11 26
4 12 40
4 13 68
4 14 35
4 15 99
4 16 1163
4 17 37
4 18 46
4 19 122
4 20 44
4 21 40
4 22 41
4 23 46
4 24 124
4 25 37
4 26 39
4 27 63
4 28 41
4 29 288
4 30 281
4 31 39
4 32 46
4 33 43
4 34 68
4 35 34
4 36 41
4 37 50
4 38 30
4 39 37
4 40 39
4 41 47
4 42 53
4 43 33
4 44 41
4 45 129
4 46 35
4 47 57
4 48 263
4 49 63
4 50 95
4 51 59
4 52 49
4 53 79
4 54 40
4 55 58
4 56 143
4 57 75
4 58 42
4 59 59
4 60 45
4 61 49
4 62 38
4 63 47
4 64 51
4 65 75
4 66 43
4 67 70
4 68 92
4 69 813
4 70 61
4 71 32
4 72 37
4 73 40
4 74 89
4 75 117
4 76 51
4 77 48
4 78 31
4 79 38
4 80 31
4 81 34
4 82 39
4 83 117
4 84 64
4 86 49
4 87 44
4 88 51
4 89 34
4 90 33
4 91 36
4 93 47
4 94 21
4 95 33
4 96 13
4 97 50
4 99 46
4 100 40
4 101 74
4 102 42
4 103 23
4 104 39
4 105 45
4 106 55
4 107 42
4 108 41
4 109 37
4 110 153
4 111 130
4 112 52
4 113 86
4 114 64
4 115 77
4 116 49
4 117 38
4 118 39
4 119 31
4 120 48
4 121 35
4 122 47
4 123 41
4 124 30
4 125 46
4 126 39
4 127 36
4 128 42
4 129 43
4 130 49
4 131 32
4 132 1
4 133 56
4 134 41
4 135 35
4 136 38
4 137 54
4 138 54
4 139 1096
4 140 66
4 141 55
4 142 79
4 143 74
4 144 43
4 145 44
4 146 30
4 147 43
4 148 39
4 149 55
4 150 50
4 151 74
4 152 30
4 153 59
4 154 56
4 155 241
4 156 39
4 157 33
4 158 78
4 159 46
4 160 137
4 161 49
4 162 45
4 163 47
4 164 1
4 165 258
4 166 49
4 167 39
4 168 46
4 169 71
4 170 66
4 171 34
4 172 40
4 173 28
4 174 3
4 175 49
4 176 52
4 177 1127
4 178 37
4 179 37
4 180 124
4 181 36
4 182 38
4 183 46
4 184 52
4 185 45
4 186 80
4 187 38
4 188 59
4 189 56
4 190 48
4 192 40
4 193 79
4 194 1319
4 196 64
4 197 2
4 198 1777
4 199 44
4 200 50
4 201 31
4 202 48
4 204 52
4 205 52
4 206 46
4 207 38
4 208 45
4 209 49
4 210 137
4 211 77
4 212 42
4 213 36
4 214 68
4 215 65
4 216 107
4 217 1247
4 218 37
4 219 75
4 220 63
4 221 1445
4 222 36
4 223 77
4 224 30
4 225 42
4 226 56
4 227 106
4 228 42
4 229 35
4 230 60
4 231 40
4 232 51
4 233 831
4 234 38
4 235 45
4 236 34
4 237 44
4 238 48
4 239 39
4 240 55
4 241 30
4 242 83
4 243 39
4 244 46
4 245 28
4 246 425
4 247 51
4 248 43
4 249 42
4 250 77
4 251 46
4 252 45
4 253 58
4 254 58
4 255 1
4 256 276
4 257 1
4 258 44
4 259 57
4 260 53
4 261 53
4 262 43
4 263 86
4 264 33
4 265 46
4 266 47
4 267 44
4 268 52
4 269 62
4 270 43
4 271 58
4 272 56
4 273 43
4 274 65
4 275 45
4 276 57
4 277 1
4 278 34
4 279 174
4 280 60
4 281 78
4 282 61
4 283 39
4 284 332
4 285 62
4 286 94
4 287 59
4 288 57
4 289 37
4 290 68
4 291 45
4 292 43
4 293 69
4 294 84
4 295 157
4 296 146
4 297 28
4 298 71
4 299 87
4 300 47
4 301 1136
4 302 112
4 303 49
4 304 37
4 305 32
4 306 58
4 307 65
4 308 45
4 309 111
4 310 58
4 311 2167
4 312 16
4 313 62
4 314 50
4 315 59
4 316 51
4 317 43
4 319 50
4 320 2
4 321 220
4 322 48
4 323 110
4 324 35
4 325 44
4 326 279
4 327 58
4 328 47
4 329 44
4 330 93
4 331 60
4 332 30
4 333 51
4 334 47
4 335 53
4 336 76
4 338 40
4 339 43
4 340 51
4 341 47
4 342 124
4 343 43
4 344 53
4 345 47
4 346 57
4 347 117
4 348 52
4 349 42
4 350 94
4 351 48
4 352 181
4 353 60
4 355 47
4 356 50
4 357 42
4 358 41
4 359 51
4 360 49
4 361 66
4 362 75
4 363 34
4 364 57
4 365 88
4 366 76
4 367 74
4 368 94
4 369 40
4 370 1248
4 371 59
4 372 61
4 373 17
4 374 31
4 375 42
4 376 32
4 377 27
4 378 50
4 379 244
4 380 58
4 381 21
4 382 54
4 383 60
4 384 31
4 385 55
4 386 62
4 387 40
4 388 30
4 389 297
4 390 44
4 391 343
4 392 66
4 393 54
4 394 77
4 395 46
4 396 49
4 397 46
4 398 131
4 399 64
4 400 42
4 401 39
4 402 53
4 403 42
4 404 60
4 405 44
4 406 81
4 407 94
4 408 51
4 409 38
4 410 50
4 411 52
4 412 63
4 413 48
4 414 49
4 415 45
4 416 71
4 417 55
4 418 1
4 419 30
4 420 1
4 421 38
4 422 92
4 423 33
4 424 60
4 425 31
4 426 52
4 427 41
4 428 65
4 429 45
4 430 52
4 432 67
4 433 188
4 434 142
4 435 81
4 436 106
4 437 51
4 438 58
4 439 46
4 440 55
4 441 190
4 442 38
4 443 52
4 444 50
4 445 60
4 446 55
4 447 1462
4 448 48
4 449 111
4 450 39
4 451 42
4 452 30
4 453 35
4 454 191
4 455 53
4 456 58
4 457 99
4 458 74
4 459 132
4 460 65
4 461 95
4 462 35
4 463 46
4 464 49
4 465 70
4 466 43
4 467 45
4 468 38
4 469 69
4 470 53
4 471 37
4 472 75
4 473 2203
4 474 339
4 475 59
4 476 66
4 477 1
4 478 78
4 479 33
4 480 20
4 481 57
4 482 52
4 483 281
4 484 59
4 485 53
4 486 47
4 487 54
4 488 43
4 489 46
4 490 51
4 491 44
4 492 87
4 493 43
4 495 83
4 496 68
4 497 74
4 498 1551
4 499 42
4 500 47
4 501 129
4 502 48
4 503 112
4 504 34
4 505 60
4 506 45
4 507 46
4 508 32
4 509 41
4 510 35
4 511 208
4 512 29
4 513 31
4 514 46
4 515 40
4 516 62
4 517 43
4 518 36
4 519 51
4 520 124
4 521 569
4 522 684
4 523 49
4 524 60
4 525 37
4 526 67
4 527 69
4 528 81
4 529 38
4 530 94
4 531 45
4 532 58
4 533 45
4 534 2
4 535 45
4 536 1
4 537 46
4 538 51
4 539 251
4 540 48
4 541 46
4 542 48
4 543 1166
4 544 53
4 545 53
4 546 48
4 547 46
4 548 57
4 549 37
4 550 62
4 551 57
4 552 102
4 553 36
4 554 73
4 555 24
4 556 103
4 557 54
4 558 30
4 559 76
4 560 48
4 561 56
4 562 34
4 563 84
4 564 124
4 565 89
4 566 41
4 567 41
4 568 43
4 569 39
4 570 188
4 571 49
4 572 53
4 573 71
4 574 1173
4 575 40
4 576 33
4 577 755
4 578 42
4 579 1
4 580 58
4 581 136
4 583 40
4 584 66
4 586 37
4 587 36
4 588 53
4 589 40
4 590 125
4 591 32
4 592 46
4 593 54
4 594 250
4 595 71
4 596 177
4 597 58
4 598 265
4 599 47
4 600 46
4 601 37
4 602 116
4 604 50
4 605 45
4 606 88
4 607 44
4 608 41
4 609 48
4 610 32
4 611 56
4 612 1170
4 613 43
4 614 75
4 615 57
4 616 55
4 618 1
4 619 62
4 620 46
4 621 39
4 622 50
4 623 26
4 624 58
4 625 121
4 626 57
4 627 49
4 628 35
4 629 1609
4 630 123
4 631 75
4 632 39
4 633 44
4 634 52
4 635 39
4 636 29
4 637 53
4 638 45
4 639 31
4 640 37
4 641 31
4 642 1082
4 643 33
4 644 74
4 645 40
4 646 48
4 647 48
4 648 50
4 649 57
4 650 147
4 651 2616
4 652 50
4 653 38
4 654 75
4 655 48
4 656 52
4 657 43
4 658 37
4 659 47
4 660 273
4 661 764
4 662 31
4 663 47
4 664 41
4 665 416
4 666 36
4 667 47
4 668 36
4 669 67
4 670 1147
4 671 50
4 672 45
4 673 31
4 674 60
4 675 320
4 676 105
4 677 43
4 678 43
4 679 52
4 680 37
4 681 42
4 682 35
4 683 33
4 684 43
4 685 45
4 686 40
4 687 51
4 688 210
4 689 79
4 690 54
4 691 1323
4 692 4
4 693 66
4 694 43
4 695 44
4 696 61
4 697 44
4 698 1331
4 699 132
4 700 964
4 701 40
4 702 35
4 703 40
4 704 2428
4 705 49
4 706 46
4 707 53
4 708 46
4 709 42
4 710 78
4 711 53
4 712 39
4 713 17
4 714 23
4 715 215
4 716 12
4 717 60
4 718 17
4 719 18
4 720 20
4 721 36
4 722 18
4 723 20
4 724 14
4 725 15
4 726 20
4 727 15
4 728 62
4 729 44
4 730 64
4 731 63
4 732 55
4 733 46
4 734 40
4 735 38
4 736 80
4 738 86
4 739 46
4 740 43
4 741 85
4 742 36
4 743 54
4 744 81
4 745 54
4 746 43
4 747 1
4 748 45
4 749 54
4 750 1742
4 751 42
4 753 58
4 754 31
4 755 33
4 756 40
4 757 88
4 758 49
4 759 76
4 760 33
4 761 55
4 762 52
4 763 75
4 764 66
4 765 102
4 766 53
4 767 64
4 768 77
4 769 51
4 770 53
4 771 47
4 772 68
4 773 57
4 774 55
4 775 35
4 776 39
4 777 57
4 778 55
4 779 85
4 780 43
4 781 63
4 782 41
4 783 1265
4 784 14
4 785 36
4 786 31
4 787 45
4 788 304
4 789 39
4 790 55
4 791 36
4 792 49
4 793 57
4 794 34
4 795 42
4 796 55
4 797 38
4 798 50
4 799 1670
4 800 43
4 801 35
4 802 37
4 803 44
4 804 67
4 805 41
4 806 48
4 807 53
4 808 25
4 809 54
4 810 45
4 811 51
4 812 50
4 813 46
4 814 69
4 815 56
4 816 39
4 817 46
4 818 90
4 819 50
4 820 57
4 821 47
4 822 44
4 823 40
4 824 57
4 825 87
4 826 24
4 827 50
4 828 33
4 829 42
4 830 42
4 831 49
4 832 47
4 833 220
4 834 1070
4 835 104
4 836 57
4 837 199
4 838 62
4 839 36
4 840 59
4 841 43
4 842 97
4 843 54
4 844 41
4 845 59
4 846 24
4 847 44
4 848 1
4 849 29
4 850 31
4 851 33
4 852 43
4 853 47
4 854 33
4 855 45
4 856 152
4 857 47
4 858 35
4 859 224
4 860 39
4 861 38
4 862 37
4 863 26
4 864 55
4 865 40
4 867 35
4 868 45
4 869 40
4 870 48
4 871 48
4 872 58
4 873 42
4 874 46
4 875 49
4 876 31
4 877 42
4 878 77
4 879 31
4 880 58
4 881 47
4 882 71
4 883 35
4 884 25
4 885 38
4 886 29
4 887 24
4 888 53
4 889 73
4 890 30
4 892 784
4 893 35
4 894 42
4 895 31
4 896 32
4 897 37
4 898 65
4 899 32
4 900 70
4 901 24
4 902 1247
4 904 36
4 906 17
4 907 75
4 908 59
4 909 53
4 910 139
4 911 44
4 912 135
4 913 557
4 914 44
4 915 29
4 916 34
4 917 1197
4 918 47
4 919 31
4 920 83
4 921 36
4 922 22
4 923 73
4 924 33
4 925 38
4 926 54
4 927 29
4 928 48
4 929 63
4 930 35
4 931 63
4 932 41
4 933 41
4 934 40
4 935 74
4 936 44
4 937 194
4 938 57
4 939 36
4 940 33
4 941 39
4 942 1
4 943 29
4 944 45
4 945 35
4 946 45
4 947 44
4 948 43
4 949 56
4 950 48
4 951 66
4 952 49
4 953 34
4 954 58
4 955 318
4 956 82
4 957 58
4 958 49
4 959 48
4 961 91
4 962 157
4 963 61
4 964 83
4 965 78
4 966 165
4 967 53
4 968 41
4 969 1
4 970 39
4 971 93
4 972 63
4 973 54
4 974 43
4 975 68
4 976 1
4 977 47
4 978 89
4 979 37
4 980 133
4 981 58
4 982 62
4 983 44
4 984 1740
4 985 70
4 986 40
4 987 50
4 988 47
4 989 57
4 990 97
4 992 61
4 993 49
4 994 49
4 995 29
4 996 19
4 997 98
4 998 40
4 999 37
4 1000 46
4 1001 46
4 1002 65
4 1003 44
4 1004 31
4 1005 783
4 1006 36
4 1007 47
4 1008 57
4 1009 239
4 1010 65
4 1011 31
4 1012 1128
4 1013 47
4 1014 37
4 1015 47
4 1016 47
4 1017 44
4 1018 44
4 1019 1656
4 1020 29
4 1022 38
4 1023 51
4 1024 43
4 1025 39
4 1027 1156
4 1028 50
4 1029 40
4 1030 26
4 1031 1280
4 1032 47
4 1033 52
4 1034 38
4 1035 53
4 1036 113
4 1037 50
4 1038 48
4 1039 41
4 1040 40
4 1041 102
4 1042 28
4 1043 49
4 1044 55
4 1045 49
4 1046 217
4 1047 269
4 1048 38
4 1049 48
4 1050 51
4 1051 47
4 1052 76
4 1053 42
4 1054 1740
4 1055 49
4 1056 53
4 1057 47
4 1058 59
4 1059 46
4 1060 45
4 1061 45
4 1062 39
4 1063 46
4 1064 48
4 1065 32
4 1066 52
4 1067 45
4 1068 52
4 1069 42
4 1070 44
4 1071 132
4 1072 41
4 1073 106
4 1075 29
4 1076 41
4 1077 33
4 1079 20
4 1080 34
4 1081 50
4 1082 35
4 1083 41
4 1084 39
4 1085 38
4 1086 31
4 1087 45
4 1088 630
4 1089 45
4 1090 50
4 1091 34
4 1092 34
4 1093 73
4 1094 29
4 1095 1
4 1096 27
4 1097 40
4 1098 77
4 1099 37
4 1100 34
4 1101 43
4 1102 80
4 1103 42
4 1104 64
4 1105 50
4 1106 36
4 1107 24
4 1108 30
4 1109 54
4 1110 1782
4 1111 46
4 1112 55
4 1113 43
4 1114 32
4 1115 38
4 1116 33
4 1117 46
4 1118 43
4 1119 51
4 1120 53
4 1121 223
4 1122 31
4 1123 43
4 1124 33
4 1125 54
4 1126 39
4 1127 50
4 1128 24
4 1129 48
4 1130 209
4 1131 45
4 1132 39
4 1133 28
4 1134 83
4 1135 1548
4 1136 40
4 1137 37
4 1138 43
4 1139 26
4 1140 98
4 1141 28
4 1142 37
4 1143 64
4 1144 49
4 1145 52
4 1146 268
4 1147 359
4 1148 244
4 1149 47
4 1150 48
4 1151 27
4 1152 82
4 1153 63
4 1154 45
4 1155 46
4 1156 1095
4 1157 43
4 1158 48
4 1159 55
4 1160 54
4 1161 1
4 1162 761
4 1163 64
4 1164 46
4 1165 41
4 1166 50
4 1167 1
4 1168 32
4 1169 32
4 1170 44
4 1171 58
4 1172 90
4 1173 40
4 1174 47
4 1175 144
4 1176 50
4 1177 42
4 1178 1
4 1179 1455
4 1180 51
4 1181 45
4 1182 71
4 1183 18
4 1184 277
4 1185 74
4 1186 191
4 1187 62
4 1188 47
4 1189 47
4 1190 52
4 1191 46
4 1192 183
4 1193 45
4 1194 60
4 1195 50
4 1196 67
4 1197 188
4 1198 176
4 1199 43
4 1201 1
4 1203 2
4 1204 46
4 1205 42
4 1206 38
4 1207 39
4 1209 47
4 1210 36
4 1211 35
4 1213 1
4 1214 41
4 1215 57
4 1216 46
4 1217 45
4 1218 194
4 1220 63
4 1221 43
4 1222 85
4 1223 36
4 1224 58
4 1225 39
4 1226 40
4 1227 37
4 1228 50
4 1229 61
4 1230 34
4 1232 64
4 1233 70
4 1234 197
4 1235 41
4 1236 101
4 1237 62
4 1238 39
4 1239 52
4 1240 48
4 1241 3074
4 1242 55
4 1243 54
4 1244 61
4 1245 49
4 1246 33
4 1247 172
4 1248 52
4 1249 47
4 1250 50
4 1252 48
4 1253 43
4 1254 59
4 1255 41
4 1256 54
4 1257 74
4 1258 221
4 1259 17
4 1260 67
4 1261 51
4 1262 65
4 1263 218
4 1264 59
4 1265 51
4 1266 90
4 1267 55
4 1268 40
4 1269 44
4 1270 55
4 1271 50
4 1272 216
4 1273 50
4 1274 66
4 1275 121
4 1276 1719
4 1277 197
4 1278 39
4 1279 74
4 1280 55
4 1281 39
4 1282 39
4 1283 34
4 1284 124
4 1285 95
4 1286 45
4 1287 1734
4 1288 29
4 1289 38
4 1290 61
4 1291 88
4 1292 147
4 1293 54
4 1294 47
4 1295 147
4 1296 1
4 1297 64
4 1298 291
4 1299 44
4 1300 41
4 1301 60
4 1302 58
4 1303 54
4 1304 60
4 1305 50
4 1306 43
4 1307 46
4 1308 123
4 1309 47
4 1310 46
4 1311 612
4 1312 79
4 1313 34
4 1314 44
4 1315 64
4 1316 10
4 1317 55
4 1318 36
4 1319 57
4 1320 48
4 1321 40
4 1322 64
4 1323 43
4 1324 52
4 1325 39
4 1326 78
4 1327 42
4 1328 89
4 1329 38
4 1330 249
4 1331 46
4 1332 42
4 1333 47
4 1334 68
4 1335 46
4 1336 95
4 1337 41
4 1338 51
4 1339 39
4 1340 79
4 1341 94
4 1342 64
4 1343 50
4 1344 54
4 1345 42
4 1346 90
4 1347 43
4 1348 41
4 1350 1353
4 1351 47
4 1352 36
4 1353 63
4 1355 1
4 1356 45
4 1357 61
4 1358 48
4 1359 46
4 1360 45
4 1361 51
4 1362 32
4 1363 48
4 1364 42
4 1365 42
4 1366 72
4 1367 45
4 1368 41
4 1369 45
4 1370 96
4 1371 52
4 1372 1
4 1373 58
4 1374 128
4 1375 67
4 1376 61
4 1377 55
4 1378 50
4 1379 50
4 1380 35
4 1382 84
4 1383 54
4 1385 854
4 1386 87
4 1388 51
4 1389 48
4 1390 33
4 1391 32
4 1392 1571
4 1393 107
4 1394 54
4 1395 48
4 1396 71
4 1397 64
4 1398 41
4 1399 33
4 1400 98
4 1401 81
4 1402 56
4 1403 739
4 1404 45
4 1405 64
4 1406 42
4 1407 3
4 1408 48
4 1409 230
4 1410 44
4 1411 340
4 1413 40
4 1414 44
4 1415 46
4 1416 49
4 1417 67
4 1418 168
4 1419 75
4 1420 48
4 1421 46
4 1422 44
4 1423 56
4 1424 504
4 1425 52
4 1426 43
4 1427 1561
4 1428 46
4 1430 32
4 1431 33
4 1432 26
4 1433 85
4 1434 929
4 1435 69
4 1436 57
4 1437 143
4 1438 49
4 1439 57
4 1440 43
4 1441 29
4 1442 40
4 1443 42
4 1444 52
4 1445 40
4 1446 54
4 1447 53
4 1448 39
4 1449 38
4 1451 57
4 1452 42
4 1453 132
4 1454 55
4 1455 49
4 1456 47
4 1457 44
4 1458 48
4 1459 55
4 1460 40
4 1461 40
4 1462 36
4 1463 40
4 1464 23
4 1465 1
4 1466 33
4 1467 50
4 1468 40
4 1469 50
4 1470 401
4 1471 90
4 1472 34
4 1473 56
4 1474 206
4 1475 73
4 1476 53
4 1477 44
4 1478 48
4 1479 40
4 1480 50
4 1481 57
4 1482 39
4 1483 41
4 1484 56
4 1485 37
4 1486 39
4 1487 1273
4 1488 25
4 1489 1390
4 1490 63
4 1491 40
4 1492 42
4 1493 57
4 1494 45
4 1495 54
4 1496 43
4 1497 39
4 1498 87
4 1499 35
4 1500 81
4 1502 35
4 1503 55
4 1504 763
4 1505 41
4 1506 81
4 1507 90
4 1508 32
4 1509 1
4 1510 367
4 1511 37
4 1512 58
4 1514 53
4 1515 57
4 1516 58
4 1517 51
4 1518 46
4 1519 58
4 1520 44
4 1521 29
4 1522 71
4 1523 42
4 1524 92
4 1525 36
4 1526 46
4 1527 76
4 1528 39
4 1529 733
4 1530 37
4 1531 51
4 1532 184
4 1533 39
4 1534 43
4 1535 614
4 1536 76
4 1537 136
4 1538 41
4 1539 48
4 1540 4765
4 1541 43
4 1542 103
4 1543 1769
4 1544 55
4 1545 90
4 1546 62
4 1547 67
4 1548 31
4 1549 1751
4 1550 81
4 1551 23
4 1552 57
4 1553 43
4 1554 42
4 1555 26
4 1556 259
4 1557 49
4 1558 52
4 1559 2
4 1560 48
4 1561 42
4 1562 51
4 1563 47
4 1564 49
4 1565 41
4 1566 50
4 1567 152
4 1568 76
4 1569 94
4 1570 48
4 1571 53
4 1572 145
4 1573 28
4 1574 66
4 1575 62
4 1576 46
4 1577 85
4 1578 325
4 1579 67
4 1580 119
4 1581 78
4 1582 1195
4 1583 59
4 1584 56
4 1585 79
4 1586 34
4 1587 30
4 1588 51
4 1589 46
4 1590 42
4 1591 44
4 1592 34
4 1593 35
4 1594 56
4 1595 1151
4 1596 42
4 1597 43
4 1598 44
4 1599 46
4 1600 51
4 1601 51
4 1602 51
4 1603 93
4 1604 1
4 1605 47
4 1606 47
4 1607 26
4 1608 43
4 1609 26
4 1610 1
4 1611 39
4 1612 55
4 1613 77
4 1614 65
4 1615 75
4 1616 31
4 1617 49
4 1618 41
4 1619 1530
4 1621 71
4 1622 41
4 1623 96
4 1624 51
4 1625 52
4 1626 39
4 1627 35
4 1628 913
4 1629 45
4 1630 49
4 1631 47
4 1632 32
4 1633 25
4 1634 40
4 1635 69
4 1636 62
4 1637 45
4 1638 58
4 1639 47
4 1640 54
4 1641 51
4 1642 37
4 1643 1614
4 1644 29
4 1645 63
4 1646 96
4 1647 35
4 1648 108
4 1649 119
4 1650 39
4 1651 180
4 1652 75
4 1653 46
4 1654 1462
4 1655 49
4 1656 38
4 1657 56
4 1658 56
4 1659 32
4 1660 148
4 1661 45
4 1662 37
4 1663 1
4 1664 42
4 1665 39
4 1666 48
4 1667 73
4 1668 58
4 1669 48
4 1670 48
4 1671 184
4 1672 62
4 1673 66
4 1674 72
4 1675 85
4 1676 37
4 1677 33
4 1678 44
4 1679 77
4 1680 32
4 1681 52
4 1682 42
4 1683 45
4 1684 48
4 1685 49
4 1686 57
4 1687 83
4 1688 53
4 1689 45
4 1690 161
4 1691 30
4 1692 55
4 1693 76
4 1694 35
4 1695 47
4 1696 9
4 1697 56
4 1698 2
4 1699 57
4 1700 70
4 1701 46
4 1702 136
4 1703 18
4 1704 51
4 1705 207
4 1706 917
4 1707 88
4 1709 146
4 1710 55
4 1711 90
4 1712 59
4 1713 79
4 1714 34
4 1715 44
4 1716 44
4 1717 80
4 1718 29
4 1719 40
4 1720 46
4 1721 79
4 1722 38
4 1723 39
4 1724 67
4 1725 43
4 1726 37
4 1727 134
4 1728 41
4 1729 35
4 1730 41
4 1731 44
4 1732 32
4 1733 177
4 1734 82
4 1735 123
4 1736 4
4 1737 53
4 1738 49
4 1739 49
4 1740 41
4 1741 55
4 1742 46
4 1743 41
4 1744 72
4 1745 33
4 1746 3
4 1747 45
4 1748 36
4 1749 56
4 1750 287
4 1751 53
4 1752 47
4 1753 51
4 1754 45
4 1755 48
4 1756 89
4 1757 55
4 1758 1268
4 1759 31
4 1760 31
4 1761 49
4 1762 66
4 1763 41
4 1764 90
4 1765 1371
4 1766 557
4 1767 53
4 1768 35
4 1769 47
4 1770 40
4 1771 1196
4 1772 49
4 1773 90
4 1774 94
4 1775 190
4 1776 1
4 1777 239
4 1778 1166
4 1779 52
4 1780 37
4 1781 29
4 1782 38
4 1783 66
4 1784 45
4 1785 242
4 1786 44
4 1787 62
4 1788 41
4 1789 70
4 1790 47
4 1791 47
4 1792 38
4 1793 50
4 1794 36
4 1795 44
4 1796 87
4 1797 61
4 1798 3
4 1799 30
4 1800 53
4 1801 32
4 1802 52
4 1803 45
4 1804 29
4 1805 70
4 1806 57
4 1807 52
4 1808 1
4 1809 53
4 1810 131
4 1811 123
4 1812 36
4 1813 34
4 1814 1330
4 1815 53
4 1816 42
4 1817 66
4 1818 49
4 1819 50
4 1820 52
4 1821 44
4 1822 111
4 1823 49
4 1824 62
4 1825 78
4 1826 25
4 1827 47
4 1828 68
4 1829 46
4 1830 35
4 1831 53
4 1832 44
4 1833 51
4 1834 39
4 1835 123
4 1836 33
4 1837 37
4 1838 34
4 1839 59
4 1840 51
4 1841 61
4 1842 1492
4 1843 43
4 1844 41
4 1845 1
4 1846 21
4 1847 805
4 1848 914
4 1849 38
4 1850 23
4 1851 52
4 1852 40
4 1853 1211
4 1854 41
4 1855 87
4 1856 95
4 1857 43
4 1858 44
4 1859 36
4 1860 1
4 1861 53
4 1862 40
4 1863 106
4 1864 49
4 1865 48
4 1866 348
4 1867 38
4 1868 58
4 1869 64
4 1870 111
4 1871 33
4 1872 53
4 1874 65
4 1875 49
4 1876 40
4 1877 49
4 1878 42
4 1879 48
4 1880 62
4 1881 39
4 1882 111
4 1883 1
4 1884 51
4 1885 41
4 1886 32
4 1887 64
4 1888 36
4 1889 30
4 1890 36
4 1891 44
4 1892 64
4 1893 38
4 1894 33
4 1895 44
4 1896 47
4 1897 960
4 1898 41
4 1899 1
4 1900 75
4 1901 49
4 1902 48
4 1903 59
4 1904 53
4 1905 230
4 1906 47
4 1907 38
4 1908 38
4 1909 62
4 1910 77
4 1911 61
4 1912 52
4 1913 33
4 1914 39
4 1915 43
4 1916 141
4 1917 46
4 1918 41
4 1919 58
4 1920 50
4 1921 49
4 1922 50
4 1923 133
4 1924 48
4 1925 69
4 1926 52
4 1927 21
4 1928 59
4 1929 148
4 1930 37
4 1931 36
4 1932 328
4 1933 37
4 1934 61
4 1935 1104
4 1936 32
4 1937 95
4 1938 318
4 1939 43
4 1940 44
4 1941 48
4 1942 405
4 1943 50
4 1944 65
4 1945 52
4 1946 39
4 1947 50
4 1948 46
4 1949 144
4 1950 32
4 1951 52
4 1952 48
4 1953 236
4 1954 29
4 1955 58
4 1956 47
4 1957 72
4 1959 2
4 1960 249
4 1961 41
4 1962 52
4 1963 46
4 1964 40
4 1965 53
4 1966 56
4 1967 1
4 1968 58
4 1969 54
4 1970 43
4 1971 44
4 1972 56
4 1973 313
4 1974 179
4 1975 105
4 1976 25
4 1977 54
4 1978 95
4 1979 42
4 1980 221
4 1981 48
4 1982 34
4 1983 39
4 1984 43
4 1985 55
4 1986 49
4 1987 54
4 1988 56
4 1989 101
4 1990 125
4 1991 61
4 1992 37
4 1993 41
4 1994 42
4 1995 37
4 1996 54
4 1997 44
4 1998 37
4 1999 133
4 2000 57
4 2001 48
4 2002 39
4 2003 57
4 2004 37
4 2005 124
4 2006 50
4 2007 324
4 2008 43
4 2009 54
4 2011 23
4 2012 59
4 2013 33
4 2014 765
4 2015 63
4 2016 45
4 2017 37
4 2018 136
4 2019 48
4 2020 187
4 2021 30
4 2022 50
4 2023 56
4 2024 48
4 2025 48
4 2026 46
4 2027 167
4 2028 66
4 2029 55
4 2030 50
4 2031 47
4 2032 46
4 2033 97
4 2034 33
4 2035 58
4 2036 49
4 2037 119
4 2038 54
4 2039 42
4 2040 57
4 2041 654
4 2042 222
4 2043 86
4 2044 165
4 2045 42
4 2046 45
4 2047 53
4 2048 45
4 2049 1030
4 2050 170
4 2051 28
4 2052 54
4 2053 180
4 2054 54
4 2055 86
4 2056 53
4 2057 50
4 2058 43
4 2059 307
4 2060 52
4 2061 51
4 2062 28
4 2063 28
4 2064 37
4 2065 44
4 2066 37
4 2067 54
4 2068 38
4 2069 52
4 2070 52
4 2071 120
4 2072 1858
4 2073 49
4 2074 46
4 2075 49
4 2076 2
4 2077 28
4 2078 73
4 2079 40
4 2080 33
4 2081 50
4 2082 55
4 2083 181
4 2084 210
4 2085 56
4 2086 41
4 2087 52
4 2088 30
4 2089 19
4 2090 59
4 2091 38
4 2092 19
4 2093 52
4 2094 44
4 2095 62
4 2096 67
4 2097 471
4 2098 30
4 2100 50
4 2101 130
4 2102 64
4 2103 49
4 2104 17
4 2105 40
4 2106 53
4 2107 59
4 2108 31
4 2109 79
4 2110 60
4 2111 49
4 2112 46
4 2113 142
4 2114 38
4 2116 235
4 2117 36
4 2118 51
4 2119 1
4 2120 178
4 2121 61
4 2122 66
4 2123 50
4 2124 55
4 2125 60
4 2126 70
4 2127 34
4 2128 43
4 2129 53
4 2130 46
4 2132 349
4 2133 36
4 2134 41
4 2135 31
4 2136 36
4 2137 21
4 2138 43
4 2139 83
4 2140 41
4 2142 42
4 2143 42
4 2144 52
4 2145 58
4 2146 35
4 2147 88
4 2148 53
4 2149 49
4 2150 56
4 2151 54
4 2152 68
4 2153 57
4 2154 41
4 2155 32
4 2156 44
4 2157 59
4 2158 58
4 2159 186
4 2160 30
4 2161 44
4 2162 29
4 2163 48
4 2164 40
4 2165 23
4 2166 40
4 2167 40
4 2168 37
4 2169 250
4 2170 72
4 2171 41
4 2172 70
4 2173 62
4 2174 51
4 2175 32
4 2176 28
4 2177 169
4 2178 26
4 2179 37
4 2180 312
4 2181 58
4 2182 2
4 2184 45
4 2185 43
4 2186 58
4 2187 61
4 2188 55
4 2189 77
4 2190 2
4 2191 46
4 2192 33
4 2193 38
4 2194 48
4 2195 84
4 2196 42
4 2197 38
4 2198 45
4 2199 39
4 2200 48
4 2201 85
4 2202 44
4 2203 24
4 2205 44
4 2206 36
4 2207 46
4 2208 36
4 2209 55
4 2210 185
4 2211 32
4 2212 53
4 2213 35
4 2214 46
4 2215 41
4 2216 36
4 2217 38
4 2218 40
4 2219 57
4 2220 45
4 2221 997
4 2222 1
4 2223 3
4 2224 1
4 2225 4
4 2227 6
4 2228 5
4 2229 2
4 2230 4
4 2231 2
4 2232 8
4 2233 4
4 2235 4
4 2236 2
4 2237 12
4 2238 30
4 2239 36
4 2240 19
4 2241 15
4 2242 21
4 2243 33
4 2244 1091
4 2245 42
4 2246 28
4 2247 34
4 2248 23
4 2249 28
4 2250 800
4 2251 31
4 2252 590
4 2253 32
4 2254 27
4 2255 58
4 2256 68
4 2257 88
4 2258 39
4 2259 36
4 2260 35
4 2261 51
4 2262 44
4 2263 32
4 2264 43
4 2265 48
4 2266 51
4 2267 39
4 2268 50
4 2269 48
4 2270 35
4 2271 24
4 2272 48
4 2273 34
4 2274 44
4 2275 192
4 2276 36
4 2277 44
4 2278 65
4 2279 89
4 2280 41
4 2281 39
4 2282 45
4 2283 48
4 2284 56
4 2286 52
4 2287 66
4 2288 44
4 2289 45
4 2290 35
4 2291 34246
4 2292 114
4 2293 87
4 2294 58
4 2295 41
4 2296 47
4 2297 37
4 2298 40
4 2299 83
4 2300 42
4 2301 40
4 2302 43
4 2303 95
4 2304 43
4 2306 11
4 2307 47
4 2308 31
4 2309 42
4 2310 37
4 2311 48
4 2312 45
4 2313 45
4 2314 47
4 2315 167
4 2316 1
4 2317 62
4 2318 29
4 2320 35
4 2321 49
4 2322 37
4 2323 38
4 2324 23
4 2325 52
4 2326 68
4 2327 36
4 2328 824
4 2329 39
4 2330 85
4 2331 452
4 2332 44
4 2333 30
4 2334 84
4 2335 76
4 2336 165
4 2337 57
4 2338 31
4 2339 64
4 2340 50
4 2341 48
4 2342 54
4 2343 56
4 2344 56
4 2345 36
4 2346 1
4 2347 1
4 2348 52
4 2349 63
4 2350 35
4 2351 62
4 2352 45
4 2353 99
4 2354 37
4 2355 45
4 2356 1830
4 2357 35
4 2358 55
4 2359 50
4 2360 47
4 2361 34
4 2362 49
4 2363 37
4 2364 16
4 2365 38
4 2366 61
4 2367 40
4 2368 50
4 2369 1385
4 2370 67
4 2371 43
4 2372 45
4 2373 41
4 2374 52
4 2375 40
4 2376 46
4 2377 44
4 2378 273
4 2379 132
4 2380 39
4 2381 78
4 2382 48
4 2383 47
4 2384 1
4 2385 64
4 2386 41
4 2387 40
4 2388 56
4 2390 36
4 2391 48
4 2392 52
4 2393 48
4 2394 31
4 2395 1
4 2396 104
4 2397 41
4 2398 58
4 2399 35
4 2400 45
4 2401 50
4 2402 74
4 2403 44
4 2404 49
4 2405 38
4 2406 51
4 2407 48
4 2408 46
4 2409 54
4 2410 100
4 2411 57
4 2412 190
4 2413 318
4 2414 62
4 2415 38
4 2416 60
4 2417 48
4 2418 46
4 2419 37
4 2420 41
4 2421 1411
4 2422 59
4 2423 9
4 2424 59
4 2425 49
4 2426 33
4 2427 44
4 2428 50
4 2429 37
4 2430 37
4 2431 37
4 2432 37
4 2433 104
4 2434 44
4 2435 52
4 2436 42
4 2437 41
4 2438 47
4 2439 37
4 2440 67
4 2441 132
4 2442 39
4 2443 61
4 2444 70
4 2445 39
4 2446 52
4 2447 50
4 2448 90
4 2449 44
4 2450 41
4 2451 31
4 2452 82
4 2453 37
4 2454 53
4 2455 39
4 2456 42
4 2457 63
4 2458 47
4 2459 47
4 2460 44
4 2461 69
4 2462 50
4 2463 45
4 2464 53
4 2465 44
4 2466 53
4 2467 40
4 2468 56
4 2469 47
4 2470 41
4 2471 52
4 2472 1
4 2473 234
4 2474 113
4 2475 45
4 2476 117
4 2477 30
4 2478 309
4 2479 209
4 2480 38
4 2481 38
4 2482 65
4 2483 42
4 2484 39
4 2485 79
4 2486 51
4 2487 13
4 2488 41
4 2489 63
4 2490 116
4 2491 60
4 2492 891
4 2493 1934
4 2494 55
4 2495 49
4 2496 41
4 2497 44
4 2498 42
4 2499 84
4 2500 57
4 2501 37
4 2502 43
4 2503 32
4 2504 43
4 2505 40
4 2506 38
4 2507 33
4 2508 41
4 2509 32
4 2510 42
4 2511 44
4 2512 104
4 2513 29
4 2514 33
4 2515 45
4 2516 49
4 2517 116
4 2518 51
4 2519 56
4 2520 41
4 2521 62
4 2522 75
4 2523 1625
4 2524 1660
4 2525 55
4 2526 54
4 2527 63
4 2528 42
4 2530 33
4 2531 44
4 2532 41
4 2533 43
4 2534 55
4 2535 45
4 2536 1133
4 2537 85
4 2538 273
4 2539 44
4 2540 35
4 2541 51
4 2542 47
4 2543 90
4 2544 112
4 2545 39
4 2546 40
4 2547 40
4 2548 59
4 2549 99
4 2550 62
4 2552 71
4 2553 59
4 2554 40
4 2555 57
4 2556 43
4 2557 82
4 2558 41
4 2559 97
4 2560 68
4 2561 1
4 2562 46
4 2563 47
4 2564 49
4 2565 42
4 2566 973
4 2567 53
4 2568 53
4 2569 134
4 2570 68
4 2571 386
4 2572 51
4 2573 54
4 2574 75
4 2575 41
4 2576 16
4 2577 62
4 2578 45
4 2579 33
4 2581 11
4 2582 107
4 2583 57
4 2584 42
4 2585 1
4 2586 70
4 2587 51
4 2588 222
4 2589 20
4 2590 40
4 2591 51
4 2592 41
4 2593 89
4 2594 47
4 2595 49
4 2596 36
4 2597 180
4 2598 39
4 2599 1
4 2600 233
4 2601 37
4 2602 687
4 2603 36
4 2604 42
4 2605 30
4 2606 35
4 2607 51
4 2608 84
4 2609 51
4 2610 37
4 2611 1465
4 2612 40
4 2613 40
4 2614 49
4 2615 34
4 2616 42
4 2617 60
4 2618 46
4 2619 66
4 2620 46
4 2621 53
4 2622 47
4 2623 130
4 2624 31
4 2625 50
4 2626 77
4 2627 38
4 2628 1186
4 2629 100
4 2630 47
4 2631 63
4 2632 41
4 2633 34
4 2634 31
4 2635 18
4 2636 312
4 2637 35
4 2638 51
4 2639 72
4 2640 41
4 2641 1061
4 2642 1857
4 2643 78
4 2644 41
4 2645 44
4 2646 41
4 2647 19
4 2648 53
4 2649 112
4 2651 39
4 2652 39
4 2653 30
4 2654 172
4 2655 35
4 2656 425
4 2657 121
4 2658 61
4 2659 57
4 2660 61
4 2661 175
4 2662 34
4 2663 51
4 2664 36
4 2665 39
4 2666 61
4 2667 44
4 2668 45
4 2669 24
4 2670 49
4 2671 56
4 2672 42
4 2673 77
4 2674 35
4 2675 41
4 2676 45
4 2677 185
4 2678 45
4 2679 58
4 2680 50
4 2681 1
4 2682 56
4 2683 3
4 2684 52
4 2685 35
4 2686 67
4 2687 46
4 2688 54
4 2689 53
4 2690 41
4 2691 60
4 2692 40
4 2693 42
4 2694 27
4 2695 40
4 2696 37
4 2697 40
4 2698 40
4 2699 17
4 2700 159
4 2701 56
4 2702 2
4 2703 28
4 2704 125
4 2705 27
4 2706 90
4 2707 46
4 2708 29
4 2709 23
4 2710 25
4 2711 44
4 2712 61
4 2713 68
4 2714 44
4 2715 53
4 2716 42
4 2717 1162
4 2718 46
4 2719 33
4 2721 41
4 2722 48
4 2723 49
4 2724 28
4 2725 28
4 2726 36
4 2727 35
4 2728 79
4 2729 48
4 2730 32
4 2731 55
4 2732 31
4 2733 32
4 2734 32
4 2735 47
4 2736 2
4 2737 29
4 2738 51
4 2739 46
4 2740 49
4 2741 51
4 2742 57
4 2743 74
4 2744 40
4 2745 46
4 2746 28
4 2747 40
4 2748 44
4 2749 26
4 2751 1433
4 2752 30
4 2753 78
4 2754 139
4 2755 36
4 2756 42
4 2757 59
4 2758 133
4 2759 32
4 2760 37
4 2761 30
4 2762 35
4 2763 364
4 2765 44
4 2766 43
4 2767 38
4 2768 23
4 2769 29
4 2770 27
4 2771 40
4 2772 37
4 2773 29
4 2774 37
4 2775 101
4 2776 32
4 2777 27
4 2778 30
4 2779 869
4 2780 40
4 2781 34
4 2782 850
4 2783 45
4 2784 33
4 2785 31
4 2786 39
4 2787 47
4 2788 37
4 2789 54
4 2790 34
4 2791 38
4 2792 35
4 2793 37
4 2794 35
4 2795 96
4 2796 40
4 2797 39
4 2798 1217
4 2799 50
4 2800 1185
4 2801 44
4 2802 37
4 2803 35
4 2804 41
4 2805 70
4 2806 47
4 2807 39
4 2808 47
4 2809 42
4 2810 57
4 2811 35
4 2812 50
4 2813 44
4 2814 49
4 2815 183
4 2816 53
4 2817 37
4 2818 45
4 2819 56
4 2820 41
4 2821 35
4 2822 136
4 2823 36
4 2824 43
4 2825 866
4 2826 37
4 2827 33
4 2828 42
4 2829 64
4 2830 86
4 2831 43
4 2832 44
4 2833 36
4 2834 38
4 2835 35
4 2836 28
4 2837 31
4 2838 36
4 2839 44
4 2840 496
4 2841 35
4 2843 38
4 2844 68
4 2845 45
4 2846 26
4 2847 43
4 2848 25
4 2849 56
4 2850 489
4 2851 12
4 2852 27
4 2853 35
4 2854 11
4 2855 45
4 2856 36
4 2857 28
4 2858 41
4 2859 41
4 2860 1
4 2861 679
4 2862 27
4 2863 39
4 2864 25
4 2865 65
4 2866 118
4 2867 58
4 2868 40
4 2869 42
4 2870 28
4 2871 1095
4 2872 30
4 2873 56
4 2874 204
4 2875 60
4 2876 571
4 2877 44
4 2878 62
4 2879 45
4 2880 44
4 2881 46
4 2882 47
4 2883 299
4 2884 47
4 2885 42
4 2886 2
4 2887 34
4 2888 30
4 2889 40
4 2890 189
4 2891 38
4 2892 1751
4 2893 19
4 2894 28
4 2895 63
4 2896 36
4 2897 28
4 2898 53
4 2899 38
4 2900 45
4 2901 102
4 2902 33
4 2903 44
4 2905 36
4 2906 30
4 2907 52
4 2908 4
4 2909 24
4 2910 55
4 2911 47
4 2912 810
4 2913 60
4 2914 40
4 2915 33
4 2916 59
4 2917 35
4 2918 43
4 2919 50
4 2920 42
4 2921 30
4 2922 4
4 2923 45
4 2924 44
4 2925 44
4 2926 28
4 2927 32
4 2928 778
4 2929 29
4 2930 87
4 2931 39
4 2932 71
4 2933 27
4 2934 36
4 2935 51
4 2936 320
4 2937 286
4 2938 31
4 2939 36
4 2940 29
4 2941 31
4 2942 36
4 2943 40
4 2944 37
4 2945 37
4 2946 28
4 2947 27
4 2948 28
4 2949 1621
4 2950 23
4 2951 26
4 2952 31
4 2953 30
4 2954 24
4 2955 26
4 2956 29
4 2957 35
4 2958 28
4 2959 36
4 2960 26
4 2961 24
4 2962 40
4 2963 45
4 2964 83
4 2965 206
4 2966 31
4 2967 1406
4 2968 34
4 2969 36
4 2970 71
4 2971 33
4 2972 61
4 2973 131
4 2974 34
4 2975 64
4 2976 20
4 2977 41
4 2978 30
4 2979 22
4 2980 7
4 2981 38
4 2982 32
4 2983 44
4 2984 24
4 2985 22
4 2986 40
4 2987 305
4 2988 59
4 2989 23
4 2990 36
4 2991 30
4 2992 54
4 2993 196
4 2994 23
4 2995 33
4 2996 35
4 2997 40
4 2998 1
4 2999 27
4 3000 38
4 3001 28
4 3003 43
4 3004 28
4 3005 36
4 3006 25
4 3008 33
4 3009 45
4 3010 42
4 3011 73
4 3012 28
4 3013 7
4 3014 35
4 3015 37
4 3016 33
4 3017 31
4 3018 26
4 3019 34
4 3021 55
4 3022 41
4 3023 64
4 3024 26
4 3025 43
4 3026 38
4 3027 34
4 3028 27
4 3029 17
4 3030 34
4 3031 38
4 3032 46
4 3033 29
4 3034 64
4 3035 33
4 3036 33
4 3037 29
4 3038 65
4 3039 46
4 3040 24
4 3041 41
4 3042 85
4 3043 968
4 3044 666
4 3045 28
4 3046 31
4 3047 35
4 3048 44
4 3049 42
4 3050 39
4 3051 32
4 3052 37
4 3053 34
4 3054 35
4 3055 30
4 3056 39
4 3057 43
4 3058 38
4 3059 27
4 3060 750
4 3061 1451
4 3062 38
4 3063 11
4 3064 34
4 3065 72
4 3066 226
4 3067 123
4 3068 166
4 3069 39
4 3070 75
4 3071 43
4 3072 27
4 3073 34
4 3074 49
4 3075 31
4 3076 35
4 3077 33
4 3078 83
4 3079 86
4 3080 283
4 3081 30
4 3082 1
4 3083 33
4 3084 46
4 3085 99
4 3087 33
4 3088 605
4 3089 52
4 3090 31
4 3091 30
4 3092 33
4 3093 36
4 3094 34
4 3095 70
4 3096 41
4 3097 37
4 3098 108
4 3099 588
4 3100 32
4 3101 25
4 3102 24
4 3103 31
4 3104 18
4 3105 45
4 3106 24
4 3107 15
4 3108 22
4 3109 30
4 3110 113
4 3111 25
4 3112 20
4 3113 63
4 3114 40
4 3115 29
4 3116 36
4 3117 980
4 3118 152
4 3119 916
4 3120 35
4 3121 30
4 3122 43
4 3123 30
4 3124 23
4 3125 50
4 3126 503
4 3127 26
4 3128 34
4 3129 20
4 3130 908
4 3131 34
4 3132 28
4 3133 44
4 3135 35
4 3136 50
4 3137 36
4 3138 37
4 3139 27
4 3140 41
4 3141 39
4 3142 874
4 3143 74
4 3144 27
4 3145 44
4 3146 64
4 3147 36
4 3148 26
4 3149 32
4 3150 125
4 3151 17
4 3152 34
4 3153 34
4 3154 39
4 3155 34
4 3156 29
4 3157 29
4 3158 22
4 3159 71
4 3160 60
4 3161 29
4 3162 48
4 3163 953
4 3165 28
4 3166 24
4 3167 27
4 3168 33
4 3169 25
4 3170 38
4 3171 47
4 3172 26
4 3173 26
4 3174 30
4 3175 25
4 3176 42
4 3177 46
4 3178 38
4 3180 31
4 3181 45
4 3182 48
4 3183 20
4 3184 39
4 3185 33
4 3186 29
4 3187 33
4 3188 56
4 3189 38
4 3190 32
4 3191 32
4 3192 48
4 3193 31
4 3194 30
4 3195 30
4 3196 32
4 3197 36
4 3198 42
4 3199 36
4 3200 36
4 3201 32
4 3202 39
4 3203 39
4 3204 29
4 3205 41
4 3206 27
4 3207 66
4 3208 42
4 3209 129
4 3210 30
4 3211 24
4 3212 137
4 3213 41
4 3214 24
4 3215 55
4 3216 27
4 3217 42
4 3218 26
4 3219 31
4 3220 23
4 3221 122
4 3222 41
4 3223 31
4 3224 30
4 3225 34
4 3226 28
4 3227 33
4 3228 150
4 3229 36
4 3230 26
4 3231 35
4 3232 32
4 3233 37
4 3234 31
4 3236 34
4 3237 70
4 3238 124
4 3239 27
4 3240 28
4 3241 39
4 3242 62
4 3243 86
4 3244 24
4 3245 36
4 3246 36
4 3247 23
4 3248 40
4 3249 28
4 3250 24
4 3251 65
4 3252 45
4 3253 17
4 3254 48
4 3255 44
4 3256 42
4 3257 28
4 3258 41
4 3259 78
4 3260 39
4 3261 45
4 3262 66
4 3263 46
4 3264 39
4 3265 30
4 3266 39
4 3267 29
4 3268 86
4 3269 35
4 3270 66
4 3271 131
4 3272 42
4 3273 54
4 3274 28
4 3275 27
4 3276 22
4 3277 39
4 3278 28
4 3279 30
4 3281 28
4 3282 33
4 3283 87
4 3284 34
4 3285 25
4 3286 24
4 3287 45
4 3288 65
4 3289 30
4 3290 41
4 3291 40
4 3292 38
4 3293 32
4 3294 28
4 3295 25
4 3296 26
4 3297 29
4 3298 36
4 3299 25
4 3300 20
4 3301 1
4 3302 32
4 3303 26
4 3304 28
4 3305 20
4 3306 31
4 3307 645
4 3308 31
4 3309 1
4 3310 34
4 3311 33
4 3312 32
4 3313 20
4 3314 251
4 3315 13
4 3316 27
4 3317 31
4 3319 37
4 3320 27
4 3321 37
4 3322 48
4 3323 49
4 3324 147
4 3325 33
4 3326 91
4 3327 48
4 3328 23
4 3329 44
4 3331 22
4 3332 29
4 3333 25
4 3334 66
4 3335 71
4 3336 30
4 3337 95
4 3338 33
4 3339 31
4 3340 43
4 3341 42
4 3342 38
4 3343 14
4 3344 43
4 3345 29
4 3346 30
4 3347 22
4 3348 64
4 3349 32
4 3350 39
4 3351 32
4 3352 585
4 3353 28
4 3354 52
4 3355 39
4 3356 32
4 3357 44
4 3358 27
4 3359 39
4 3360 34
4 3361 118
4 3362 46
4 3363 30
4 3364 40
4 3365 32
4 3366 175
4 3367 87
4 3368 1045
4 3369 34
4 3370 34
4 3371 29
4 3372 37
4 3373 1998
4 3374 35
4 3375 25
4 3376 124
4 3377 102
4 3378 367
4 3379 143
4 3380 53
4 3381 38
4 3382 42
4 3383 23
4 3384 44
4 3385 626
4 3386 36
4 3387 41
4 3388 117
4 3389 32
4 3390 40
4 3391 33
4 3392 31
4 3393 41
4 3394 37
4 3395 35
4 3396 50
4 3397 856
4 3398 39
4 3399 41
4 3400 39
4 3401 55
4 3402 32
4 3403 77
4 3404 37
4 3405 30
4 3406 19
4 3407 304
4 3408 41
4 3409 37
4 3410 49
4 3411 41
4 3412 2
4 3413 33
4 3414 37
4 3415 32
4 3416 46
4 3417 48
4 3418 32
4 3419 24
4 3420 40
4 3421 54
4 3422 45
4 3423 31
4 3424 34
4 3425 61
4 3426 47
4 3427 43
4 3428 54
4 3429 40
4 3430 24
4 3431 26
4 3432 46
4 3433 33
4 3434 36
4 3435 42
4 3436 32
4 3437 236
4 3438 46
4 3439 99
4 3440 31
4 3441 41
4 3442 27
4 3443 45
4 3444 142
4 3445 34
4 3446 28
4 3447 25
4 3448 46
4 3449 33
4 3450 34
4 3451 43
4 3452 729
4 3453 32
4 3454 42
4 3455 1385
4 3457 35
4 3458 97
4 3459 44
4 3460 35
4 3461 24
4 3462 23
4 3463 50
4 3464 36
4 3465 92
4 3466 31
4 3467 866
4 3468 27
4 3469 168
4 3470 34
4 3471 48
4 3472 35
4 3473 29
4 3474 27
4 3475 45
4 3476 130
4 3477 36
4 3478 33
4 3479 63
4 3481 37
4 3482 24
4 3483 436
4 3484 40
4 3485 42
4 3486 61
4 3487 25
4 3489 62
4 3490 31
4 3491 874
4 3492 37
4 3493 184
4 3494 38
4 3495 62
4 3496 39
4 3497 45
4 3498 42
4 3499 182
4 3500 91
4 3501 1043
4 3502 44
4 3503 26
4 3504 35
4 3505 1
4 3506 4
4 3507 24
4 3508 66
4 3509 35
4 3510 34
4 3511 24
4 3512 22
4 3513 25
4 3514 25
4 3515 306
4 3516 808
4 3517 103
4 3518 29
4 3519 54
4 3520 29
4 3521 34
4 3522 44
4 3523 41
4 3524 198
4 3525 32
4 3526 34
4 3527 29
4 3528 18
4 3530 45
4 3531 39
4 3532 45
4 3533 26
4 3534 41
4 3535 45
4 3536 42
4 3537 32
4 3538 47
4 3539 42
4 3540 36
4 3542 41
4 3543 34
4 3544 40
4 3545 1575
4 3546 38
4 3547 36
4 3548 69
4 3549 29
4 3550 31
4 3551 1
4 3552 1479
4 3553 29
4 3554 39
4 3555 633
4 3556 27
4 3557 906
4 3558 46
4 3559 29
4 3560 29
4 3561 37
4 3562 42
4 3563 32
4 3564 51
4 3565 94
4 3566 26
4 3567 35
4 3568 59
4 3569 49
4 3570 29
4 3571 42
4 3572 27
4 3573 29
4 3574 32
4 3575 33
4 3576 26
4 3577 31
4 3578 45
4 3579 30
4 3580 26
4 3581 37
4 3582 1152
4 3583 43
4 3584 51
4 3585 1
4 3586 41
4 3587 865
4 3588 49
4 3589 70
4 3590 192
4 3591 28
4 3592 89
4 3593 33
4 3594 55
4 3595 39
4 3596 45
4 3597 31
4 3598 24
4 3599 36
4 3600 38
4 3601 41
4 3602 86
4 3603 49
4 3604 38
4 3605 33
4 3606 51
4 3607 36
4 3608 79
4 3609 29
4 3610 27
4 3611 39
4 3612 48
4 3613 27
4 3614 56
4 3615 27
4 3616 40
4 3617 34
4 3618 19
4 3619 26
4 3620 54
4 3621 37
4 3622 79
4 3623 36
4 3624 34
4 3625 41
4 3626 30
4 3627 18
4 3628 28
4 3629 40
4 3630 28
4 3631 19
4 3632 20
4 3633 10
4 3634 30
4 3635 40
4 3636 48
4 3637 28
4 3638 24
4 3639 1187
4 3640 72
4 3641 54
4 3642 41
4 3643 38
4 3644 35
4 3645 59
4 3646 50
4 3647 30
4 3648 35
4 3649 29
4 3650 50
4 3651 49
4 3652 32
4 3653 30
4 3654 27
4 3655 24
4 3656 32
4 3657 17
4 3658 44
4 3659 29
4 3660 211
4 3661 36
4 3662 26
4 3663 30
4 3664 36
4 3665 37
4 3666 24
4 3667 102
4 3668 28
4 3669 32
4 3670 26
4 3671 30
4 3672 22
4 3673 29
4 3674 24
4 3675 26
4 3676 30
4 3677 21
4 3678 18
4 3679 31
4 3680 47
4 3681 59
4 3682 22
4 3683 22
4 3684 138
4 3686 29
4 3687 69
4 3688 16
4 3689 42
4 3690 644
4 3691 47
4 3692 47
4 3693 32
4 3694 40
4 3695 61
4 3696 25
4 3697 32
4 3698 29
4 3699 24
4 3700 178
4 3701 23
4 3703 36
4 3704 15
4 3705 20
4 3706 28
4 3707 66
4 3708 16
4 3709 29
4 3710 25
4 3711 23
4 3712 15
4 3713 20
4 3714 64
4 3715 24
4 3716 44
4 3717 37
4 3718 21
4 3719 103
4 3720 70
4 3721 30
4 3722 26
4 3723 21
4 3724 22
4 3725 44
4 3726 37
4 3727 68
4 3728 26
4 3729 33
4 3730 35
4 3731 63
4 3732 24
4 3733 36
4 3734 23
4 3735 30
4 3736 16
4 3737 19
4 3738 217
4 3739 122
4 3740 14
4 3741 24
4 3742 15
4 3743 24
4 3744 20
4 3745 18
4 3746 19
4 3747 24
4 3748 74
4 3749 5
4 3750 18
4 3751 22
4 3752 47
4 3753 34
4 3754 18
4 3755 21
4 3756 23
4 3757 25
4 3758 58
4 3759 27
4 3760 2
4 3761 36
4 3762 23
4 3763 31
4 3764 23
4 3765 28
4 3766 33
4 3767 5
4 3768 47
4 3769 49
4 3770 118
4 3771 165
4 3772 26
4 3773 50
4 3774 22
4 3775 26
4 3776 22
4 3777 20
4 3778 87
4 3779 33
4 3780 26
4 3781 29
4 3782 47
4 3783 35
4 3784 45
4 3785 90
4 3786 17
4 3787 131
4 3788 11
4 3790 9
4 3791 24
4 3792 90
4 3793 50
4 3794 22
4 3795 29
4 3796 36
4 3797 44
4 3798 18
4 3799 30
4 3800 31
4 3801 32
4 3802 40
4 3803 33
4 3804 29
4 3805 31
4 3806 28
4 3807 50
4 3808 33
4 3809 23
4 3810 15
4 3812 83
4 3813 22
4 3814 14
4 3815 22
4 3816 33
4 3817 58
4 3818 37
4 3819 27
4 3820 53
4 3821 30
4 3822 38
4 3823 39
4 3824 1265
4 3825 38
4 3826 24
4 3827 25
4 3828 78
4 3829 60
4 3830 31
4 3831 39
4 3832 28
4 3834 1
4 3835 4
4 3836 29
4 3837 29
4 3838 22
4 3839 32
4 3840 24
4 3841 24
4 3842 23
4 3843 62
4 3844 1
4 3845 33
4 3846 18
4 3847 22
4 3848 18
4 3849 30
4 3850 22
4 3851 28
4 3852 16
4 3853 29
4 3854 30
4 3855 399
4 3856 15
4 3857 22
4 3858 2
4 3859 17
4 3860 1
4 3861 23
4 3862 37
4 3863 49
4 3864 17
4 3865 35
4 3866 41
4 3867 20
4 3869 57
4 3870 42
4 3871 29
4 3872 16
4 3873 28
4 3874 28
4 3875 39
4 3876 35
4 3877 18
4 3878 29
4 3879 35
4 3880 30
4 3881 34
4 3882 29
4 3883 27
4 3884 126
4 3885 30
4 3886 99
4 3887 34
4 3888 136
4 3889 39
4 3890 33
4 3891 27
4 3892 36
4 3893 28
4 3894 19
4 3895 35
4 3896 26
4 3897 28
4 3898 891
4 3899 33
4 3900 70
4 3901 30
4 3902 22
4 3903 42
4 3904 26
4 3905 65
4 3906 34
4 3907 24
4 3908 53
4 3909 28
4 3910 138
4 3911 23
4 3912 53
4 3913 31
4 3914 26
4 3915 41
4 3916 34
4 3917 34
4 3918 24
4 3919 24
4 3920 23
4 3921 31
4 3922 36
4 3923 18
4 3924 31
4 3925 26
4 3926 124
4 3927 30
4 3928 36
4 3929 23
4 3930 31
4 3931 32
4 3932 24
4 3933 2
4 3934 25
4 3935 15
4 3936 982
4 3937 40
4 3938 27
4 3939 53
4 3940 54
4 3941 25
4 3942 27
4 3943 32
4 3944 46
4 3945 13
4 3946 32
4 3947 24
4 3948 18
4 3949 28
4 3950 47
4 3951 32
4 3952 21
4 3953 19
4 3954 30
4 3955 42
4 3956 68
4 3957 31
4 3958 21
4 3959 23
4 3960 15
4 3961 38
4 3962 24
4 3963 16
4 3964 29
4 3965 22
4 3966 23
4 3967 33
4 3968 25
4 3969 19
4 3970 25
4 3972 96
4 3973 69
4 3974 19
4 3975 28
4 3976 21
4 3977 17
4 3978 24
4 3979 37
4 3980 16
4 3981 25
4 3982 30
4 3983 31
4 3984 20
4 3985 22
4 3986 2
4 3987 30
4 3988 28
4 3989 27
4 3990 75
4 3991 30
4 3992 25
4 3993 29
4 3994 29
4 3995 24
4 3996 21
4 3997 16
4 3998 58
4 3999 29
4 4000 31
4 4001 19
4 4002 468
4 4003 29
4 4004 29
4 4005 20
4 4006 21
4 4007 14
4 4008 642
4 4009 30
4 4010 16
4 4011 19
4 4012 28
4 4013 22
4 4014 14
4 4015 59
4 4016 19
4 4017 18
4 4018 36
4 4019 57
4 4020 47
4 4021 78
4 4022 33
4 4023 42
4 4024 50
4 4025 50
4 4026 1
4 4027 315
4 4028 38
4 4029 39
4 4030 197
4 4031 76
4 4032 46
4 4033 207
4 4034 200
4 4035 363
4 4036 318
4 4037 923
4 4038 71
4 4039 330
4 4040 33
4 4041 91
4 4042 26
4 4043 49
4 4044 863
4 4045 65
4 4046 2334
4 4047 54
4 4048 34
4 4049 49
4 4050 52
4 4051 38
4 4052 29
4 4053 32
4 4054 43
4 4055 46
4 4056 38
4 4057 94
4 4058 52
4 4059 52
4 4060 41
4 4061 48
4 4062 42
4 4063 39
4 4064 39
4 4065 43
4 4066 69
4 4068 29
4 4069 43
4 4070 39
4 4071 1234
4 4072 46
4 4073 1
4 4074 35
4 4075 41
4 4076 42
4 4077 56
4 4078 57
4 4079 39
4 4080 38
4 4081 65
4 4082 46
4 4083 1
4 4084 3
4 4085 28
4 4086 44
4 4087 39
4 4088 57
4 4089 39
4 4090 42
4 4091 30
4 4092 43
4 4093 88
4 4094 94
4 4095 35
4 4096 29
4 4097 39
4 4098 89
4 4099 35
4 4100 38
4 4101 39
4 4102 35
4 4103 40
4 4104 37
4 4105 34
4 4106 40
4 4107 52
4 4108 37
4 4109 537
4 4110 50
4 4111 32
4 4112 32
4 4113 87
4 4114 46
4 4115 32
4 4116 118
4 4117 30
4 4119 58
4 4120 70
4 4121 50
4 4122 34
4 4123 33
4 4124 45
4 4125 81
4 4126 61
4 4127 902
4 4128 77
4 4129 290
4 4130 55
4 4131 31
4 4132 1327
4 4133 34
4 4134 43
4 4135 39
4 4136 43
4 4137 55
4 4138 54
4 4139 44
4 4140 10
4 4141 45
4 4142 87
4 4143 65
4 4144 42
4 4145 41
4 4146 77
4 4147 82
4 4148 77
4 4149 59
4 4150 46
4 4152 34
4 4153 32
4 4154 1147
4 4155 45
4 4156 38
4 4157 44
4 4158 134
4 4159 69
4 4160 44
4 4161 47
4 4162 31
4 4163 45
4 4164 34
4 4165 43
4 4166 52
4 4167 36
4 4168 40
4 4169 36
4 4170 32
4 4171 46
4 4172 44
4 4173 44
4 4174 252
4 4175 65
4 4176 45
4 4177 40
4 4178 49
4 4179 44
4 4180 39
4 4181 38
4 4182 54
4 4183 85
4 4184 37
4 4185 105
4 4186 45
4 4187 41
4 4188 33
4 4189 84
4 4190 44
4 4191 53
4 4192 63
4 4193 59
4 4194 38
4 4195 56
4 4196 35
4 4197 52
4 4198 100
4 4199 52
4 4200 44
4 4201 72
4 4202 88
4 4203 104
4 4204 43
4 4205 42
4 4206 39
4 4207 51
4 4208 47
4 4209 46
4 4210 57
4 4211 39
4 4212 36
4 4213 47
4 4214 59
4 4215 29
4 4216 28
4 4217 47
4 4218 634
4 4219 58
4 4220 37
4 4221 51
4 4222 32
4 4223 41
4 4224 102
4 4225 69
4 4226 141
4 4227 30
4 4228 41
4 4229 137
4 4230 23
4 4231 35
4 4232 34
4 4233 1445
4 4234 26
4 4235 42
4 4236 29
4 4237 67
4 4238 45
4 4239 23
4 4240 44
4 4241 2
4 4242 40
4 4243 50
4 4244 33
4 4245 50
4 4246 48
4 4247 88
4 4248 32
4 4249 35
4 4250 2
4 4251 57
4 4252 27
4 4253 42
4 4254 81
4 4255 36
4 4257 49
4 4258 45
4 4259 44
4 4260 25
4 4261 61
4 4262 45
4 4263 57
4 4264 45
4 4265 49
4 4266 55
4 4267 68
4 4268 1848
4 4269 84
4 4270 29
4 4271 52
4 4272 38
4 4273 33
4 4274 42
4 4275 31
4 4276 63
4 4277 47
4 4278 42
4 4279 30
4 4280 44
4 4281 70
4 4282 37
4 4283 102
4 4284 1
4 4285 64
4 4286 187
4 4287 37
4 4288 37
4 4289 190
4 4290 31
4 4291 53
4 4292 45
4 4293 20
4 4294 66
4 4295 43
4 4296 604
4 4297 34
4 4298 55
4 4299 36
4 4300 60
4 4301 44
4 4302 36
4 4303 743
4 4304 2
4 4305 168
4 4306 65
4 4307 52
4 4308 50
4 4309 45
4 4310 168
4 4311 65
4 4312 41
4 4313 115
4 4315 52
4 4316 47
4 4317 2
4 4318 44
4 4319 34
4 4320 60
4 4321 44
4 4322 140
4 4323 89
4 4324 44
4 4325 35
4 4326 45
4 4327 44
4 4328 45
4 4329 52
4 4330 2
4 4331 56
4 4332 58
4 4333 45
4 4334 38
4 4335 113
4 4336 131
4 4337 1
4 4338 52
4 4339 85
4 4340 36
4 4341 49
4 4342 39
4 4343 53
4 4344 29
4 4345 257
4 4346 42
4 4347 53
4 4348 1418
4 4349 46
4 4350 53
4 4351 45
4 4352 47
4 4353 68
4 4354 77
4 4355 156
4 4356 28
4 4357 741
4 4358 44
4 4359 52
4 4360 38
4 4361 116
4 4362 37
4 4363 60
4 4364 146
4 4365 52
4 4366 49
4 4367 41
4 4368 147
4 4369 40
4 4370 70
4 4371 25
4 4372 49
4 4373 37
4 4374 68
4 4375 29
4 4376 35
4 4377 32
4 4378 93
4 4379 41
4 4380 302
4 4381 55
4 4382 104
4 4383 133
4 4384 35
4 4385 36
4 4386 66
4 4387 148
4 4388 65
4 4389 47
4 4390 57
4 4391 55
4 4392 36
4 4393 175
4 4394 51
4 4395 45
4 4396 90
4 4397 33
4 4398 38
4 4399 89
4 4400 53
4 4401 44
4 4402 129
4 4403 56
4 4404 49
4 4406 38
4 4407 49
4 4408 42
4 4409 217
4 4410 34
4 4411 14
4 4413 43
4 4414 1
4 4415 46
4 4416 70
4 4417 38
4 4418 21
4 4419 42
4 4420 27
4 4421 27
4 4422 54
4 4423 48
4 4424 177
4 4425 29
4 4426 60
4 4427 52
4 4428 57
4 4429 35
4 4430 36
4 4431 54
4 4432 30
4 4433 69
4 4434 50
4 4435 29
4 4436 21
4 4437 42
4 4438 75
4 4439 75
4 4440 47
4 4441 32
4 4442 52
4 4443 84
4 4444 45
4 4445 1576
4 4446 47
4 4447 88
4 4448 28
4 4449 58
4 4450 41
4 4451 46
4 4452 52
4 4453 37
4 4454 42
4 4455 43
4 4456 46
4 4457 47
4 4458 45
4 4460 42
4 4462 44
4 4463 58
4 4464 59
4 4465 2
4 4466 51
4 4467 127
4 4468 121
4 4469 42
4 4470 40
4 4471 24
4 4472 59
4 4473 57
4 4474 38
4 4475 32
4 4476 49
4 4477 35
4 4478 76
4 4479 110
4 4480 69
4 4481 32
4 4482 37
4 4483 56
4 4484 64
4 4485 38
4 4486 45
4 4487 116
4 4488 151
4 4489 64
4 4490 1384
4 4491 41
4 4492 42
4 4493 39
4 4494 77
4 4495 31
4 4496 46
4 4497 44
4 4498 42
4 4499 29
4 4500 64
4 4501 212
4 4502 40
4 4503 32
4 4504 44
4 4505 40
4 4506 47
4 4507 23
4 4508 45
4 4509 36
4 4510 31
4 4511 31
4 4512 66
4 4513 40
4 4514 765
4 4515 33
4 4516 1808
4 4517 42
4 4518 42
4 4519 36
4 4520 59
4 4521 24
4 4522 59
4 4523 42
4 4524 60
4 4525 45
4 4526 36
4 4527 154
4 4528 27
4 4529 44
4 4530 40
4 4531 47
4 4532 41
4 4533 47
4 4534 726
4 4535 1
4 4536 121
4 4537 135
4 4538 34
4 4539 494
4 4540 29
4 4541 68
4 4542 45
4 4543 33
4 4544 49
4 4545 52
4 4546 47
4 4547 49
4 4548 52
4 4549 48
4 4550 26
4 4551 49
4 4552 60
4 4553 145
4 4554 74
4 4555 37
4 4556 602
4 4557 28
4 4558 40
4 4559 36
4 4560 40
4 4561 46
4 4562 37
4 4563 29
4 4564 163
4 4565 38
4 4566 39
4 4567 31
4 4568 107
4 4569 86
4 4570 26
4 4571 155
4 4572 152
4 4573 46
4 4574 98
4 4575 61
4 4576 41
4 4577 2
4 4578 44
4 4579 35
4 4580 643
4 4582 32
4 4583 43
4 4584 62
4 4585 36
4 4586 40
4 4587 43
4 4588 123
4 4589 28
4 4590 53
4 4591 41
4 4592 57
4 4593 85
4 4594 465
4 4595 178
4 4596 214
4 4597 36
4 4598 56
4 4599 41
4 4600 43
4 4601 40
4 4602 59
4 4603 43
4 4604 33
4 4605 48
4 4606 50
4 4607 70
4 4608 39
4 4609 95
4 4610 171
4 4611 61
4 4612 54
4 4613 119
4 4614 52
4 4615 47
4 4616 1602
4 4617 64
4 4618 355
4 4619 39
4 4620 72
4 4621 63
4 4622 2
4 4623 663
4 4624 36
4 4625 43
4 4626 19
4 4627 50
4 4628 40
4 4629 47
4 4630 33
4 4631 56
4 4632 33
4 4633 91
4 4634 56
4 4635 39
4 4636 45
4 4637 21
4 4638 44
4 4639 44
4 4640 2365
4 4641 50
4 4642 49
4 4643 97
4 4644 55
4 4645 44
4 4646 39
4 4647 45
4 4648 202
4 4650 52
4 4651 3
4 4653 33
4 4654 120
4 4655 32
4 4656 43
4 4657 60
4 4658 61
4 4659 66
4 4660 178
4 4661 43
4 4662 34
4 4663 36
4 4664 45
4 4665 46
4 4666 60
4 4667 55
4 4668 61
4 4669 49
4 4670 1158
4 4671 48
4 4672 40
4 4673 26
4 4674 43
4 4675 43
4 4676 69
4 4677 65
4 4678 47
4 4679 39
4 4680 45
4 4681 44
4 4683 73
4 4684 138
4 4685 2
4 4686 45
4 4687 43
4 4688 45
4 4689 55
4 4690 62
4 4691 58
4 4692 74
4 4693 32
4 4694 973
4 4696 39
4 4697 65
4 4698 57
4 4699 43
4 4700 1
4 4701 1
4 4702 47
4 4703 51
4 4704 49
4 4705 39
4 4706 66
4 4707 49
4 4708 133
4 4709 45
4 4710 1
4 4711 33
4 4712 53
4 4714 44
4 4715 381
4 4716 34
4 4717 40
4 4718 69
4 4719 40
4 4720 53
4 4721 41
4 4722 907
4 4723 43
4 4724 40
4 4725 56
4 4726 36
4 4727 43
4 4728 30
4 4729 42
4 4730 32
4 4732 78
4 4733 43
4 4734 296
4 4735 96
4 4736 52
4 4737 36
4 4738 51
4 4739 48
4 4740 118
4 4741 581
4 4742 33
4 4743 33
4 4744 33
4 4745 40
4 4746 44
4 4747 37
4 4748 28
4 4749 22
4 4750 28
4 4751 1
4 4752 27
4 4753 46
4 4754 201
4 4755 78
4 4756 1571
4 4757 59
4 4758 58
4 4759 40
4 4760 46
4 4761 35
4 4762 37
4 4763 46
4 4764 1275
4 4765 43
4 4766 53
4 4767 141
4 4768 18
4 4769 62
4 4770 53
4 4771 31
4 4772 47
4 4773 32
4 4774 54
4 4775 157
4 4776 54
4 4777 41
4 4778 38
4 4779 34
4 4780 43
4 4781 45
4 4782 1346
4 4783 37
4 4785 52
4 4786 81
4 4787 595
4 4788 43
4 4789 39
4 4790 30
4 4791 194
4 4792 64
4 4793 332
4 4794 51
4 4795 36
4 4796 84
4 4797 45
4 4798 49
4 4799 36
4 4800 55
4 4801 30
4 4802 51
4 4803 154
4 4804 671
4 4805 42
4 4806 42
4 4807 130
4 4809 47
4 4810 47
4 4811 2464
4 4812 84
4 4813 192
4 4814 69
4 4815 52
4 4816 56
4 4817 347
4 4818 49
4 4819 864
4 4820 335
4 4821 36
4 4822 27
4 4823 35
4 4824 75
4 4825 42
4 4826 40
4 4827 35
4 4828 36
4 4829 36
4 4830 67
4 4831 57
4 4832 56
4 4833 51
4 4834 32
4 4835 50
4 4836 42
4 4837 45
4 4838 145
4 4839 44
4 4840 41
4 4841 52
4 4842 46
4 4843 32
4 4844 47
4 4845 46
4 4846 75
4 4847 36
4 4848 41
4 4849 74
4 4850 22
4 4851 163
4 4852 106
4 4853 56
4 4854 37
4 4855 40
4 4856 45
4 4857 51
4 4858 41
4 4859 41
4 4860 47
4 4861 52
4 4862 61
4 4863 191
4 4864 40
4 4865 188
4 4866 54
4 4867 72
4 4868 43
4 4869 64
4 4870 161
4 4871 54
4 4872 49
4 4873 36
4 4874 43
4 4875 61
4 4876 47
4 4877 306
4 4878 43
4 4879 45
4 4880 70
4 4881 35
4 4882 43
4 4883 40
4 4884 71
4 4885 43
4 4887 52
4 4888 194
4 4889 30
4 4890 37
4 4891 47
4 4892 49
4 4893 42
4 4894 46
4 4895 163
4 4896 39
4 4897 55
4 4898 35
4 4899 1
4 4900 36
4 4901 40
4 4902 41
4 4903 38
4 4904 30
4 4905 64
4 4906 30
4 4907 1061
4 4908 125
4 4909 66
4 4910 49
4 4911 132
4 4912 22
4 4913 72
4 4914 62
4 4915 42
4 4916 106
4 4917 39
4 4918 36
4 4919 77
4 4920 1199
4 4921 44
4 4922 859
4 4923 1350
4 4924 37
4 4925 105
4 4926 19
4 4927 140
4 4928 26
4 4929 31
4 4930 36
4 4931 53
4 4932 75
4 4933 134
4 4934 116
4 4935 33
4 4936 114
4 4937 40
4 4938 1
4 4939 36
4 4940 51
4 4941 26
4 4942 36
4 4943 735
4 4944 28
4 4945 44
4 4946 38
4 4947 49
4 4949 1234
4 4950 27
4 4951 21
4 4952 41
4 4953 1
4 4954 56
4 4955 91
4 4956 33
4 4957 128
4 4958 91
4 4959 42
4 4960 59
4 4961 39
4 4962 122
4 4963 44
4 4964 52
4 4965 35
4 4966 32
4 4967 38
4 4968 50
4 4969 43
4 4970 44
4 4971 26
4 4972 33
4 4973 25
4 4974 33
4 4975 37
4 4976 29
4 4977 33
4 4978 34
4 4979 48
4 4980 48
4 4981 39
4 4982 39
4 4984 36
4 4985 51
4 4986 25
4 4987 44
4 4989 375
4 4990 884
4 4991 78
4 4992 44
4 4993 32
4 4996 37
4 4997 34
4 4998 93
4 4999 36
4 5000 43
4 5001 81
4 5002 483
4 5003 50
4 5004 52
4 5005 30
4 5006 27
4 5007 42
4 5008 42
4 5009 41
4 5010 28
4 5011 29
4 5012 46
4 5013 135
4 5014 39
4 5015 30
4 5016 45
4 5017 60
4 5018 86
4 5019 43
4 5020 31
4 5021 39
4 5022 74
4 5023 29
4 5024 23
4 5025 35
4 5026 35
4 5027 37
4 5028 38
4 5029 76
4 5030 41
4 5031 29
4 5032 44
4 5033 37
4 5034 43
4 5035 11
4 5036 195
4 5037 35
4 5038 32
4 5039 34
4 5040 33
4 5042 43
4 5043 50
4 5044 35
4 5045 35
4 5046 1057
4 5047 2
4 5048 42
4 5049 64
4 5050 200
4 5051 62
4 5052 34
4 5053 37
4 5054 106
4 5055 12
4 5056 31
4 5057 32
4 5058 45
4 5059 38
4 5060 271
4 5061 28
4 5062 38
4 5063 30
4 5064 36
4 5065 31
4 5066 45
4 5067 89
4 5068 46
4 5069 77
4 5070 6
4 5071 1
4 5072 41
4 5073 106
4 5074 39
4 5075 162
4 5076 122
4 5077 42
4 5078 39
4 5079 75
4 5080 42
4 5081 56
4 5082 3
4 5083 42
4 5084 34
4 5085 96
4 5086 70
4 5087 32
4 5088 34
4 5089 44
4 5090 37
4 5091 1
4 5092 45
4 5093 126
4 5094 48
4 5095 47
4 5096 1
4 5097 51
4 5098 391
4 5099 33
4 5100 77
4 5101 42
4 5102 41
4 5103 36
4 5104 26
4 5105 35
4 5106 26
4 5107 36
4 5108 31
4 5109 46
4 5110 23
4 5111 1067
4 5112 36
4 5113 44
4 5115 31
4 5116 80
4 5117 34
4 5118 41
4 5119 57
4 5120 43
4 5121 30
4 5122 34
4 5123 41
4 5124 215
4 5125 28
4 5126 63
4 5127 40
4 5128 41
4 5129 510
4 5130 43
4 5131 259
4 5132 32
4 5133 37
4 5134 43
4 5135 37
4 5136 24
4 5137 9
4 5139 34
4 5140 27
4 5141 34
4 5142 1
4 5143 32
4 5144 29
4 5145 29
4 5146 44
4 5147 16
4 5148 23
4 5149 21
4 5150 45
4 5152 22
4 5153 23
4 5154 23
4 5155 1
4 5156 24
4 5157 25
4 5158 19
4 5159 33
5 1 38
5 2 16
5 3 29
5 4 29
5 5 81
5 6 93
5 7 28
5 9 15
5 10 17
5 11 13
5 12 15
5 13 20
5 14 15
5 15 13
5 16 6
5 17 24
5 18 27
5 19 10
5 20 23
5 21 66
5 22 16
5 23 13
5 24 18
5 25 71
5 26 25
5 27 28
5 28 12
5 29 15
5 30 13
5 31 15
5 32 12
5 33 19
5 34 21
5 35 17
5 36 22
5 37 20
5 38 12
5 39 20
5 40 15
5 41 12
5 42 48
5 43 18
5 44 20
5 45 21
5 46 23
5 47 19
5 48 8
5 49 871
5 50 33
5 51 15
5 52 15
5 53 130
5 54 26
5 55 17
5 56 18
5 57 27
5 58 18
5 59 26
5 60 8
5 61 49
5 62 11
5 63 15
5 64 19
5 65 24
5 66 15
5 67 17
5 68 1382
5 69 32
5 70 25
5 71 13
5 72 13
5 73 15
5 74 951
5 75 1103
5 76 11
5 77 68
5 78 14
5 79 19
5 80 12
5 81 15
5 82 15
5 83 11
5 84 25
5 86 19
5 87 17
5 88 20
5 89 18
5 90 21
5 91 14
5 93 10
5 94 62
5 95 16
5 96 47
5 97 14
5 98 1
5 99 17
5 100 22
5 101 23
5 102 11
5 103 3
5 104 14
5 105 15
5 106 20
5 107 15
5 108 19
5 109 16
5 110 70
5 111 11
5 112 25
5 113 13
5 114 18
5 115 7
5 116 16
5 117 17
5 118 19
5 119 15
5 120 18
5 121 12
5 122 17
5 123 22
5 124 11
5 125 11
5 126 54
5 127 13
5 128 20
5 129 70
5 130 22
5 131 20
5 133 25
5 134 26
5 135 20
5 136 19
5 137 19
5 138 22
5 139 13
5 140 26
5 141 22
5 142 31
5 143 36
5 144 23
5 145 152
5 146 20
5 147 286
5 148 7
5 149 24
5 150 14
5 151 32
5 152 6
5 153 26
5 154 15
5 155 34
5 156 15
5 157 15
5 158 18
5 159 12
5 160 14
5 161 19
5 162 25
5 163 22
5 164 1
5 165 24
5 166 20
5 167 19
5 168 81
5 169 39
5 170 25
5 171 15
5 172 17
5 173 9
5 175 12
5 176 22
5 177 14
5 178 24
5 179 21
5 180 12
5 181 13
5 182 21
5 183 19
5 184 20
5 185 24
5 186 38
5 187 14
5 188 21
5 189 24
5 190 17
5 191 1
5 192 23
5 193 32
5 194 10
5 196 21
5 197 1
5 198 24
5 199 9
5 200 20
5 201 17
5 202 25
5 204 28
5 205 18
5 206 24
5 207 13
5 208 29
5 209 18
5 210 24
5 211 73
5 212 16
5 213 24
5 214 15
5 215 18
5 216 36
5 217 16
5 218 10
5 219 28
5 220 20
5 221 25
5 222 13
5 223 32
5 224 15
5 225 24
5 226 19
5 227 31
5 228 21
5 229 15
5 230 23
5 231 16
5 232 11
5 233 51
5 234 14
5 235 25
5 236 21
5 237 21
5 238 10
5 239 13
5 240 17
5 241 20
5 242 50
5 243 19
5 244 142
5 245 14
5 246 30
5 247 117
5 248 22
5 249 18
5 250 43
5 251 14
5 252 21
5 253 13
5 254 16
5 256 17
5 258 17
5 259 14
5 260 9
5 261 27
5 262 18
5 263 29
5 264 37
5 265 28
5 266 20
5 267 11
5 268 24
5 269 14
5 270 37
5 271 12
5 272 60
5 273 21
5 274 21
5 275 23
5 276 60
5 277 1
5 278 15
5 279 13
5 280 78
5 281 23
5 282 64
5 283 19
5 284 20
5 285 27
5 286 46
5 287 23
5 288 18
5 289 16
5 290 28
5 291 26
5 292 107
5 293 50
5 294 29
5 295 16
5 296 23
5 297 19
5 298 27
5 299 25
5 300 20
5 301 23
5 302 18
5 303 31
5 304 64
5 305 22
5 306 34
5 307 24
5 308 18
5 309 20
5 310 19
5 311 17
5 312 12
5 313 21
5 314 19
5 315 22
5 316 52
5 317 18
5 318 2
5 319 23
5 321 17
5 322 45
5 323 40
5 324 19
5 325 23
5 326 14
5 327 24
5 328 20
5 329 68
5 330 43
5 331 1071
5 332 16
5 333 20
5 334 22
5 335 20
5 336 31
5 338 27
5 339 13
5 340 15
5 341 30
5 342 29
5 343 9
5 344 50
5 345 21
5 346 24
5 347 31
5 348 14
5 349 13
5 350 41
5 351 63
5 352 16
5 353 25
5 355 12
5 356 65
5 357 18
5 358 15
5 359 14
5 360 16
5 361 24
5 362 22
5 363 11
5 364 13
5 365 33
5 366 29
5 367 28
5 368 186
5 369 26
5 370 24
5 371 19
5 372 20
5 373 4
5 374 17
5 375 13
5 376 20
5 377 19
5 378 21
5 379 20
5 380 19
5 381 7
5 382 18
5 383 16
5 384 13
5 385 22
5 386 22
5 387 46
5 388 13
5 389 16
5 390 19
5 391 23
5 392 24
5 393 19
5 394 30
5 395 16
5 396 22
5 397 150
5 398 25
5 399 31
5 400 19
5 401 203
5 402 20
5 403 19
5 404 18
5 405 14
5 406 29
5 407 49
5 408 17
5 409 61
5 410 21
5 411 24
5 412 64
5 413 15
5 414 193
5 415 12
5 416 98
5 417 35
5 418 2
5 419 14
5 420 1
5 421 32
5 422 25
5 423 12
5 424 148
5 425 14
5 426 26
5 427 15
5 428 13
5 429 17
5 430 24
5 432 20
5 433 16
5 434 10
5 435 31
5 436 130
5 437 19
5 438 18
5 439 168
5 440 11
5 441 15
5 442 14
5 443 49
5 444 19
5 445 55
5 446 14
5 447 25
5 448 17
5 449 18
5 450 24
5 451 43
5 452 13
5 453 19
5 454 15
5 455 15
5 456 21
5 457 34
5 458 30
5 459 12
5 460 34
5 461 40
5 462 29
5 463 26
5 464 23
5 465 27
5 466 8
5 467 25
5 468 18
5 469 37
5 470 27
5 471 21
5 472 16
5 473 18
5 474 16
5 475 20
5 476 24
5 478 43
5 479 16
5 480 7
5 481 17
5 482 31
5 483 21
5 484 23
5 485 16
5 486 21
5 487 19
5 488 20
5 489 19
5 490 28
5 491 18
5 492 31
5 493 10
5 495 25
5 496 1619
5 497 25
5 498 22
5 499 19
5 500 26
5 501 3
5 502 17
5 503 54
5 504 17
5 505 20
5 506 9
5 507 25
5 508 12
5 509 20
5 510 21
5 511 10
5 512 16
5 513 14
5 514 143
5 515 17
5 516 10
5 517 23
5 518 84
5 519 15
5 520 43
5 521 32
5 522 14
5 523 11
5 524 18
5 525 19
5 526 15
5 527 32
5 528 29
5 529 53
5 530 28
5 531 13
5 532 37
5 533 17
5 535 28
5 537 14
5 538 835
5 539 68
5 540 24
5 541 16
5 542 22
5 543 33
5 544 22
5 545 54
5 546 13
5 547 16
5 548 17
5 549 19
5 550 156
5 551 26
5 552 12
5 553 14
5 554 22
5 555 12
5 556 257
5 557 21
5 558 23
5 559 27
5 560 13
5 561 16
5 562 66
5 563 38
5 564 22
5 565 37
5 566 12
5 567 18
5 568 17
5 569 17
5 570 11
5 571 25
5 572 16
5 573 26
5 574 19
5 575 211
5 576 122
5 577 21
5 578 50
5 580 15
5 581 29
5 583 15
5 584 20
5 586 55
5 587 14
5 588 17
5 589 13
5 590 12
5 591 12
5 592 13
5 593 1062
5 594 13
5 595 30
5 596 15
5 597 29
5 598 12
5 599 26
5 600 18
5 601 18
5 602 13
5 603 1
5 604 15
5 605 14
5 606 25
5 607 18
5 608 18
5 609 11
5 610 17
5 611 23
5 612 21
5 613 20
5 614 29
5 615 17
5 616 9
5 617 2
5 619 22
5 620 20
5 621 6
5 622 13
5 623 14
5 624 21
5 625 14
5 626 77
5 627 17
5 628 8
5 629 17
5 630 19
5 631 26
5 632 21
5 633 178
5 634 20
5 635 11
5 636 14
5 637 49
5 638 17
5 639 17
5 640 28
5 641 22
5 642 26
5 643 17
5 644 20
5 645 12
5 646 16
5 647 20
5 648 19
5 649 23
5 650 18
5 651 19
5 652 21
5 653 176
5 654 15
5 655 18
5 656 14
5 657 21
5 658 7
5 659 20
5 660 42
5 661 22
5 662 15
5 663 18
5 664 16
5 665 24
5 666 15
5 667 25
5 668 12
5 669 21
5 670 21
5 671 20
5 672 26
5 673 106
5 674 1518
5 675 18
5 676 54
5 677 22
5 678 83
5 679 15
5 680 21
5 681 14
5 682 16
5 683 15
5 684 13
5 685 15
5 686 17
5 687 30
5 688 21
5 689 31
5 690 15
5 691 17
5 693 15
5 694 10
5 695 21
5 696 14
5 697 14
5 698 22
5 699 60
5 700 16
5 701 22
5 702 12
5 703 15
5 704 13
5 705 19
5 706 20
5 707 16
5 708 17
5 709 24
5 710 44
5 711 54
5 712 9
5 713 7
5 714 10
5 715 10
5 716 8
5 717 8
5 718 8
5 719 5
5 720 10
5 721 22
5 722 3
5 723 7
5 724 4
5 725 4
5 726 5
5 727 3
5 728 27
5 729 19
5 730 28
5 731 41
5 732 82
5 733 20
5 734 20
5 735 15
5 736 34
5 738 27
5 739 14
5 740 13
5 741 24
5 742 13
5 743 22
5 744 740
5 745 14
5 746 18
5 748 11
5 749 15
5 750 20
5 751 21
5 752 2
5 753 21
5 754 15
5 755 21
5 756 15
5 757 33
5 758 33
5 759 37
5 760 20
5 761 27
5 762 15
5 763 22
5 764 28
5 765 40
5 766 19
5 767 17
5 768 86
5 769 89
5 770 18
5 771 92
5 772 142
5 773 95
5 774 29
5 775 24
5 776 14
5 777 23
5 778 17
5 779 31
5 780 16
5 781 20
5 782 17
5 783 8
5 784 6
5 785 23
5 786 77
5 787 15
5 788 51
5 789 15
5 790 24
5 791 19
5 792 18
5 793 170
5 794 26
5 795 21
5 796 17
5 797 23
5 798 39
5 799 12
5 800 19
5 801 15
5 802 11
5 803 14
5 804 18
5 805 19
5 806 15
5 807 18
5 808 9
5 809 512
5 810 16
5 811 16
5 812 19
5 813 100
5 814 40
5 815 27
5 816 234
5 817 234
5 818 45
5 819 17
5 820 725
5 821 539
5 822 19
5 823 16
5 824 907
5 825 28
5 826 6
5 827 28
5 828 8
5 829 11
5 830 16
5 831 27
5 832 11
5 833 17
5 834 13
5 835 44
5 836 16
5 837 8
5 838 997
5 839 13
5 840 22
5 841 19
5 842 1523
5 843 19
5 844 259
5 845 24
5 846 32
5 847 18
5 848 4
5 849 12
5 850 19
5 851 13
5 852 17
5 853 19
5 854 16
5 855 17
5 856 11
5 857 111
5 858 22
5 859 24
5 860 18
5 861 20
5 862 10
5 863 17
5 864 19
5 865 9
5 867 14
5 868 25
5 869 14
5 870 25
5 871 162
5 872 11
5 873 20
5 874 16
5 875 31
5 876 15
5 877 19
5 878 22
5 879 15
5 880 22
5 881 26
5 882 27
5 883 12
5 884 16
5 885 17
5 886 13
5 887 11
5 888 8
5 889 1456
5 890 11
5 892 17
5 893 10
5 894 76
5 895 3
5 896 13
5 897 21
5 898 30
5 899 11
5 900 33
5 901 3
5 902 13
5 904 19
5 905 1
5 906 26
5 907 18
5 908 809
5 909 60
5 910 21
5 911 57
5 912 25
5 913 11
5 914 18
5 915 7
5 916 19
5 917 7
5 918 50
5 919 14
5 920 17
5 921 17
5 922 11
5 923 54
5 924 13
5 925 12
5 926 30
5 927 94
5 928 25
5 929 1107
5 930 19
5 931 11
5 932 16
5 933 18
5 934 24
5 935 21
5 936 607
5 937 9
5 938 27
5 939 20
5 940 24
5 941 11
5 942 1
5 943 14
5 944 23
5 945 15
5 946 59
5 947 35
5 948 10
5 949 17
5 950 404
5 951 35
5 952 88
5 953 16
5 954 54
5 955 16
5 956 34
5 957 13
5 958 16
5 959 84
5 961 12
5 962 49
5 963 31
5 964 2102
5 965 48
5 966 17
5 967 87
5 968 19
5 969 2
5 970 20
5 971 30
5 972 22
5 973 20
5 974 15
5 975 28
5 977 16
5 978 119
5 979 21
5 980 14
5 981 20
5 982 16
5 983 64
5 984 20
5 985 20
5 986 24
5 987 17
5 988 21
5 989 20
5 990 30
5 992 30
5 993 27
5 994 18
5 995 20
5 996 9
5 997 104
5 998 22
5 999 27
5 1000 22
5 1001 22
5 1002 35
5 1003 17
5 1004 22
5 1005 12
5 1006 12
5 1007 19
5 1008 92
5 1009 38
5 1010 16
5 1011 12
5 1012 19
5 1013 25
5 1014 18
5 1015 18
5 1016 20
5 1017 23
5 1018 19
5 1019 17
5 1020 125
5 1022 21
5 1023 19
5 1024 34
5 1025 16
5 1026 1
5 1027 21
5 1028 19
5 1029 13
5 1030 15
5 1031 15
5 1032 24
5 1033 25
5 1034 27
5 1035 18
5 1036 14
5 1037 26
5 1038 130
5 1039 25
5 1040 51
5 1041 11
5 1042 23
5 1043 17
5 1044 25
5 1045 14
5 1046 14
5 1047 22
5 1048 30
5 1049 38
5 1050 24
5 1051 17
5 1052 30
5 1053 15
5 1054 27
5 1055 28
5 1056 21
5 1057 15
5 1058 11
5 1059 19
5 1060 11
5 1061 18
5 1062 19
5 1063 21
5 1064 18
5 1065 12
5 1066 12
5 1067 22
5 1068 1282
5 1069 61
5 1070 11
5 1071 14
5 1072 20
5 1073 5
5 1074 3
5 1075 20
5 1076 19
5 1077 8
5 1079 23
5 1080 14
5 1081 11
5 1082 15
5 1083 15
5 1084 17
5 1085 16
5 1086 82
5 1087 24
5 1088 909
5 1089 510
5 1090 82
5 1091 9
5 1092 10
5 1093 32
5 1094 10
5 1096 15
5 1097 12
5 1098 29
5 1099 241
5 1100 18
5 1101 15
5 1102 15
5 1103 25
5 1104 23
5 1105 15
5 1106 14
5 1107 22
5 1108 8
5 1109 22
5 1110 20
5 1111 18
5 1112 26
5 1113 14
5 1114 8
5 1115 28
5 1116 15
5 1117 18
5 1118 18
5 1119 20
5 1120 23
5 1121 20
5 1122 10
5 1123 9
5 1124 11
5 1125 46
5 1126 17
5 1127 8
5 1128 68
5 1129 235
5 1130 14
5 1131 15
5 1132 6
5 1133 12
5 1134 32
5 1135 12
5 1136 14
5 1137 18
5 1138 13
5 1139 17
5 1140 16
5 1141 9
5 1142 91
5 1143 299
5 1144 7
5 1145 17
5 1146 38
5 1147 12
5 1148 23
5 1149 22
5 1150 18
5 1151 12
5 1152 30
5 1153 20
5 1154 24
5 1155 18
5 1156 24
5 1157 16
5 1158 25
5 1159 58
5 1160 19
5 1162 16
5 1163 14
5 1164 12
5 1165 22
5 1166 18
5 1167 2
5 1168 21
5 1169 13
5 1170 17
5 1171 15
5 1172 28
5 1173 24
5 1174 14
5 1175 27
5 1176 29
5 1177 14
5 1178 1
5 1179 24
5 1180 12
5 1181 14
5 1182 28
5 1183 11
5 1184 19
5 1185 30
5 1186 17
5 1187 23
5 1188 15
5 1189 21
5 1190 27
5 1191 23
5 1192 20
5 1193 558
5 1194 20
5 1195 21
5 1196 42
5 1197 17
5 1198 10
5 1199 15
5 1201 1
5 1204 16
5 1205 19
5 1206 19
5 1207 9
5 1209 17
5 1210 85
5 1211 18
5 1212 1
5 1213 2
5 1214 18
5 1215 17
5 1216 7
5 1217 22
5 1218 11
5 1220 20
5 1221 14
5 1222 72
5 1223 12
5 1224 23
5 1225 143
5 1226 15
5 1227 10
5 1228 20
5 1229 24
5 1230 22
5 1231 1
5 1232 27
5 1233 23
5 1234 20
5 1235 28
5 1236 54
5 1237 20
5 1238 10
5 1239 10
5 1240 16
5 1241 23
5 1242 105
5 1243 30
5 1244 24
5 1245 18
5 1246 17
5 1247 16
5 1248 20
5 1249 18
5 1250 18
5 1251 2
5 1252 16
5 1253 9
5 1254 171
5 1255 21
5 1256 22
5 1257 26
5 1258 9
5 1259 4
5 1260 312
5 1261 26
5 1262 57
5 1263 22
5 1264 82
5 1265 23
5 1266 85
5 1267 21
5 1268 17
5 1269 15
5 1270 781
5 1271 17
5 1272 27
5 1273 19
5 1274 775
5 1275 14
5 1276 19
5 1277 19
5 1278 10
5 1279 29
5 1280 22
5 1281 16
5 1282 17
5 1283 16
5 1284 9
5 1285 45
5 1286 23
5 1287 15
5 1288 13
5 1289 16
5 1290 18
5 1291 32
5 1292 17
5 1293 23
5 1294 13
5 1295 14
5 1296 1
5 1297 26
5 1298 7
5 1299 91
5 1300 57
5 1301 18
5 1302 13
5 1303 1575
5 1304 21
5 1305 104
5 1306 16
5 1307 10
5 1308 52
5 1309 24
5 1310 16
5 1311 14
5 1312 24
5 1313 14
5 1314 33
5 1315 35
5 1316 6
5 1317 115
5 1318 15
5 1319 22
5 1320 45
5 1321 51
5 1322 15
5 1323 19
5 1324 42
5 1325 19
5 1326 1258
5 1327 22
5 1328 29
5 1329 26
5 1330 27
5 1331 19
5 1332 22
5 1333 107
5 1334 28
5 1335 24
5 1336 30
5 1337 19
5 1338 22
5 1339 21
5 1340 13
5 1341 24
5 1342 116
5 1343 19
5 1344 1072
5 1345 13
5 1346 32
5 1347 17
5 1348 19
5 1350 13
5 1351 25
5 1352 19
5 1353 66
5 1354 1
5 1356 9
5 1357 257
5 1358 16
5 1359 11
5 1360 20
5 1361 18
5 1362 20
5 1363 508
5 1364 9
5 1365 49
5 1366 15
5 1367 21
5 1368 17
5 1369 17
5 1370 32
5 1371 23
5 1373 19
5 1374 16
5 1375 23
5 1376 23
5 1377 64
5 1378 26
5 1379 8
5 1380 14
5 1381 1
5 1382 34
5 1383 27
5 1385 17
5 1386 25
5 1387 3
5 1388 15
5 1389 24
5 1390 16
5 1391 16
5 1392 24
5 1393 14
5 1394 17
5 1395 13
5 1396 40
5 1397 37
5 1398 10
5 1399 24
5 1400 35
5 1401 41
5 1402 17
5 1403 11
5 1404 12
5 1405 29
5 1406 20
5 1408 9
5 1409 14
5 1410 26
5 1411 18
5 1412 1
5 1413 23
5 1414 25
5 1415 20
5 1416 16
5 1417 18
5 1418 27
5 1419 759
5 1420 20
5 1421 14
5 1422 15
5 1423 20
5 1424 12
5 1425 16
5 1426 14
5 1427 22
5 1428 14
5 1430 23
5 1431 26
5 1432 6
5 1433 26
5 1434 14
5 1435 985
5 1436 23
5 1437 20
5 1438 27
5 1439 15
5 1440 17
5 1441 20
5 1442 17
5 1443 16
5 1444 20
5 1445 21
5 1446 18
5 1447 10
5 1448 15
5 1449 10
5 1451 26
5 1452 19
5 1453 22
5 1454 15
5 1455 18
5 1456 22
5 1457 13
5 1458 23
5 1459 15
5 1460 94
5 1461 18
5 1462 17
5 1463 17
5 1464 7
5 1465 1
5 1466 77
5 1467 17
5 1468 42
5 1469 23
5 1470 20
5 1471 66
5 1472 14
5 1473 17
5 1474 17
5 1475 23
5 1476 16
5 1477 16
5 1478 16
5 1479 43
5 1480 19
5 1481 21
5 1482 24
5 1483 22
5 1484 14
5 1485 24
5 1486 20
5 1487 12
5 1488 12
5 1489 25
5 1490 1176
5 1491 14
5 1492 25
5 1493 17
5 1494 21
5 1495 989
5 1496 16
5 1497 19
5 1498 22
5 1499 23
5 1500 35
5 1502 10
5 1503 22
5 1504 21
5 1505 20
5 1506 41
5 1507 31
5 1508 51
5 1510 52
5 1511 13
5 1512 35
5 1514 58
5 1515 23
5 1516 14
5 1517 18
5 1518 18
5 1519 224
5 1520 18
5 1521 18
5 1522 27
5 1523 12
5 1524 34
5 1525 10
5 1526 9
5 1527 1040
5 1528 14
5 1529 12
5 1530 16
5 1531 64
5 1532 20
5 1533 25
5 1534 15
5 1535 13
5 1536 26
5 1537 22
5 1538 22
5 1539 242
5 1540 26
5 1541 26
5 1542 94
5 1543 20
5 1544 26
5 1545 41
5 1546 23
5 1547 24
5 1548 17
5 1549 45
5 1550 28
5 1551 8
5 1552 18
5 1553 26
5 1554 22
5 1555 21
5 1556 18
5 1557 12
5 1558 62
5 1560 16
5 1561 21
5 1562 23
5 1563 19
5 1564 68
5 1565 26
5 1566 30
5 1567 21
5 1568 42
5 1569 37
5 1570 16
5 1571 115
5 1572 55
5 1573 9
5 1574 27
5 1575 74
5 1576 17
5 1577 24
5 1578 31
5 1579 18
5 1580 44
5 1581 26
5 1582 24
5 1583 21
5 1584 17
5 1585 76
5 1586 12
5 1587 9
5 1588 100
5 1589 8
5 1590 14
5 1591 19
5 1592 15
5 1593 16
5 1594 30
5 1595 13
5 1596 20
5 1597 122
5 1598 1233
5 1599 25
5 1600 177
5 1601 23
5 1602 118
5 1603 32
5 1605 20
5 1606 121
5 1607 22
5 1608 20
5 1609 16
5 1610 1
5 1611 161
5 1612 22
5 1613 20
5 1614 23
5 1615 34
5 1616 8
5 1617 16
5 1618 21
5 1619 15
5 1620 1
5 1621 23
5 1622 20
5 1623 37
5 1624 19
5 1625 19
5 1626 10
5 1627 13
5 1628 14
5 1629 21
5 1630 24
5 1631 19
5 1632 18
5 1633 15
5 1634 19
5 1635 20
5 1636 29
5 1637 17
5 1638 15
5 1639 24
5 1640 18
5 1641 16
5 1642 20
5 1643 17
5 1644 10
5 1645 41
5 1646 15
5 1647 18
5 1648 70
5 1649 46
5 1650 41
5 1651 22
5 1652 34
5 1653 28
5 1654 21
5 1655 20
5 1656 16
5 1657 20
5 1658 18
5 1659 13
5 1660 15
5 1661 18
5 1662 19
5 1664 26
5 1665 30
5 1666 89
5 1667 23
5 1668 20
5 1669 28
5 1670 21
5 1671 18
5 1672 14
5 1673 16
5 1674 17
5 1675 23
5 1676 11
5 1677 18
5 1678 25
5 1679 24
5 1680 10
5 1681 15
5 1682 28
5 1683 17
5 1684 9
5 1685 147
5 1686 21
5 1687 37
5 1688 26
5 1689 26
5 1690 10
5 1691 19
5 1692 838
5 1693 31
5 1694 13
5 1695 20
5 1696 3
5 1697 17
5 1699 26
5 1700 33
5 1701 20
5 1702 23
5 1703 7
5 1704 12
5 1705 12
5 1706 16
5 1707 33
5 1709 21
5 1710 65
5 1711 32
5 1712 30
5 1713 34
5 1714 17
5 1715 15
5 1716 21
5 1717 52
5 1718 12
5 1719 9
5 1720 17
5 1721 25
5 1722 7
5 1723 20
5 1724 35
5 1725 17
5 1726 27
5 1727 16
5 1728 87
5 1729 17
5 1730 20
5 1731 13
5 1732 16
5 1733 24
5 1734 33
5 1735 3
5 1736 2
5 1737 19
5 1738 62
5 1739 19
5 1740 16
5 1741 22
5 1742 14
5 1743 177
5 1744 23
5 1745 17
5 1746 1
5 1747 24
5 1748 10
5 1749 16
5 1750 15
5 1751 18
5 1752 16
5 1753 23
5 1754 16
5 1755 15
5 1756 32
5 1757 29
5 1758 17
5 1759 14
5 1760 12
5 1761 13
5 1762 13
5 1763 19
5 1764 30
5 1765 15
5 1766 13
5 1767 10
5 1768 15
5 1769 29
5 1770 57
5 1771 26
5 1772 28
5 1773 25
5 1774 29
5 1775 25
5 1777 31
5 1778 10
5 1779 22
5 1780 16
5 1781 16
5 1782 22
5 1783 33
5 1784 21
5 1785 13
5 1786 18
5 1787 27
5 1788 18
5 1789 21
5 1790 10
5 1791 38
5 1792 7
5 1793 1186
5 1794 21
5 1795 7
5 1796 38
5 1797 23
5 1799 13
5 1800 12
5 1801 15
5 1802 23
5 1803 16
5 1804 6
5 1805 1021
5 1806 26
5 1807 21
5 1808 1
5 1809 49
5 1810 22
5 1811 17
5 1812 15
5 1813 18
5 1814 20
5 1815 18
5 1816 15
5 1817 26
5 1818 15
5 1819 21
5 1820 47
5 1821 26
5 1822 17
5 1823 18
5 1824 19
5 1825 31
5 1826 60
5 1827 14
5 1828 20
5 1829 18
5 1830 18
5 1831 22
5 1832 18
5 1833 34
5 1834 17
5 1835 12
5 1836 12
5 1837 47
5 1838 19
5 1839 23
5 1840 41
5 1841 22
5 1842 39
5 1843 15
5 1844 20
5 1845 1
5 1846 16
5 1847 15
5 1848 14
5 1849 20
5 1850 10
5 1851 26
5 1852 112
5 1853 19
5 1854 107
5 1855 26
5 1856 33
5 1857 15
5 1858 25
5 1859 7
5 1861 19
5 1862 10
5 1863 12
5 1864 31
5 1865 14
5 1866 22
5 1867 116
5 1868 16
5 1869 18
5 1870 44
5 1871 14
5 1872 70
5 1874 16
5 1875 15
5 1876 16
5 1877 15
5 1878 51
5 1879 20
5 1880 24
5 1881 13
5 1882 17
5 1883 1
5 1884 157
5 1885 18
5 1886 22
5 1887 22
5 1888 12
5 1889 11
5 1890 36
5 1891 11
5 1892 28
5 1893 16
5 1894 30
5 1895 9
5 1896 26
5 1897 23
5 1898 13
5 1899 2
5 1900 18
5 1901 23
5 1902 21
5 1903 21
5 1904 22
5 1905 22
5 1906 22
5 1907 19
5 1908 9
5 1909 30
5 1910 47
5 1911 17
5 1912 13
5 1913 22
5 1914 22
5 1915 12
5 1916 20
5 1917 17
5 1918 17
5 1919 14
5 1920 25
5 1921 22
5 1922 16
5 1923 33
5 1924 12
5 1925 9
5 1926 29
5 1927 8
5 1928 10
5 1929 15
5 1930 15
5 1931 20
5 1932 17
5 1933 21
5 1934 36
5 1935 22
5 1936 12
5 1937 24
5 1938 12
5 1939 61
5 1940 20
5 1941 18
5 1942 13
5 1943 20
5 1944 145
5 1945 20
5 1946 26
5 1947 21
5 1948 15
5 1949 35
5 1950 23
5 1951 23
5 1952 12
5 1953 33
5 1954 11
5 1955 32
5 1956 55
5 1957 32
5 1960 18
5 1961 23
5 1962 23
5 1963 57
5 1964 21
5 1965 17
5 1966 24
5 1968 25
5 1969 14
5 1970 18
5 1971 20
5 1972 14
5 1973 12
5 1974 28
5 1975 35
5 1976 8
5 1977 16
5 1978 26
5 1979 23
5 1980 14
5 1981 18
5 1982 14
5 1983 22
5 1984 61
5 1985 22
5 1986 26
5 1987 1818
5 1988 22
5 1989 20
5 1990 25
5 1991 24
5 1992 11
5 1993 23
5 1994 20
5 1995 8
5 1996 541
5 1997 59
5 1998 6
5 1999 27
5 2000 28
5 2001 24
5 2002 16
5 2003 24
5 2004 14
5 2005 13
5 2006 19
5 2007 27
5 2008 14
5 2009 116
5 2011 3
5 2012 15
5 2013 15
5 2014 22
5 2015 72
5 2016 21
5 2017 24
5 2018 13
5 2019 14
5 2020 20
5 2021 94
5 2022 11
5 2023 31
5 2024 68
5 2025 15
5 2026 48
5 2027 15
5 2028 110
5 2029 20
5 2030 19
5 2031 28
5 2032 12
5 2033 9
5 2034 19
5 2035 20
5 2036 15
5 2037 11
5 2038 16
5 2039 14
5 2040 17
5 2041 10
5 2042 3
5 2043 31
5 2044 22
5 2045 20
5 2046 20
5 2047 28
5 2048 27
5 2049 20
5 2050 22
5 2051 10
5 2052 84
5 2053 18
5 2054 21
5 2055 27
5 2056 16
5 2057 13
5 2058 25
5 2059 26
5 2060 75
5 2061 10
5 2062 18
5 2063 15
5 2064 12
5 2065 17
5 2066 15
5 2067 30
5 2068 25
5 2069 20
5 2070 686
5 2071 36
5 2072 21
5 2073 15
5 2074 11
5 2075 23
5 2076 1
5 2077 22
5 2078 19
5 2079 18
5 2080 7
5 2081 13
5 2082 23
5 2083 16
5 2084 20
5 2085 15
5 2086 17
5 2087 15
5 2088 67
5 2089 12
5 2090 26
5 2091 20
5 2092 7
5 2093 14
5 2094 22
5 2095 12
5 2096 18
5 2097 14
5 2098 11
5 2100 27
5 2101 10
5 2102 21
5 2103 18
5 2104 10
5 2105 16
5 2106 15
5 2107 18
5 2108 15
5 2109 10
5 2110 22
5 2111 20
5 2112 18
5 2113 16
5 2114 13
5 2116 17
5 2117 24
5 2118 22
5 2119 2
5 2120 27
5 2121 133
5 2122 18
5 2123 20
5 2124 15
5 2125 27
5 2126 23
5 2127 132
5 2128 16
5 2129 20
5 2130 21
5 2131 2
5 2132 18
5 2133 25
5 2134 18
5 2135 181
5 2136 37
5 2137 11
5 2138 67
5 2139 29
5 2140 11
5 2142 74
5 2143 21
5 2144 16
5 2145 15
5 2146 20
5 2147 42
5 2148 23
5 2149 12
5 2150 20
5 2151 107
5 2152 26
5 2153 29
5 2154 17
5 2155 9
5 2156 26
5 2157 134
5 2158 27
5 2159 10
5 2160 14
5 2161 16
5 2162 10
5 2163 14
5 2164 7
5 2165 436
5 2166 8
5 2167 15
5 2168 15
5 2169 19
5 2170 15
5 2171 27
5 2172 25
5 2173 10
5 2174 16
5 2175 12
5 2176 293
5 2177 11
5 2178 12
5 2179 14
5 2180 13
5 2181 27
5 2182 1
5 2184 14
5 2185 800
5 2186 238
5 2187 22
5 2188 41
5 2189 36
5 2191 8
5 2192 16
5 2193 24
5 2194 7
5 2195 37
5 2196 12
5 2197 16
5 2198 21
5 2199 23
5 2200 16
5 2201 34
5 2202 17
5 2203 12
5 2205 12
5 2206 19
5 2207 53
5 2208 14
5 2209 17
5 2210 16
5 2211 23
5 2212 16
5 2213 16
5 2214 18
5 2215 21
5 2216 17
5 2217 50
5 2218 9
5 2219 25
5 2220 24
5 2221 12
5 2226 1
5 2228 3
5 2230 2
5 2233 1
5 2234 1
5 2236 6
5 2237 2
5 2238 3
5 2239 16
5 2240 14
5 2241 9
5 2242 7
5 2243 18
5 2244 7
5 2245 484
5 2246 10
5 2247 8
5 2248 13
5 2249 5
5 2250 20
5 2251 8
5 2252 9
5 2253 708
5 2254 10
5 2255 28
5 2256 23
5 2257 871
5 2258 19
5 2259 17
5 2260 14
5 2261 64
5 2262 17
5 2263 20
5 2264 19
5 2265 51
5 2266 17
5 2267 13
5 2268 22
5 2269 18
5 2270 12
5 2271 8
5 2272 10
5 2273 19
5 2274 20
5 2275 16
5 2276 16
5 2277 14
5 2278 12
5 2279 31
5 2280 41
5 2281 13
5 2282 12
5 2283 17
5 2284 46
5 2285 1
5 2286 19
5 2287 36
5 2288 14
5 2289 16
5 2290 24
5 2291 357
5 2292 47
5 2293 10
5 2294 25
5 2295 14
5 2296 19
5 2297 21
5 2298 16
5 2299 25
5 2300 15
5 2301 15
5 2302 28
5 2303 184
5 2304 21
5 2306 6
5 2307 26
5 2308 13
5 2309 55
5 2310 15
5 2311 18
5 2312 11
5 2313 62
5 2314 28
5 2315 21
5 2317 69
5 2318 19
5 2320 14
5 2321 18
5 2322 13
5 2323 13
5 2324 8
5 2325 21
5 2326 27
5 2327 19
5 2328 24
5 2329 12
5 2330 23
5 2331 20
5 2332 19
5 2333 16
5 2334 41
5 2335 12
5 2336 15
5 2337 23
5 2338 116
5 2339 33
5 2340 15
5 2341 17
5 2342 19
5 2343 23
5 2344 16
5 2345 26
5 2347 2
5 2348 16
5 2349 21
5 2350 14
5 2351 15
5 2352 21
5 2353 40
5 2354 17
5 2355 20
5 2356 15
5 2357 19
5 2358 19
5 2359 21
5 2360 19
5 2361 32
5 2362 16
5 2363 16
5 2364 6
5 2365 10
5 2366 26
5 2367 20
5 2368 16
5 2369 17
5 2370 14
5 2371 14
5 2372 21
5 2373 15
5 2374 17
5 2375 14
5 2376 14
5 2377 18
5 2378 18
5 2379 12
5 2380 11
5 2381 53
5 2382 16
5 2383 24
5 2385 35
5 2386 22
5 2387 23
5 2388 20
5 2390 16
5 2391 17
5 2392 25
5 2393 15
5 2394 11
5 2396 52
5 2397 16
5 2398 16
5 2399 21
5 2400 23
5 2401 30
5 2402 20
5 2403 22
5 2404 27
5 2405 21
5 2406 23
5 2407 17
5 2408 19
5 2409 25
5 2410 56
5 2411 32
5 2412 21
5 2413 21
5 2414 28
5 2415 10
5 2416 31
5 2417 17
5 2418 14
5 2419 18
5 2420 9
5 2421 16
5 2422 92
5 2423 5
5 2424 17
5 2425 11
5 2426 14
5 2427 15
5 2428 31
5 2429 20
5 2430 26
5 2431 22
5 2432 54
5 2433 38
5 2434 41
5 2435 86
5 2436 21
5 2437 11
5 2438 21
5 2439 13
5 2440 15
5 2441 14
5 2442 23
5 2443 20
5 2444 33
5 2445 20
5 2446 22
5 2447 11
5 2448 44
5 2449 13
5 2450 13
5 2451 18
5 2452 24
5 2453 18
5 2454 11
5 2455 17
5 2456 19
5 2457 19
5 2458 16
5 2459 18
5 2460 16
5 2461 24
5 2462 17
5 2463 17
5 2464 16
5 2465 23
5 2466 18
5 2467 12
5 2468 123
5 2469 16
5 2470 12
5 2471 13
5 2473 20
5 2474 15
5 2475 19
5 2476 15
5 2477 12
5 2478 22
5 2479 25
5 2480 12
5 2481 12
5 2482 17
5 2483 19
5 2484 24
5 2485 25
5 2486 16
5 2487 7
5 2488 22
5 2489 22
5 2490 18
5 2491 18
5 2492 17
5 2493 13
5 2494 17
5 2495 17
5 2496 12
5 2497 62
5 2498 10
5 2499 34
5 2500 21
5 2501 20
5 2502 25
5 2503 15
5 2504 57
5 2505 17
5 2506 17
5 2507 26
5 2508 22
5 2509 16
5 2510 14
5 2511 26
5 2512 12
5 2513 22
5 2514 10
5 2515 22
5 2516 741
5 2517 44
5 2518 18
5 2519 28
5 2520 19
5 2521 33
5 2522 80
5 2523 21
5 2524 20
5 2525 22
5 2526 16
5 2527 20
5 2528 40
5 2530 12
5 2531 9
5 2532 9
5 2533 20
5 2534 9
5 2535 36
5 2536 18
5 2537 27
5 2538 18
5 2539 15
5 2540 16
5 2541 24
5 2542 16
5 2543 44
5 2544 23
5 2545 18
5 2546 20
5 2547 14
5 2548 24
5 2549 17
5 2550 21
5 2552 25
5 2553 19
5 2554 23
5 2555 21
5 2556 29
5 2557 28
5 2558 20
5 2559 18
5 2560 28
5 2562 19
5 2563 30
5 2564 18
5 2565 20
5 2566 19
5 2567 30
5 2568 22
5 2569 12
5 2570 28
5 2571 10
5 2572 15
5 2573 20
5 2574 57
5 2575 28
5 2576 4
5 2577 33
5 2578 21
5 2579 22
5 2581 11
5 2582 14
5 2583 26
5 2584 19
5 2585 1
5 2586 35
5 2587 21
5 2588 34
5 2589 12
5 2590 13
5 2591 12
5 2592 16
5 2593 19
5 2594 18
5 2595 29
5 2596 12
5 2597 20
5 2598 15
5 2600 16
5 2601 19
5 2602 11
5 2603 20
5 2604 12
5 2605 18
5 2606 133
5 2607 29
5 2608 38
5 2609 16
5 2610 10
5 2611 17
5 2612 23
5 2613 18
5 2614 12
5 2615 21
5 2616 20
5 2617 25
5 2618 27
5 2619 17
5 2620 111
5 2621 15
5 2622 12
5 2623 16
5 2624 21
5 2625 17
5 2626 29
5 2627 16
5 2628 10
5 2629 44
5 2630 18
5 2631 12
5 2632 10
5 2633 17
5 2634 6
5 2635 7
5 2636 14
5 2637 15
5 2638 21
5 2639 33
5 2640 16
5 2641 11
5 2642 20
5 2643 25
5 2644 80
5 2645 16
5 2646 12
5 2647 8
5 2648 21
5 2649 13
5 2651 690
5 2652 21
5 2653 13
5 2654 15
5 2655 10
5 2656 15
5 2657 18
5 2658 21
5 2659 25
5 2660 12
5 2661 13
5 2662 17
5 2663 13
5 2664 13
5 2665 81
5 2666 24
5 2667 25
5 2668 20
5 2669 15
5 2670 772
5 2671 22
5 2672 97
5 2673 29
5 2674 11
5 2675 320
5 2676 12
5 2677 14
5 2678 13
5 2679 29
5 2680 16
5 2681 1
5 2682 32
5 2683 1
5 2684 21
5 2685 26
5 2686 22
5 2687 16
5 2688 16
5 2689 174
5 2690 15
5 2691 27
5 2692 11
5 2693 21
5 2694 12
5 2695 24
5 2696 17
5 2697 32
5 2698 17
5 2699 5
5 2700 18
5 2701 20
5 2703 4
5 2704 20
5 2705 12
5 2706 12
5 2707 11
5 2708 13
5 2709 11
5 2710 48
5 2711 14
5 2712 18
5 2713 22
5 2714 16
5 2715 162
5 2716 16
5 2717 14
5 2718 15
5 2719 19
5 2721 16
5 2722 155
5 2723 11
5 2724 11
5 2725 16
5 2726 15
5 2727 14
5 2728 47
5 2729 27
5 2730 14
5 2731 16
5 2732 14
5 2733 14
5 2734 11
5 2735 25
5 2737 9
5 2738 16
5 2739 21
5 2740 12
5 2741 35
5 2742 19
5 2743 12
5 2744 8
5 2745 16
5 2746 16
5 2747 25
5 2748 23
5 2749 11
5 2750 2
5 2751 22
5 2752 15
5 2753 25
5 2754 24
5 2755 59
5 2756 53
5 2757 740
5 2758 13
5 2759 3
5 2760 9
5 2761 12
5 2762 9
5 2763 34
5 2764 2
5 2765 1068
5 2766 13
5 2767 20
5 2768 15
5 2769 18
5 2770 15
5 2771 49
5 2772 17
5 2773 16
5 2774 12
5 2775 12
5 2776 12
5 2777 16
5 2778 7
5 2779 9
5 2780 19
5 2781 14
5 2782 11
5 2783 31
5 2784 26
5 2785 11
5 2786 10
5 2787 10
5 2788 15
5 2789 51
5 2790 18
5 2791 16
5 2792 14
5 2793 27
5 2794 9
5 2795 26
5 2796 13
5 2797 12
5 2798 15
5 2799 96
5 2800 11
5 2801 29
5 2802 13
5 2803 15
5 2804 15
5 2805 20
5 2806 18
5 2807 20
5 2808 25
5 2809 15
5 2810 21
5 2811 59
5 2812 52
5 2813 10
5 2814 19
5 2815 17
5 2816 14
5 2817 14
5 2818 9
5 2819 16
5 2820 9
5 2821 20
5 2822 10
5 2823 9
5 2824 10
5 2825 32
5 2826 18
5 2827 17
5 2828 14
5 2829 26
5 2830 38
5 2831 12
5 2832 31
5 2833 18
5 2834 16
5 2835 17
5 2836 18
5 2837 53
5 2838 14
5 2839 13
5 2840 18
5 2841 15
5 2843 11
5 2844 18
5 2845 15
5 2846 7
5 2847 21
5 2848 14
5 2849 23
5 2850 14
5 2851 14
5 2852 13
5 2853 37
5 2854 5
5 2855 10
5 2856 8
5 2857 15
5 2858 318
5 2859 18
5 2861 12
5 2862 11
5 2863 13
5 2864 14
5 2865 12
5 2866 43
5 2867 16
5 2868 16
5 2869 18
5 2870 12
5 2871 14
5 2872 14
5 2873 9
5 2874 13
5 2875 39
5 2876 52
5 2877 15
5 2878 24
5 2879 16
5 2880 104
5 2881 13
5 2882 15
5 2883 10
5 2884 19
5 2885 9
5 2887 9
5 2888 21
5 2889 14
5 2890 11
5 2891 9
5 2892 15
5 2893 14
5 2894 16
5 2895 26
5 2896 18
5 2897 11
5 2898 17
5 2899 15
5 2900 15
5 2901 14
5 2902 23
5 2903 611
5 2904 1
5 2905 12
5 2906 14
5 2907 69
5 2908 2
5 2909 10
5 2910 18
5 2911 19
5 2912 10
5 2913 28
5 2914 34
5 2915 20
5 2916 27
5 2917 24
5 2918 89
5 2919 15
5 2920 14
5 2921 15
5 2923 12
5 2924 11
5 2925 15
5 2926 12
5 2927 15
5 2928 10
5 2929 14
5 2930 41
5 2931 14
5 2932 33
5 2933 12
5 2934 15
5 2935 28
5 2936 30
5 2937 17
5 2938 14
5 2939 9
5 2940 11
5 2941 17
5 2942 16
5 2943 24
5 2944 11
5 2945 17
5 2946 17
5 2947 13
5 2948 21
5 2949 11
5 2950 13
5 2951 15
5 2952 23
5 2953 13
5 2954 13
5 2955 20
5 2956 17
5 2957 12
5 2958 9
5 2959 14
5 2960 11
5 2961 13
5 2962 69
5 2963 69
5 2964 11
5 2965 17
5 2966 47
5 2967 13
5 2968 11
5 2969 13
5 2970 33
5 2971 10
5 2972 18
5 2973 7
5 2974 15
5 2975 21
5 2976 78
5 2977 16
5 2978 13
5 2979 60
5 2980 5
5 2981 17
5 2982 10
5 2983 12
5 2984 13
5 2985 41
5 2986 20
5 2987 28
5 2988 27
5 2989 9
5 2990 11
5 2991 12
5 2992 68
5 2993 13
5 2994 14
5 2995 11
5 2996 10
5 2997 16
5 2998 1
5 2999 15
5 3000 32
5 3001 15
5 3003 18
5 3004 32
5 3005 9
5 3006 9
5 3008 14
5 3009 23
5 3010 15
5 3011 10
5 3012 9
5 3013 1
5 3014 73
5 3015 11
5 3016 12
5 3017 51
5 3018 14
5 3019 73
5 3020 1
5 3021 32
5 3022 16
5 3023 22
5 3024 14
5 3025 20
5 3026 8
5 3027 12
5 3028 12
5 3029 18
5 3030 11
5 3031 10
5 3032 20
5 3033 13
5 3034 19
5 3035 11
5 3036 12
5 3037 24
5 3038 29
5 3039 131
5 3040 26
5 3041 49
5 3042 32
5 3043 18
5 3044 11
5 3045 13
5 3046 12
5 3047 19
5 3048 18
5 3049 1085
5 3050 18
5 3051 11
5 3052 21
5 3053 72
5 3054 15
5 3055 21
5 3056 8
5 3057 836
5 3058 71
5 3059 20
5 3060 10
5 3061 8
5 3062 12
5 3063 2
5 3064 14
5 3065 15
5 3066 12
5 3067 12
5 3068 10
5 3069 15
5 3070 803
5 3071 9
5 3072 8
5 3073 26
5 3074 14
5 3075 9
5 3076 18
5 3077 14
5 3078 29
5 3079 32
5 3080 15
5 3081 61
5 3082 2
5 3083 8
5 3084 29
5 3085 5
5 3086 1
5 3087 17
5 3088 17
5 3089 28
5 3090 12
5 3091 12
5 3092 300
5 3093 93
5 3094 16
5 3095 455
5 3096 19
5 3097 6
5 3098 2
5 3099 20
5 3100 15
5 3101 9
5 3102 16
5 3103 14
5 3104 13
5 3105 93
5 3106 10
5 3107 12
5 3108 11
5 3109 12
5 3110 9
5 3111 8
5 3112 11
5 3113 27
5 3114 16
5 3115 16
5 3116 25
5 3117 19
5 3118 19
5 3119 11
5 3120 21
5 3121 11
5 3122 18
5 3123 7
5 3124 20
5 3125 48
5 3126 11
5 3127 80
5 3128 21
5 3129 3
5 3130 13
5 3131 18
5 3132 8
5 3133 15
5 3134 2
5 3135 16
5 3136 26
5 3137 11
5 3138 17
5 3139 13
5 3140 16
5 3141 23
5 3142 15
5 3143 21
5 3144 10
5 3145 10
5 3146 21
5 3147 11
5 3148 11
5 3149 26
5 3150 14
5 3151 10
5 3152 18
5 3153 8
5 3154 629
5 3155 9
5 3156 13
5 3157 11
5 3158 15
5 3159 13
5 3160 33
5 3161 11
5 3162 11
5 3163 8
5 3165 68
5 3166 14
5 3167 15
5 3168 538
5 3169 21
5 3170 20
5 3171 16
5 3172 12
5 3173 10
5 3174 12
5 3175 16
5 3176 1084
5 3177 10
5 3178 11
5 3180 17
5 3181 15
5 3182 19
5 3183 9
5 3184 10
5 3185 17
5 3186 19
5 3187 14
5 3188 34
5 3189 22
5 3190 16
5 3191 23
5 3192 227
5 3193 22
5 3194 21
5 3195 22
5 3196 22
5 3197 15
5 3198 17
5 3199 12
5 3200 34
5 3201 8
5 3202 17
5 3203 11
5 3204 6
5 3205 17
5 3206 12
5 3207 27
5 3208 17
5 3209 10
5 3210 11
5 3211 10
5 3212 14
5 3213 88
5 3214 16
5 3215 28
5 3216 14
5 3217 21
5 3218 9
5 3219 40
5 3220 15
5 3221 8
5 3222 15
5 3223 11
5 3224 58
5 3225 14
5 3226 11
5 3227 62
5 3228 10
5 3229 17
5 3230 15
5 3231 12
5 3232 20
5 3233 17
5 3234 14
5 3235 1
5 3236 95
5 3237 25
5 3238 6
5 3239 73
5 3240 15
5 3241 20
5 3242 29
5 3243 33
5 3244 15
5 3245 15
5 3246 21
5 3247 15
5 3248 11
5 3249 12
5 3250 10
5 3251 59
5 3252 17
5 3253 12
5 3254 21
5 3255 17
5 3256 11
5 3257 14
5 3258 15
5 3259 50
5 3260 40
5 3261 25
5 3262 23
5 3263 16
5 3264 10
5 3265 14
5 3266 11
5 3267 40
5 3268 21
5 3269 13
5 3270 12
5 3271 11
5 3272 36
5 3273 27
5 3274 14
5 3275 9
5 3276 10
5 3277 16
5 3278 14
5 3279 15
5 3281 14
5 3282 7
5 3283 10
5 3284 7
5 3285 28
5 3286 11
5 3287 8
5 3288 28
5 3289 108
5 3290 11
5 3291 15
5 3292 10
5 3293 43
5 3294 11
5 3295 17
5 3296 19
5 3297 26
5 3298 14
5 3299 18
5 3300 15
5 3302 13
5 3303 12
5 3304 7
5 3305 13
5 3306 13
5 3307 8
5 3308 8
5 3310 236
5 3311 18
5 3312 20
5 3313 15
5 3314 10
5 3315 15
5 3316 15
5 3317 19
5 3319 18
5 3320 43
5 3321 17
5 3322 23
5 3323 26
5 3324 21
5 3325 812
5 3326 12
5 3327 13
5 3328 9
5 3329 12
5 3330 1
5 3331 13
5 3332 10
5 3333 16
5 3334 23
5 3335 20
5 3336 16
5 3337 18
5 3338 18
5 3339 9
5 3340 17
5 3341 14
5 3342 14
5 3343 7
5 3344 23
5 3345 19
5 3346 8
5 3347 10
5 3348 16
5 3349 14
5 3350 25
5 3351 15
5 3352 10
5 3353 22
5 3354 23
5 3355 12
5 3356 22
5 3357 15
5 3358 12
5 3359 16
5 3360 16
5 3361 7
5 3362 25
5 3363 14
5 3364 6
5 3365 24
5 3366 12
5 3367 7
5 3368 12
5 3369 9
5 3370 11
5 3371 7
5 3372 15
5 3373 18
5 3374 13
5 3375 11
5 3376 6
5 3377 19
5 3378 14
5 3379 13
5 3380 10
5 3381 25
5 3382 55
5 3383 16
5 3384 19
5 3385 11
5 3386 17
5 3387 42
5 3388 16
5 3389 12
5 3390 9
5 3391 18
5 3392 17
5 3393 21
5 3394 17
5 3395 12
5 3396 15
5 3397 15
5 3398 13
5 3399 14
5 3400 13
5 3401 16
5 3402 19
5 3403 29
5 3404 44
5 3405 187
5 3406 2
5 3407 17
5 3408 19
5 3409 23
5 3410 9
5 3411 10
5 3413 12
5 3414 10
5 3415 16
5 3416 36
5 3417 34
5 3418 7
5 3419 9
5 3420 15
5 3421 22
5 3422 26
5 3423 23
5 3424 19
5 3425 20
5 3426 12
5 3427 15
5 3428 10
5 3429 37
5 3430 16
5 3431 88
5 3432 231
5 3433 14
5 3434 25
5 3435 18
5 3436 12
5 3437 31
5 3438 72
5 3439 13
5 3440 12
5 3441 16
5 3442 47
5 3443 16
5 3444 35
5 3445 14
5 3446 8
5 3447 23
5 3448 28
5 3449 90
5 3450 16
5 3451 23
5 3452 17
5 3453 121
5 3454 15
5 3455 35
5 3456 1
5 3457 16
5 3458 11
5 3459 22
5 3460 12
5 3461 5
5 3462 16
5 3463 21
5 3464 12
5 3465 9
5 3466 16
5 3467 13
5 3468 20
5 3469 21
5 3470 81
5 3471 16
5 3472 9
5 3473 14
5 3474 15
5 3475 20
5 3476 17
5 3477 15
5 3478 10
5 3479 468
5 3481 144
5 3482 17
5 3483 19
5 3484 16
5 3485 23
5 3486 26
5 3487 12
5 3488 1
5 3489 28
5 3490 14
5 3491 12
5 3492 7
5 3493 17
5 3494 14
5 3495 26
5 3496 26
5 3497 20
5 3498 7
5 3499 9
5 3500 25
5 3501 15
5 3502 16
5 3503 13
5 3504 11
5 3505 1
5 3506 2
5 3507 10
5 3508 26
5 3509 18
5 3510 8
5 3511 9
5 3512 9
5 3513 9
5 3514 7
5 3515 5
5 3516 18
5 3517 10
5 3518 141
5 3519 21
5 3520 12
5 3521 16
5 3522 13
5 3523 14
5 3524 10
5 3525 18
5 3526 39
5 3527 12
5 3528 12
5 3529 1
5 3530 14
5 3531 12
5 3532 16
5 3533 15
5 3534 18
5 3535 14
5 3536 15
5 3537 12
5 3538 155
5 3539 14
5 3540 26
5 3542 25
5 3543 16
5 3544 12
5 3545 14
5 3546 11
5 3547 14
5 3548 1421
5 3549 13
5 3550 15
5 3552 11
5 3553 23
5 3554 16
5 3555 14
5 3556 11
5 3557 16
5 3558 13
5 3559 13
5 3560 13
5 3561 16
5 3562 11
5 3563 116
5 3564 13
5 3565 7
5 3566 399
5 3567 21
5 3568 25
5 3569 22
5 3570 15
5 3571 24
5 3572 25
5 3573 18
5 3574 16
5 3575 26
5 3576 7
5 3577 10
5 3578 7
5 3579 6
5 3580 12
5 3581 23
5 3582 15
5 3583 19
5 3584 403
5 3585 1
5 3586 12
5 3587 37
5 3588 17
5 3589 20
5 3590 15
5 3591 45
5 3592 33
5 3593 20
5 3594 18
5 3595 10
5 3596 14
5 3597 15
5 3598 9
5 3599 17
5 3600 15
5 3601 20
5 3602 27
5 3603 26
5 3604 18
5 3605 12
5 3606 25
5 3607 13
5 3608 16
5 3609 125
5 3610 18
5 3611 17
5 3612 26
5 3613 13
5 3614 7
5 3615 22
5 3616 10
5 3617 11
5 3618 16
5 3619 8
5 3620 21
5 3621 8
5 3622 13
5 3623 11
5 3624 15
5 3625 18
5 3626 7
5 3627 10
5 3628 20
5 3629 16
5 3630 13
5 3631 121
5 3632 27
5 3633 50
5 3634 18
5 3635 16
5 3636 15
5 3637 13
5 3638 17
5 3639 14
5 3640 35
5 3641 17
5 3642 39
5 3643 19
5 3644 15
5 3645 25
5 3646 31
5 3647 21
5 3648 18
5 3649 12
5 3650 11
5 3651 11
5 3652 55
5 3653 117
5 3654 14
5 3655 19
5 3656 83
5 3657 5
5 3658 15
5 3659 50
5 3660 15
5 3661 11
5 3662 13
5 3663 12
5 3664 14
5 3665 9
5 3666 13
5 3667 25
5 3668 7
5 3669 10
5 3670 6
5 3671 22
5 3672 7
5 3673 12
5 3674 16
5 3675 11
5 3676 9
5 3677 11
5 3678 323
5 3679 9
5 3680 16
5 3681 21
5 3682 18
5 3683 60
5 3684 11
5 3685 1
5 3686 14
5 3687 6
5 3688 13
5 3689 4
5 3690 7
5 3691 28
5 3692 18
5 3693 5
5 3694 14
5 3695 7
5 3696 7
5 3697 8
5 3698 10
5 3699 13
5 3700 17
5 3701 13
5 3702 1
5 3703 10
5 3704 6
5 3705 20
5 3706 9
5 3707 66
5 3708 7
5 3709 14
5 3710 13
5 3711 13
5 3712 10
5 3713 7
5 3714 40
5 3715 11
5 3716 379
5 3717 13
5 3718 13
5 3719 8
5 3720 21
5 3721 15
5 3722 10
5 3723 6
5 3724 12
5 3725 16
5 3726 14
5 3727 24
5 3728 11
5 3729 10
5 3730 1007
5 3731 12
5 3732 10
5 3733 46
5 3734 12
5 3735 13
5 3736 7
5 3737 38
5 3738 8
5 3739 16
5 3740 6
5 3741 11
5 3742 7
5 3743 40
5 3744 6
5 3745 39
5 3746 2
5 3747 265
5 3748 10
5 3749 2
5 3750 70
5 3751 44
5 3752 23
5 3753 8
5 3754 23
5 3755 17
5 3756 11
5 3757 14
5 3758 21
5 3759 4
5 3761 17
5 3762 10
5 3763 11
5 3764 10
5 3765 11
5 3766 8
5 3767 1
5 3768 19
5 3769 10
5 3770 12
5 3771 9
5 3772 7
5 3773 10
5 3774 63
5 3775 12
5 3776 4
5 3777 10
5 3778 16
5 3779 9
5 3780 10
5 3781 12
5 3782 17
5 3783 8
5 3784 26
5 3785 10
5 3786 16
5 3787 6
5 3788 8
5 3789 1
5 3790 5
5 3791 7
5 3792 16
5 3793 14
5 3794 72
5 3795 9
5 3796 14
5 3797 13
5 3798 9
5 3799 15
5 3800 19
5 3801 99
5 3802 30
5 3803 14
5 3804 11
5 3805 40
5 3806 7
5 3807 13
5 3808 11
5 3809 5
5 3810 15
5 3812 6
5 3813 6
5 3814 12
5 3815 3
5 3816 770
5 3817 9
5 3818 17
5 3819 14
5 3820 8
5 3821 12
5 3822 14
5 3823 11
5 3824 14
5 3825 14
5 3826 44
5 3827 8
5 3828 36
5 3829 14
5 3830 21
5 3831 14
5 3832 16
5 3833 1
5 3834 2
5 3835 3
5 3836 7
5 3837 41
5 3838 10
5 3839 81
5 3840 11
5 3841 15
5 3842 14
5 3843 8
5 3845 10
5 3846 6
5 3847 56
5 3848 9
5 3849 8
5 3850 34
5 3851 12
5 3852 5
5 3853 14
5 3854 9
5 3855 14
5 3856 14
5 3857 11
5 3859 10
5 3861 6
5 3862 13
5 3863 13
5 3864 5
5 3865 105
5 3866 9
5 3867 12
5 3869 13
5 3870 13
5 3871 10
5 3872 13
5 3873 9
5 3874 11
5 3875 69
5 3876 10
5 3877 5
5 3878 10
5 3879 17
5 3880 21
5 3881 8
5 3882 13
5 3883 18
5 3884 19
5 3885 9
5 3886 10
5 3887 16
5 3888 11
5 3889 12
5 3890 18
5 3891 10
5 3892 13
5 3893 8
5 3894 8
5 3895 19
5 3896 9
5 3897 14
5 3898 14
5 3899 11
5 3900 11
5 3901 11
5 3902 13
5 3903 12
5 3904 13
5 3905 9
5 3906 8
5 3907 6
5 3908 18
5 3909 25
5 3910 13
5 3911 18
5 3912 21
5 3913 6
5 3914 11
5 3915 17
5 3916 8
5 3917 12
5 3918 9
5 3919 12
5 3920 8
5 3921 125
5 3922 14
5 3923 8
5 3924 11
5 3925 5
5 3926 44
5 3927 13
5 3928 16
5 3929 11
5 3930 6
5 3931 15
5 3932 8
5 3933 2
5 3934 19
5 3935 2
5 3936 12
5 3937 24
5 3938 8
5 3939 10
5 3940 41
5 3941 10
5 3942 11
5 3943 326
5 3944 8
5 3945 6
5 3946 11
5 3947 7
5 3948 10
5 3949 20
5 3950 12
5 3951 10
5 3952 10
5 3953 10
5 3954 22
5 3955 17
5 3956 25
5 3957 18
5 3958 7
5 3959 500
5 3960 18
5 3961 11
5 3962 13
5 3963 6
5 3964 18
5 3965 12
5 3966 33
5 3967 13
5 3968 3
5 3969 11
5 3970 12
5 3972 11
5 3973 10
5 3974 6
5 3975 14
5 3976 119
5 3977 6
5 3978 22
5 3979 8
5 3980 10
5 3981 11
5 3982 5
5 3983 13
5 3984 16
5 3985 5
5 3987 14
5 3988 12
5 3989 12
5 3990 8
5 3991 8
5 3992 15
5 3993 31
5 3994 8
5 3995 11
5 3996 9
5 3997 46
5 3998 27
5 3999 10
5 4000 12
5 4001 15
5 4002 6
5 4003 11
5 4004 8
5 4005 8
5 4006 9
5 4007 2
5 4008 12
5 4009 4
5 4010 7
5 4011 7
5 4012 10
5 4013 6
5 4014 11
5 4015 7
5 4016 3
5 4017 13
5 4018 16
5 4019 23
5 4020 17
5 4021 32
5 4022 16
5 4023 15
5 4024 18
5 4025 13
5 4027 9
5 4028 13
5 4029 15
5 4030 15
5 4031 61
5 4032 15
5 4033 14
5 4034 17
5 4035 11
5 4036 29
5 4037 21
5 4038 19
5 4039 13
5 4040 16
5 4041 22
5 4042 11
5 4043 9
5 4044 13
5 4045 37
5 4046 19
5 4047 37
5 4048 39
5 4049 20
5 4050 17
5 4051 87
5 4052 10
5 4053 15
5 4054 23
5 4055 17
5 4056 5
5 4057 16
5 4058 28
5 4059 24
5 4060 20
5 4061 168
5 4062 20
5 4063 23
5 4064 16
5 4065 21
5 4066 41
5 4068 20
5 4069 12
5 4070 19
5 4071 17
5 4072 762
5 4074 1491
5 4075 25
5 4076 182
5 4077 18
5 4078 22
5 4079 12
5 4080 20
5 4081 21
5 4082 18
5 4084 2
5 4085 16
5 4086 14
5 4087 14
5 4088 18
5 4089 14
5 4090 9
5 4091 18
5 4092 18
5 4093 37
5 4094 18
5 4095 14
5 4096 20
5 4097 17
5 4098 2233
5 4099 20
5 4100 13
5 4101 19
5 4102 15
5 4103 11
5 4104 88
5 4105 23
5 4106 18
5 4107 40
5 4108 20
5 4109 21
5 4110 22
5 4111 16
5 4112 13
5 4113 13
5 4114 17
5 4115 15
5 4116 22
5 4117 14
5 4119 15
5 4120 35
5 4121 17
5 4122 26
5 4123 29
5 4124 15
5 4125 54
5 4126 136
5 4127 17
5 4128 73
5 4129 14
5 4130 14
5 4131 14
5 4132 14
5 4133 18
5 4134 17
5 4135 20
5 4136 284
5 4137 24
5 4138 20
5 4139 17
5 4140 1
5 4141 14
5 4142 30
5 4143 31
5 4144 21
5 4145 11
5 4146 27
5 4147 15
5 4148 32
5 4149 37
5 4150 118
5 4151 1
5 4152 16
5 4153 19
5 4154 17
5 4155 147
5 4156 16
5 4157 11
5 4158 13
5 4159 36
5 4160 17
5 4161 9
5 4162 15
5 4163 14
5 4164 10
5 4165 14
5 4166 18
5 4167 19
5 4168 18
5 4169 18
5 4170 16
5 4171 22
5 4172 14
5 4173 19
5 4174 8
5 4175 32
5 4176 14
5 4177 17
5 4178 628
5 4179 16
5 4180 11
5 4181 13
5 4182 37
5 4183 540
5 4184 14
5 4185 10
5 4186 19
5 4187 7
5 4188 14
5 4189 15
5 4190 9
5 4191 21
5 4192 18
5 4193 14
5 4194 5
5 4195 22
5 4196 8
5 4197 18
5 4198 13
5 4199 25
5 4200 18
5 4201 36
5 4202 45
5 4203 34
5 4204 14
5 4205 23
5 4206 66
5 4207 104
5 4208 13
5 4209 21
5 4210 31
5 4211 17
5 4212 14
5 4213 20
5 4214 28
5 4215 15
5 4216 20
5 4217 54
5 4218 13
5 4219 16
5 4220 20
5 4221 14
5 4222 7
5 4223 20
5 4224 130
5 4225 28
5 4226 16
5 4227 14
5 4228 16
5 4229 42
5 4230 11
5 4231 13
5 4232 13
5 4233 24
5 4234 39
5 4235 15
5 4236 17
5 4237 24
5 4238 16
5 4239 14
5 4240 15
5 4241 2
5 4242 9
5 4243 13
5 4244 43
5 4245 27
5 4246 15
5 4247 28
5 4248 16
5 4249 8
5 4250 1
5 4251 22
5 4252 7
5 4253 24
5 4254 26
5 4255 7
5 4257 22
5 4258 14
5 4259 42
5 4260 58
5 4261 24
5 4262 11
5 4263 19
5 4264 53
5 4265 32
5 4266 38
5 4267 26
5 4268 29
5 4269 14
5 4270 18
5 4271 11
5 4272 15
5 4273 20
5 4274 15
5 4275 14
5 4276 32
5 4277 12
5 4278 11
5 4279 13
5 4280 17
5 4281 26
5 4282 14
5 4283 40
5 4285 26
5 4286 17
5 4287 17
5 4288 11
5 4289 12
5 4290 20
5 4291 134
5 4292 20
5 4293 11
5 4294 28
5 4295 12
5 4296 14
5 4297 18
5 4298 19
5 4299 19
5 4300 26
5 4301 16
5 4302 20
5 4303 56
5 4305 32
5 4306 24
5 4307 67
5 4308 991
5 4309 58
5 4310 20
5 4311 31
5 4312 372
5 4313 54
5 4314 1
5 4315 78
5 4316 11
5 4317 2
5 4318 19
5 4319 15
5 4320 17
5 4321 13
5 4322 7
5 4323 10
5 4324 24
5 4325 21
5 4326 14
5 4327 14
5 4328 12
5 4329 10
5 4331 16
5 4332 16
5 4333 20
5 4334 139
5 4335 46
5 4336 11
5 4338 20
5 4339 36
5 4340 16
5 4341 19
5 4342 23
5 4343 21
5 4344 25
5 4345 22
5 4346 11
5 4347 19
5 4348 19
5 4349 19
5 4350 19
5 4351 14
5 4352 23
5 4353 24
5 4354 34
5 4355 12
5 4356 10
5 4357 13
5 4358 18
5 4359 24
5 4360 20
5 4361 12
5 4362 82
5 4363 33
5 4364 16
5 4365 17
5 4366 20
5 4367 21
5 4368 11
5 4369 14
5 4370 37
5 4371 6
5 4372 22
5 4373 46
5 4374 32
5 4375 94
5 4376 82
5 4377 8
5 4378 33
5 4379 15
5 4380 10
5 4381 29
5 4382 12
5 4383 9
5 4384 19
5 4385 13
5 4386 40
5 4387 10
5 4388 15
5 4389 19
5 4390 25
5 4391 18
5 4392 23
5 4393 21
5 4394 42
5 4395 38
5 4396 44
5 4397 19
5 4398 19
5 4399 39
5 4400 75
5 4401 20
5 4402 15
5 4403 16
5 4404 22
5 4406 17
5 4407 16
5 4408 14
5 4409 18
5 4410 57
5 4411 4
5 4413 17
5 4415 16
5 4416 30
5 4417 10
5 4418 9
5 4419 14
5 4420 14
5 4421 7
5 4422 16
5 4423 20
5 4424 12
5 4425 17
5 4426 148
5 4427 526
5 4428 19
5 4429 16
5 4430 93
5 4431 18
5 4432 17
5 4433 37
5 4434 8
5 4435 12
5 4436 18
5 4437 10
5 4438 10
5 4439 28
5 4440 18
5 4441 16
5 4442 28
5 4443 29
5 4444 18
5 4445 16
5 4446 17
5 4447 20
5 4448 21
5 4449 16
5 4450 23
5 4451 14
5 4452 24
5 4453 12
5 4454 15
5 4455 22
5 4456 15
5 4457 13
5 4458 89
5 4459 5
5 4460 17
5 4462 22
5 4463 15
5 4464 55
5 4465 1
5 4466 18
5 4467 35
5 4468 23
5 4469 22
5 4470 19
5 4471 10
5 4472 20
5 4473 75
5 4474 18
5 4475 15
5 4476 18
5 4477 7
5 4478 20
5 4479 13
5 4480 27
5 4481 16
5 4482 19
5 4483 30
5 4484 12
5 4485 6
5 4486 17
5 4487 26
5 4488 17
5 4489 26
5 4490 9
5 4491 12
5 4492 16
5 4493 13
5 4494 67
5 4495 12
5 4496 62
5 4497 18
5 4498 24
5 4499 8
5 4500 15
5 4501 12
5 4502 8
5 4503 9
5 4504 18
5 4505 14
5 4506 25
5 4507 13
5 4508 26
5 4509 5
5 4510 14
5 4511 8
5 4512 25
5 4513 22
5 4514 18
5 4515 25
5 4516 11
5 4517 55
5 4518 12
5 4519 12
5 4520 18
5 4521 13
5 4522 26
5 4523 17
5 4524 19
5 4525 16
5 4526 71
5 4527 28
5 4528 14
5 4529 15
5 4530 17
5 4531 28
5 4532 12
5 4533 16
5 4534 20
5 4536 16
5 4537 41
5 4538 18
5 4539 132
5 4540 11
5 4541 21
5 4542 48
5 4543 24
5 4544 49
5 4545 15
5 4546 7
5 4547 167
5 4548 19
5 4549 18
5 4550 9
5 4551 19
5 4552 9
5 4553 20
5 4554 26
5 4555 12
5 4556 13
5 4557 21
5 4558 23
5 4559 9
5 4560 13
5 4561 21
5 4562 217
5 4563 18
5 4564 7
5 4565 71
5 4566 13
5 4567 15
5 4568 12
5 4569 32
5 4570 22
5 4571 12
5 4572 13
5 4573 25
5 4574 24
5 4575 16
5 4576 27
5 4577 3
5 4578 20
5 4579 115
5 4580 10
5 4581 2
5 4582 13
5 4583 191
5 4584 11
5 4585 18
5 4586 27
5 4587 13
5 4588 16
5 4589 20
5 4590 18
5 4591 13
5 4592 17
5 4593 26
5 4594 11
5 4595 14
5 4596 18
5 4597 20
5 4598 13
5 4599 17
5 4600 15
5 4601 17
5 4602 30
5 4603 16
5 4604 15
5 4605 8
5 4606 20
5 4607 22
5 4608 11
5 4609 813
5 4610 29
5 4611 27
5 4612 18
5 4613 22
5 4614 17
5 4615 19
5 4616 23
5 4617 29
5 4618 11
5 4619 11
5 4620 29
5 4621 25
5 4622 1
5 4623 14
5 4624 20
5 4625 24
5 4626 9
5 4627 75
5 4628 17
5 4629 22
5 4630 28
5 4631 17
5 4632 16
5 4633 36
5 4634 33
5 4635 21
5 4636 22
5 4637 10
5 4638 17
5 4639 24
5 4640 16
5 4641 14
5 4642 20
5 4643 19
5 4644 16
5 4645 22
5 4646 275
5 4647 17
5 4648 30
5 4650 20
5 4651 1
5 4652 5
5 4653 19
5 4654 12
5 4655 19
5 4656 20
5 4657 64
5 4658 23
5 4659 26
5 4660 13
5 4661 18
5 4662 26
5 4663 22
5 4664 77
5 4665 20
5 4666 883
5 4667 14
5 4668 24
5 4669 16
5 4670 16
5 4671 11
5 4672 27
5 4673 21
5 4674 26
5 4675 24
5 4676 18
5 4677 809
5 4678 21
5 4679 19
5 4680 15
5 4681 15
5 4683 41
5 4684 12
5 4685 2
5 4686 22
5 4687 14
5 4688 19
5 4689 23
5 4690 17
5 4691 16
5 4692 22
5 4693 11
5 4694 10
5 4695 4
5 4696 32
5 4697 39
5 4698 89
5 4699 47
5 4701 1
5 4702 16
5 4703 27
5 4704 18
5 4705 15
5 4706 1036
5 4707 11
5 4708 51
5 4709 26
5 4711 11
5 4712 18
5 4714 15
5 4715 66
5 4716 20
5 4717 10
5 4718 26
5 4719 7
5 4720 29
5 4721 56
5 4722 16
5 4723 19
5 4724 19
5 4725 20
5 4726 17
5 4727 14
5 4728 11
5 4729 15
5 4730 21
5 4731 1
5 4732 54
5 4733 13
5 4734 13
5 4735 14
5 4736 21
5 4737 22
5 4738 21
5 4739 21
5 4740 20
5 4741 20
5 4742 15
5 4743 22
5 4744 13
5 4745 21
5 4746 22
5 4747 17
5 4748 15
5 4749 6
5 4750 18
5 4752 12
5 4753 13
5 4754 19
5 4755 23
5 4756 18
5 4757 22
5 4758 13
5 4759 21
5 4760 92
5 4761 19
5 4762 19
5 4763 17
5 4764 17
5 4765 15
5 4766 252
5 4767 57
5 4768 11
5 4769 27
5 4770 215
5 4771 14
5 4772 27
5 4773 49
5 4774 31
5 4775 42
5 4776 1008
5 4777 19
5 4778 12
5 4779 14
5 4780 9
5 4781 74
5 4782 21
5 4783 19
5 4785 213
5 4786 25
5 4787 18
5 4788 20
5 4789 18
5 4790 10
5 4791 18
5 4792 32
5 4793 19
5 4794 19
5 4795 15
5 4796 27
5 4797 19
5 4798 18
5 4799 13
5 4800 16
5 4801 19
5 4802 18
5 4803 14
5 4804 20
5 4805 17
5 4806 10
5 4807 14
5 4809 14
5 4810 154
5 4811 23
5 4812 110
5 4813 11
5 4814 30
5 4815 18
5 4816 20
5 4817 27
5 4818 20
5 4819 22
5 4820 20
5 4821 13
5 4822 12
5 4823 13
5 4824 18
5 4825 13
5 4826 17
5 4827 20
5 4828 17
5 4829 17
5 4830 15
5 4831 20
5 4832 18
5 4833 19
5 4834 17
5 4835 17
5 4836 16
5 4837 93
5 4838 47
5 4839 10
5 4840 14
5 4841 20
5 4842 18
5 4843 152
5 4844 14
5 4845 11
5 4846 21
5 4847 11
5 4848 17
5 4849 34
5 4850 5
5 4851 38
5 4852 23
5 4853 18
5 4854 14
5 4855 17
5 4856 29
5 4857 19
5 4858 17
5 4859 16
5 4860 11
5 4861 30
5 4862 21
5 4863 40
5 4864 83
5 4865 29
5 4866 13
5 4867 37
5 4868 18
5 4869 20
5 4870 19
5 4871 16
5 4872 22
5 4873 10
5 4874 13
5 4875 22
5 4876 21
5 4877 10
5 4878 14
5 4879 14
5 4880 24
5 4881 21
5 4882 15
5 4883 11
5 4884 14
5 4885 12
5 4886 1
5 4887 959
5 4888 14
5 4889 11
5 4890 1116
5 4891 14
5 4892 18
5 4893 11
5 4894 25
5 4895 16
5 4896 12
5 4897 88
5 4898 19
5 4899 1
5 4900 14
5 4901 17
5 4902 22
5 4903 19
5 4904 19
5 4905 29
5 4906 104
5 4907 17
5 4908 19
5 4909 18
5 4910 30
5 4911 15
5 4912 21
5 4913 32
5 4914 26
5 4915 41
5 4916 11
5 4917 8
5 4918 20
5 4919 23
5 4920 14
5 4921 14
5 4922 11
5 4923 14
5 4924 10
5 4925 10
5 4926 165
5 4927 28
5 4928 18
5 4929 699
5 4930 19
5 4931 25
5 4932 60
5 4933 14
5 4934 330
5 4935 49
5 4936 11
5 4937 13
5 4939 14
5 4940 17
5 4941 14
5 4942 12
5 4943 18
5 4944 14
5 4945 12
5 4946 17
5 4947 14
5 4949 15
5 4950 9
5 4951 10
5 4952 18
5 4953 1
5 4954 25
5 4955 26
5 4956 15
5 4957 21
5 4958 19
5 4959 29
5 4960 25
5 4961 18
5 4962 9
5 4963 21
5 4964 24
5 4965 16
5 4966 20
5 4967 13
5 4968 13
5 4969 20
5 4970 14
5 4971 12
5 4972 21
5 4973 19
5 4974 26
5 4975 18
5 4976 11
5 4977 18
5 4978 83
5 4979 17
5 4980 15
5 4981 95
5 4982 24
5 4983 1
5 4984 15
5 4985 23
5 4986 6
5 4987 12
5 4988 2
5 4989 21
5 4990 14
5 4991 10
5 4992 25
5 4993 12
5 4994 1
5 4996 5
5 4997 12
5 4998 18
5 4999 10
5 5000 13
5 5001 31
5 5002 22
5 5003 19
5 5004 11
5 5005 11
5 5006 13
5 5007 17
5 5008 16
5 5009 94
5 5010 18
5 5011 49
5 5012 21
5 5013 35
5 5014 9
5 5015 12
5 5016 14
5 5017 10
5 5018 16
5 5019 18
5 5020 12
5 5021 72
5 5022 27
5 5023 32
5 5024 20
5 5025 15
5 5026 16
5 5027 24
5 5028 16
5 5029 25
5 5030 333
5 5031 13
5 5032 20
5 5033 15
5 5034 10
5 5035 40
5 5036 15
5 5037 19
5 5038 13
5 5039 14
5 5040 19
5 5042 147
5 5043 19
5 5044 14
5 5045 14
5 5046 20
5 5048 15
5 5049 17
5 5050 20
5 5051 90
5 5052 10
5 5053 15
5 5054 16
5 5055 14
5 5056 50
5 5057 15
5 5058 15
5 5059 183
5 5060 10
5 5061 8
5 5062 15
5 5063 15
5 5064 19
5 5065 10
5 5066 16
5 5067 16
5 5068 18
5 5069 8
5 5072 21
5 5073 8
5 5074 19
5 5075 15
5 5076 49
5 5077 15
5 5078 16
5 5079 11
5 5080 13
5 5081 14
5 5082 1
5 5083 24
5 5084 11
5 5085 35
5 5086 25
5 5087 18
5 5088 20
5 5089 19
5 5090 10
5 5092 23
5 5093 19
5 5094 24
5 5095 18
5 5096 2
5 5097 18
5 5098 19
5 5099 12
5 5100 25
5 5101 17
5 5102 17
5 5103 22
5 5104 9
5 5105 11
5 5106 21
5 5107 15
5 5108 7
5 5109 19
5 5110 89
5 5111 16
5 5112 13
5 5113 17
5 5115 12
5 5116 24
5 5117 23
5 5118 11
5 5119 197
5 5120 27
5 5121 13
5 5122 18
5 5123 12
5 5124 12
5 5125 13
5 5126 22
5 5127 18
5 5128 15
5 5129 12
5 5130 12
5 5131 17
5 5132 14
5 5133 56
5 5134 11
5 5135 33
5 5136 6
5 5137 7
5 5138 2
5 5139 794
5 5140 11
5 5141 15
5 5143 8
5 5144 117
5 5145 9
5 5146 18
5 5147 7
5 5148 9
5 5149 7
5 5150 22
5 5152 9
5 5153 6
5 5154 8
5 5155 2
5 5156 7
5 5157 11
5 5158 9
5 5159 14
6 1 91
6 2 27
6 3 845
6 4 892
6 5 51
6 6 45
6 7 84
6 9 25
6 10 28
6 11 23
6 12 22
6 13 30
6 14 28
6 15 27
6 16 17
6 17 22
6 18 35
6 19 12
6 20 41
6 21 29
6 22 33
6 23 30
6 24 27
6 25 22
6 26 23
6 27 38
6 28 29
6 29 18
6 30 22
6 31 22
6 32 35
6 33 22
6 34 22
6 35 26
6 36 26
6 37 29
6 38 28
6 39 20
6 40 20
6 41 21
6 42 33
6 43 22
6 44 394
6 45 21
6 46 59
6 47 25
6 48 18
6 49 31
6 50 46
6 51 31
6 52 20
6 53 51
6 54 22
6 55 28
6 56 22
6 57 70
6 58 29
6 59 44
6 60 26
6 61 20
6 62 31
6 63 22
6 64 20
6 65 722
6 66 22
6 67 40
6 68 53
6 69 43
6 70 121
6 71 35
6 72 24
6 73 24
6 74 51
6 75 256
6 76 34
6 77 20
6 78 31
6 79 22
6 80 22
6 81 22
6 82 25
6 83 15
6 84 594
6 86 25
6 87 28
6 88 35
6 89 25
6 90 10
6 91 19
6 93 26
6 94 15
6 95 21
6 96 7
6 97 23
6 99 19
6 100 36
6 101 851
6 102 17
6 103 17
6 104 21
6 105 17
6 106 50
6 107 20
6 108 21
6 109 23
6 110 25
6 111 26
6 112 32
6 113 24
6 114 27
6 115 24
6 116 21
6 117 17
6 118 33
6 119 26
6 120 18
6 121 19
6 122 18
6 123 22
6 124 13
6 125 25
6 126 11
6 127 16
6 128 32
6 129 35
6 130 42
6 131 20
6 132 4
6 133 17
6 134 23
6 135 29
6 136 26
6 137 26
6 138 29
6 139 21
6 140 37
6 141 31
6 142 827
6 143 34
6 144 30
6 145 15
6 146 28
6 147 32
6 148 20
6 149 32
6 150 31
6 151 48
6 152 33
6 153 735
6 154 23
6 155 44
6 156 16
6 157 17
6 158 27
6 159 18
6 160 14
6 161 21
6 162 52
6 163 31
6 165 21
6 166 36
6 167 26
6 168 27
6 169 45
6 170 49
6 171 35
6 172 55
6 173 9
6 175 41
6 176 28
6 177 27
6 178 23
6 179 37
6 180 18
6 181 30
6 182 34
6 183 115
6 184 31
6 185 63
6 186 42
6 187 17
6 188 29
6 189 39
6 190 30
6 192 32
6 193 45
6 194 25
6 195 1
6 196 26
6 198 15
6 199 17
6 200 46
6 201 16
6 202 30
6 203 1
6 204 23
6 205 18
6 206 47
6 207 599
6 208 28
6 209 30
6 210 28
6 211 39
6 212 10
6 213 19
6 214 21
6 215 48
6 216 46
6 217 24
6 218 27
6 219 618
6 220 398
6 221 26
6 222 29
6 223 47
6 224 25
6 225 50
6 226 19
6 227 47
6 228 26
6 229 27
6 230 28
6 231 24
6 232 29
6 233 73
6 234 36
6 235 40
6 236 19
6 237 21
6 238 26
6 239 28
6 240 36
6 241 36
6 242 46
6 243 29
6 244 45
6 245 33
6 246 48
6 247 27
6 248 18
6 249 19
6 250 62
6 251 29
6 252 18
6 253 43
6 254 25
6 255 1
6 256 20
6 257 3
6 258 34
6 259 26
6 260 29
6 261 34
6 262 54
6 263 41
6 264 16
6 265 19
6 266 32
6 267 29
6 268 26
6 269 32
6 270 28
6 271 29
6 272 26
6 273 19
6 274 25
6 275 23
6 276 16
6 277 1
6 278 23
6 279 28
6 280 31
6 281 30
6 282 69
6 283 22
6 284 29
6 285 291
6 286 870
6 287 21
6 288 22
6 289 25
6 290 29
6 291 29
6 292 23
6 293 28
6 294 27
6 295 19
6 296 21
6 297 28
6 298 42
6 299 856
6 300 33
6 301 39
6 302 27
6 303 33
6 304 17
6 305 25
6 306 71
6 307 123
6 308 62
6 309 24
6 310 27
6 311 19
6 312 12
6 313 46
6 314 25
6 315 32
6 316 26
6 317 22
6 318 1
6 319 26
6 320 1
6 321 39
6 322 17
6 323 51
6 324 19
6 325 18
6 326 15
6 327 32
6 328 23
6 329 27
6 330 47
6 331 44
6 332 20
6 333 33
6 334 28
6 335 28
6 336 46
6 338 23
6 339 22
6 340 24
6 341 26
6 342 44
6 343 24
6 344 25
6 345 16
6 346 90
6 347 42
6 348 105
6 349 21
6 350 52
6 351 33
6 352 27
6 353 55
6 354 1
6 355 21
6 356 43
6 357 31
6 358 51
6 359 27
6 360 26
6 361 46
6 362 40
6 363 24
6 364 25
6 365 37
6 366 45
6 367 32
6 368 56
6 369 25
6 370 27
6 371 88
6 372 255
6 373 12
6 374 23
6 375 23
6 376 23
6 377 17
6 378 22
6 379 38
6 380 34
6 381 29
6 382 49
6 383 30
6 384 18
6 385 19
6 386 34
6 387 20
6 388 29
6 389 19
6 390 40
6 391 28
6 392 331
6 393 27
6 394 857
6 395 28
6 396 23
6 397 24
6 398 24
6 399 49
6 400 35
6 401 17
6 402 27
6 403 31
6 404 31
6 405 29
6 406 49
6 407 114
6 408 34
6 409 22
6 410 26
6 411 22
6 412 21
6 413 38
6 414 19
6 415 24
6 416 27
6 417 26
6 418 3
6 419 24
6 420 1
6 421 32
6 422 602
6 423 26
6 424 28
6 425 31
6 426 34
6 427 47
6 428 37
6 429 31
6 430 19
6 431 1
6 432 1217
6 433 18
6 434 30
6 435 56
6 436 42
6 437 33
6 438 32
6 439 21
6 440 34
6 441 28
6 442 21
6 443 32
6 444 24
6 445 40
6 446 25
6 447 28
6 448 22
6 449 34
6 450 30
6 451 37
6 452 13
6 453 26
6 454 20
6 455 28
6 456 24
6 457 80
6 458 620
6 459 29
6 460 608
6 461 56
6 462 31
6 463 37
6 464 31
6 465 441
6 466 31
6 467 31
6 468 19
6 469 44
6 470 35
6 471 24
6 472 92
6 473 40
6 474 17
6 475 23
6 476 46
6 478 45
6 479 20
6 480 13
6 481 16
6 482 127
6 483 27
6 484 44
6 485 90
6 486 53
6 487 30
6 488 25
6 489 17
6 490 38
6 491 27
6 492 50
6 493 19
6 494 1
6 495 1723
6 496 40
6 497 40
6 498 27
6 499 29
6 500 62
6 501 12
6 502 19
6 503 72
6 504 18
6 505 34
6 506 11
6 507 36
6 508 24
6 509 29
6 510 29
6 511 23
6 512 19
6 513 21
6 514 36
6 515 21
6 516 24
6 517 29
6 518 24
6 519 19
6 520 1170
6 521 61
6 522 12
6 523 24
6 524 33
6 525 26
6 526 15
6 527 53
6 528 48
6 529 21
6 530 45
6 531 25
6 532 32
6 533 29
6 535 30
6 536 1
6 537 27
6 538 27
6 539 51
6 540 34
6 541 34
6 542 27
6 543 46
6 544 35
6 545 21
6 546 32
6 547 20
6 548 44
6 549 24
6 550 42
6 551 23
6 552 16
6 553 26
6 554 31
6 555 48
6 556 67
6 557 31
6 558 27
6 559 67
6 560 29
6 561 21
6 562 20
6 563 63
6 564 20
6 565 554
6 566 24
6 567 23
6 568 21
6 569 36
6 570 15
6 571 31
6 572 29
6 573 38
6 574 21
6 575 25
6 576 19
6 577 52
6 578 27
6 579 1
6 580 38
6 581 61
6 582 1
6 583 32
6 584 31
6 585 1
6 586 32
6 587 20
6 588 40
6 589 23
6 590 18
6 591 18
6 592 16
6 593 34
6 594 15
6 595 44
6 596 38
6 597 133
6 598 26
6 599 18
6 600 91
6 601 18
6 602 20
6 604 30
6 605 40
6 606 100
6 607 28
6 608 22
6 609 36
6 610 24
6 611 62
6 612 28
6 613 34
6 614 35
6 615 24
6 616 39
6 617 1
6 618 1
6 619 47
6 620 25
6 621 31
6 622 46
6 623 16
6 624 28
6 625 27
6 626 23
6 627 23
6 628 17
6 629 26
6 630 16
6 631 114
6 632 24
6 633 39
6 634 31
6 635 31
6 636 23
6 637 30
6 638 103
6 639 25
6 640 23
6 641 30
6 642 22
6 643 19
6 644 40
6 645 29
6 646 18
6 647 20
6 648 30
6 649 84
6 650 26
6 651 27
6 652 49
6 653 32
6 654 28
6 655 277
6 656 43
6 657 51
6 658 31
6 659 23
6 660 533
6 661 21
6 662 14
6 663 29
6 664 59
6 665 19
6 666 18
6 667 36
6 668 19
6 669 42
6 670 23
6 671 26
6 672 54
6 673 22
6 674 32
6 675 14
6 676 53
6 677 58
6 678 15
6 679 38
6 680 17
6 681 23
6 682 34
6 683 19
6 684 23
6 685 24
6 686 32
6 687 34
6 688 16
6 689 32
6 690 20
6 691 27
6 692 1
6 693 27
6 694 13
6 695 26
6 696 47
6 697 25
6 698 24
6 699 74
6 700 30
6 701 21
6 702 27
6 703 22
6 704 32
6 705 35
6 706 45
6 707 26
6 708 21
6 709 26
6 710 42
6 711 23
6 712 30
6 713 18
6 714 15
6 715 17
6 716 11
6 717 14
6 718 8
6 719 10
6 720 12
6 721 22
6 722 10
6 723 37
6 724 3
6 725 7
6 726 21
6 727 8
6 728 37
6 729 14
6 730 542
6 731 48
6 732 31
6 733 34
6 734 19
6 735 19
6 736 850
6 738 688
6 739 24
6 740 23
6 741 76
6 742 21
6 743 648
6 744 29
6 745 23
6 746 25
6 747 1
6 748 23
6 749 33
6 750 31
6 751 28
6 752 1
6 753 21
6 754 25
6 755 19
6 756 22
6 757 45
6 758 116
6 759 43
6 760 18
6 761 23
6 762 29
6 763 58
6 764 35
6 765 51
6 766 25
6 767 28
6 768 52
6 769 29
6 770 33
6 771 27
6 772 28
6 773 20
6 774 34
6 775 30
6 776 37
6 777 27
6 778 21
6 779 55
6 780 29
6 781 33
6 782 35
6 783 31
6 784 13
6 785 20
6 786 24
6 787 19
6 788 50
6 789 24
6 790 32
6 791 32
6 792 27
6 793 19
6 794 19
6 795 31
6 796 34
6 797 30
6 798 76
6 799 25
6 800 24
6 801 26
6 802 35
6 803 29
6 804 30
6 805 14
6 806 26
6 807 33
6 808 16
6 809 36
6 810 20
6 811 28
6 812 67
6 813 24
6 814 56
6 815 29
6 816 29
6 817 26
6 818 65
6 819 27
6 820 32
6 821 27
6 822 24
6 823 27
6 824 30
6 825 855
6 826 18
6 827 49
6 828 46
6 829 21
6 830 21
6 831 820
6 832 21
6 833 26
6 834 22
6 835 94
6 836 28
6 837 20
6 838 28
6 839 27
6 840 60
6 841 14
6 842 38
6 843 32
6 844 33
6 845 26
6 846 13
6 847 16
6 848 1
6 849 20
6 850 21
6 851 12
6 852 27
6 853 25
6 854 15
6 855 28
6 856 23
6 857 24
6 858 26
6 859 20
6 860 17
6 861 29
6 862 20
6 863 20
6 864 29
6 865 33
6 866 1
6 867 23
6 868 37
6 869 18
6 870 31
6 871 31
6 872 28
6 873 64
6 874 20
6 875 31
6 876 21
6 877 22
6 878 750
6 879 27
6 880 27
6 881 30
6 882 42
6 883 29
6 884 22
6 885 58
6 886 23
6 887 22
6 888 28
6 889 24
6 890 17
6 892 23
6 893 16
6 894 17
6 895 24
6 896 23
6 897 10
6 898 51
6 899 11
6 900 38
6 901 11
6 902 11
6 903 1
6 904 17
6 905 1
6 906 9
6 907 625
6 908 23
6 909 24
6 910 49
6 911 26
6 912 33
6 913 25
6 914 23
6 915 32
6 916 14
6 917 24
6 918 25
6 919 20
6 920 18
6 921 25
6 922 21
6 923 69
6 924 20
6 925 16
6 926 26
6 927 32
6 928 40
6 929 22
6 930 25
6 931 28
6 932 26
6 933 35
6 934 22
6 935 766
6 936 23
6 937 24
6 938 52
6 939 39
6 940 24
6 941 25
6 942 1
6 943 18
6 944 17
6 945 26
6 946 23
6 947 32
6 948 31
6 949 30
6 950 47
6 951 59
6 952 18
6 953 24
6 954 26
6 955 24
6 956 43
6 957 31
6 958 28
6 959 28
6 961 15
6 962 67
6 963 47
6 964 58
6 965 62
6 966 24
6 967 50
6 968 23
6 969 1
6 970 33
6 971 41
6 972 59
6 973 34
6 974 21
6 975 42
6 976 1
6 977 47
6 978 53
6 979 18
6 980 13
6 981 47
6 982 17
6 983 26
6 984 27
6 985 19
6 986 29
6 987 22
6 988 19
6 989 32
6 990 84
6 991 1
6 992 46
6 993 29
6 994 1891
6 995 17
6 996 16
6 997 40
6 998 19
6 999 35
6 1000 34
6 1001 24
6 1002 47
6 1003 24
6 1004 31
6 1005 27
6 1006 11
6 1007 18
6 1008 20
6 1009 52
6 1010 34
6 1011 16
6 1012 28
6 1013 12
6 1014 17
6 1015 26
6 1016 27
6 1017 23
6 1018 19
6 1019 21
6 1020 22
6 1021 2
6 1022 36
6 1023 28
6 1024 25
6 1025 31
6 1026 1
6 1027 31
6 1028 39
6 1029 13
6 1030 30
6 1031 16
6 1032 20
6 1033 21
6 1034 19
6 1035 27
6 1036 23
6 1037 19
6 1038 23
6 1039 39
6 1040 26
6 1041 18
6 1042 19
6 1043 24
6 1044 64
6 1045 18
6 1046 27
6 1047 24
6 1048 20
6 1049 27
6 1050 32
6 1051 20
6 1052 726
6 1053 20
6 1054 31
6 1055 32
6 1056 19
6 1057 22
6 1058 29
6 1059 34
6 1060 24
6 1061 16
6 1062 24
6 1063 17
6 1064 24
6 1065 27
6 1066 26
6 1067 39
6 1068 34
6 1069 16
6 1070 29
6 1071 26
6 1072 20
6 1073 6
6 1075 34
6 1076 14
6 1077 17
6 1079 28
6 1080 19
6 1081 18
6 1082 21
6 1083 29
6 1084 31
6 1085 28
6 1086 27
6 1087 28
6 1088 30
6 1089 24
6 1090 19
6 1091 16
6 1092 24
6 1093 43
6 1094 14
6 1095 2
6 1096 20
6 1097 19
6 1098 974
6 1099 21
6 1100 23
6 1101 28
6 1102 16
6 1103 12
6 1104 50
6 1105 22
6 1106 33
6 1107 18
6 1108 17
6 1109 31
6 1110 24
6 1111 23
6 1112 472
6 1113 23
6 1114 12
6 1115 36
6 1116 16
6 1117 85
6 1118 26
6 1119 24
6 1120 35
6 1121 28
6 1122 20
6 1123 35
6 1124 15
6 1125 30
6 1126 21
6 1127 19
6 1128 19
6 1129 20
6 1130 33
6 1131 27
6 1132 15
6 1133 21
6 1134 747
6 1135 16
6 1136 21
6 1137 23
6 1138 31
6 1139 20
6 1140 16
6 1141 18
6 1142 30
6 1143 40
6 1144 25
6 1145 22
6 1146 1030
6 1147 24
6 1148 28
6 1149 26
6 1150 34
6 1151 30
6 1152 50
6 1153 21
6 1154 41
6 1155 23
6 1156 28
6 1157 33
6 1158 22
6 1159 20
6 1160 72
6 1161 5
6 1162 23
6 1163 24
6 1164 36
6 1165 15
6 1166 28
6 1167 1
6 1168 26
6 1169 19
6 1170 22
6 1171 19
6 1172 46
6 1173 18
6 1174 29
6 1175 42
6 1176 36
6 1177 22
6 1178 3
6 1179 25
6 1180 27
6 1181 31
6 1182 774
6 1183 6
6 1184 24
6 1185 926
6 1186 17
6 1187 31
6 1188 23
6 1189 24
6 1190 42
6 1191 49
6 1192 33
6 1193 43
6 1194 35
6 1195 36
6 1196 35
6 1197 31
6 1198 25
6 1199 24
6 1201 1
6 1202 1
6 1203 2
6 1204 15
6 1205 25
6 1206 33
6 1207 26
6 1208 2
6 1209 36
6 1210 24
6 1211 12
6 1213 3
6 1214 30
6 1215 26
6 1216 34
6 1217 18
6 1218 20
6 1220 26
6 1221 19
6 1222 50
6 1223 20
6 1224 41
6 1225 23
6 1226 27
6 1227 23
6 1228 63
6 1229 34
6 1230 36
6 1231 2
6 1232 45
6 1233 53
6 1234 32
6 1235 22
6 1236 62
6 1237 34
6 1238 25
6 1239 30
6 1240 36
6 1241 26
6 1242 30
6 1243 31
6 1244 30
6 1245 24
6 1246 31
6 1247 23
6 1248 22
6 1249 35
6 1250 18
6 1251 1
6 1252 28
6 1253 31
6 1254 40
6 1255 29
6 1256 40
6 1257 45
6 1258 20
6 1259 11
6 1260 29
6 1261 25
6 1262 18
6 1263 23
6 1264 30
6 1265 22
6 1266 42
6 1267 44
6 1268 22
6 1269 30
6 1270 27
6 1271 99
6 1272 25
6 1273 26
6 1274 36
6 1275 25
6 1276 20
6 1277 23
6 1278 18
6 1279 748
6 1280 29
6 1281 27
6 1282 43
6 1283 27
6 1284 18
6 1285 44
6 1286 25
6 1287 20
6 1288 23
6 1289 20
6 1290 34
6 1291 55
6 1292 22
6 1293 33
6 1294 62
6 1295 26
6 1296 1
6 1297 28
6 1298 17
6 1299 35
6 1300 27
6 1301 25
6 1302 26
6 1303 26
6 1304 37
6 1305 20
6 1306 30
6 1307 24
6 1308 690
6 1309 17
6 1310 27
6 1311 22
6 1312 64
6 1313 27
6 1314 32
6 1315 732
6 1316 5
6 1317 17
6 1318 21
6 1319 30
6 1320 23
6 1321 25
6 1322 208
6 1323 39
6 1324 26
6 1325 65
6 1326 27
6 1327 29
6 1328 41
6 1329 33
6 1330 24
6 1331 24
6 1332 26
6 1333 35
6 1334 29
6 1335 25
6 1336 52
6 1337 15
6 1338 39
6 1339 31
6 1340 28
6 1341 46
6 1342 15
6 1343 45
6 1344 27
6 1345 25
6 1346 151
6 1347 24
6 1348 22
6 1350 23
6 1351 28
6 1352 29
6 1353 24
6 1356 22
6 1357 38
6 1358 33
6 1359 23
6 1360 44
6 1361 21
6 1362 26
6 1363 31
6 1364 27
6 1365 26
6 1366 29
6 1367 36
6 1368 21
6 1369 30
6 1370 50
6 1371 34
6 1373 29
6 1374 14
6 1375 35
6 1376 39
6 1377 20
6 1378 22
6 1379 24
6 1380 23
6 1382 433
6 1383 79
6 1385 24
6 1386 474
6 1387 2
6 1388 35
6 1389 21
6 1390 21
6 1391 32
6 1392 18
6 1393 20
6 1394 27
6 1395 22
6 1396 656
6 1397 752
6 1398 24
6 1399 20
6 1400 43
6 1401 28
6 1402 30
6 1403 20
6 1404 22
6 1405 53
6 1406 28
6 1407 1
6 1408 23
6 1409 17
6 1410 33
6 1411 20
6 1413 36
6 1414 32
6 1415 13
6 1416 13
6 1417 23
6 1418 17
6 1419 37
6 1420 20
6 1421 36
6 1422 26
6 1423 247
6 1424 22
6 1425 30
6 1426 24
6 1427 26
6 1428 20
6 1430 15
6 1431 22
6 1432 26
6 1433 37
6 1434 28
6 1435 27
6 1436 25
6 1437 19
6 1438 37
6 1439 27
6 1440 29
6 1441 25
6 1442 28
6 1443 24
6 1444 31
6 1445 35
6 1446 25
6 1447 22
6 1448 27
6 1449 13
6 1450 2
6 1451 87
6 1452 28
6 1453 28
6 1454 22
6 1455 23
6 1456 44
6 1457 26
6 1458 32
6 1459 36
6 1460 28
6 1461 25
6 1462 26
6 1463 33
6 1464 33
6 1465 1
6 1466 30
6 1467 28
6 1468 32
6 1469 16
6 1470 33
6 1471 65
6 1472 24
6 1473 30
6 1474 12
6 1475 33
6 1476 21
6 1477 27
6 1478 70
6 1479 13
6 1480 21
6 1481 74
6 1482 18
6 1483 53
6 1484 31
6 1485 32
6 1486 25
6 1487 33
6 1488 22
6 1489 23
6 1490 29
6 1491 19
6 1492 24
6 1493 50
6 1494 44
6 1495 30
6 1496 17
6 1497 17
6 1498 60
6 1499 78
6 1500 58
6 1501 2
6 1502 17
6 1503 80
6 1504 25
6 1505 30
6 1506 58
6 1507 53
6 1508 23
6 1510 64
6 1511 30
6 1512 54
6 1514 32
6 1515 440
6 1516 19
6 1517 22
6 1518 27
6 1519 30
6 1520 51
6 1521 24
6 1522 1083
6 1523 20
6 1524 884
6 1525 16
6 1526 19
6 1527 51
6 1528 20
6 1529 29
6 1530 28
6 1531 29
6 1532 23
6 1533 18
6 1534 22
6 1535 18
6 1536 65
6 1537 23
6 1538 27
6 1539 30
6 1540 48
6 1541 26
6 1542 35
6 1543 32
6 1544 40
6 1545 40
6 1546 31
6 1547 28
6 1548 28
6 1549 30
6 1550 58
6 1551 8
6 1552 28
6 1553 27
6 1554 23
6 1555 28
6 1556 31
6 1557 23
6 1558 24
6 1560 32
6 1561 21
6 1562 42
6 1563 29
6 1564 20
6 1565 24
6 1566 37
6 1567 24
6 1568 39
6 1569 789
6 1570 25
6 1571 28
6 1572 88
6 1573 24
6 1574 53
6 1575 35
6 1576 30
6 1577 49
6 1578 38
6 1579 29
6 1580 132
6 1581 845
6 1582 38
6 1583 34
6 1584 152
6 1585 43
6 1586 17
6 1587 26
6 1588 25
6 1589 31
6 1590 16
6 1591 26
6 1592 80
6 1593 16
6 1594 603
6 1595 31
6 1596 23
6 1597 25
6 1598 32
6 1599 20
6 1600 44
6 1601 38
6 1602 49
6 1603 61
6 1604 2
6 1605 20
6 1606 36
6 1607 19
6 1608 17
6 1609 26
6 1611 18
6 1612 19
6 1613 35
6 1614 65
6 1615 46
6 1616 71
6 1617 21
6 1618 22
6 1619 40
6 1621 67
6 1622 36
6 1623 61
6 1624 46
6 1625 40
6 1626 24
6 1627 24
6 1628 23
6 1629 30
6 1630 34
6 1631 29
6 1632 21
6 1633 465
6 1634 24
6 1635 35
6 1636 36
6 1637 25
6 1638 26
6 1639 28
6 1640 22
6 1641 34
6 1642 21
6 1643 26
6 1644 33
6 1645 38
6 1646 29
6 1647 33
6 1648 611
6 1649 87
6 1650 25
6 1651 31
6 1652 61
6 1653 30
6 1654 30
6 1655 29
6 1656 18
6 1657 33
6 1658 26
6 1659 24
6 1660 18
6 1661 15
6 1662 31
6 1664 28
6 1665 17
6 1666 19
6 1667 422
6 1668 32
6 1669 24
6 1670 69
6 1671 23
6 1672 19
6 1673 33
6 1674 22
6 1675 724
6 1676 67
6 1677 29
6 1678 28
6 1679 53
6 1680 24
6 1681 20
6 1682 17
6 1683 32
6 1684 42
6 1685 19
6 1686 27
6 1687 114
6 1688 660
6 1689 25
6 1690 24
6 1691 19
6 1692 34
6 1693 39
6 1694 16
6 1695 34
6 1696 7
6 1697 33
6 1698 1
6 1699 34
6 1700 600
6 1701 23
6 1702 17
6 1703 9
6 1704 133
6 1705 21
6 1706 24
6 1707 61
6 1708 3
6 1709 21
6 1710 26
6 1711 56
6 1712 38
6 1713 642
6 1714 26
6 1715 21
6 1716 25
6 1717 37
6 1718 20
6 1719 33
6 1720 22
6 1721 38
6 1722 21
6 1723 17
6 1724 37
6 1725 32
6 1726 27
6 1727 34
6 1728 22
6 1729 32
6 1730 159
6 1731 34
6 1732 27
6 1733 18
6 1734 986
6 1735 2
6 1736 1
6 1737 17
6 1738 19
6 1739 24
6 1740 27
6 1741 27
6 1742 17
6 1743 31
6 1744 27
6 1745 31
6 1747 25
6 1748 31
6 1749 35
6 1750 28
6 1751 23
6 1752 23
6 1753 30
6 1754 62
6 1755 25
6 1756 60
6 1757 26
6 1758 28
6 1759 15
6 1760 22
6 1761 23
6 1762 38
6 1763 28
6 1764 787
6 1765 27
6 1766 24
6 1767 29
6 1768 30
6 1769 38
6 1770 16
6 1771 25
6 1772 23
6 1773 74
6 1774 32
6 1775 18
6 1777 50
6 1778 29
6 1779 32
6 1780 31
6 1781 20
6 1782 17
6 1783 53
6 1784 16
6 1785 21
6 1786 29
6 1787 32
6 1788 43
6 1789 31
6 1790 31
6 1791 30
6 1792 21
6 1793 30
6 1794 22
6 1795 28
6 1796 393
6 1797 51
6 1798 2
6 1799 25
6 1800 32
6 1801 21
6 1802 20
6 1803 32
6 1804 28
6 1805 38
6 1806 39
6 1807 24
6 1808 3
6 1809 12
6 1810 14
6 1811 16
6 1812 14
6 1813 16
6 1814 40
6 1815 27
6 1816 23
6 1817 27
6 1818 17
6 1819 36
6 1820 29
6 1821 21
6 1822 25
6 1823 32
6 1824 33
6 1825 49
6 1826 26
6 1827 22
6 1828 40
6 1829 168
6 1830 26
6 1831 33
6 1832 35
6 1833 24
6 1834 20
6 1835 27
6 1836 19
6 1837 16
6 1838 25
6 1839 38
6 1840 35
6 1841 58
6 1842 31
6 1843 28
6 1844 21
6 1846 20
6 1847 30
6 1848 24
6 1849 26
6 1850 18
6 1851 161
6 1852 30
6 1853 39
6 1854 37
6 1855 505
6 1856 47
6 1857 24
6 1858 22
6 1859 18
6 1860 1
6 1861 148
6 1862 33
6 1863 20
6 1864 22
6 1865 26
6 1866 18
6 1867 27
6 1868 21
6 1869 33
6 1870 452
6 1871 20
6 1872 27
6 1874 256
6 1875 12
6 1876 24
6 1877 23
6 1878 34
6 1879 26
6 1880 34
6 1881 18
6 1882 16
6 1884 31
6 1885 40
6 1886 27
6 1887 39
6 1888 22
6 1889 12
6 1890 16
6 1891 161
6 1892 37
6 1893 14
6 1894 16
6 1895 18
6 1896 23
6 1897 26
6 1898 22
6 1900 37
6 1901 20
6 1902 35
6 1903 18
6 1904 43
6 1905 29
6 1906 23
6 1907 22
6 1908 26
6 1909 46
6 1910 38
6 1911 26
6 1912 13
6 1913 25
6 1914 13
6 1915 18
6 1916 26
6 1917 34
6 1918 23
6 1919 19
6 1920 35
6 1921 42
6 1922 24
6 1923 39
6 1924 29
6 1925 17
6 1926 44
6 1927 14
6 1928 81
6 1929 23
6 1930 24
6 1931 17
6 1932 27
6 1933 67
6 1934 40
6 1935 23
6 1936 23
6 1937 39
6 1938 23
6 1939 21
6 1940 94
6 1941 40
6 1942 24
6 1943 34
6 1944 30
6 1945 23
6 1946 20
6 1947 25
6 1948 33
6 1949 61
6 1950 18
6 1951 25
6 1952 31
6 1953 45
6 1954 32
6 1955 53
6 1956 28
6 1957 102
6 1958 1
6 1960 22
6 1961 39
6 1962 41
6 1963 25
6 1964 38
6 1965 24
6 1966 49
6 1967 2
6 1968 79
6 1969 27
6 1970 34
6 1971 32
6 1972 23
6 1973 16
6 1974 42
6 1975 82
6 1976 29
6 1977 44
6 1978 668
6 1979 31
6 1980 23
6 1981 30
6 1982 30
6 1983 23
6 1984 24
6 1985 24
6 1986 24
6 1987 43
6 1988 38
6 1989 38
6 1990 39
6 1991 34
6 1992 24
6 1993 29
6 1994 22
6 1995 30
6 1996 27
6 1997 32
6 1998 23
6 1999 40
6 2000 86
6 2001 21
6 2002 26
6 2003 35
6 2004 20
6 2005 19
6 2006 19
6 2007 40
6 2008 28
6 2009 26
6 2010 1
6 2011 12
6 2012 532
6 2013 26
6 2014 29
6 2015 28
6 2016 37
6 2017 17
6 2018 20
6 2019 26
6 2020 35
6 2021 20
6 2022 41
6 2023 49
6 2024 24
6 2025 30
6 2026 29
6 2027 19
6 2028 36
6 2029 53
6 2030 30
6 2031 38
6 2032 36
6 2033 21
6 2034 25
6 2035 37
6 2036 21
6 2037 33
6 2038 22
6 2039 23
6 2040 34
6 2041 29
6 2042 6
6 2043 110
6 2044 19
6 2045 39
6 2046 25
6 2047 37
6 2048 23
6 2049 21
6 2050 24
6 2051 24
6 2052 28
6 2053 29
6 2054 34
6 2055 46
6 2056 24
6 2057 33
6 2058 29
6 2059 22
6 2060 26
6 2061 23
6 2062 14
6 2063 24
6 2064 15
6 2065 27
6 2066 27
6 2067 104
6 2068 59
6 2069 20
6 2070 27
6 2071 61
6 2072 42
6 2073 31
6 2074 19
6 2075 38
6 2077 23
6 2078 37
6 2079 24
6 2080 24
6 2081 34
6 2082 32
6 2083 24
6 2084 21
6 2085 30
6 2086 22
6 2087 41
6 2088 12
6 2089 9
6 2090 30
6 2091 29
6 2092 10
6 2093 30
6 2094 27
6 2095 32
6 2096 38
6 2097 26
6 2098 27
6 2100 30
6 2101 20
6 2102 37
6 2103 31
6 2104 9
6 2105 27
6 2106 35
6 2107 37
6 2108 19
6 2109 17
6 2110 49
6 2111 34
6 2112 32
6 2113 29
6 2114 28
6 2115 1
6 2116 25
6 2117 18
6 2118 31
6 2119 2
6 2120 35
6 2121 26
6 2122 32
6 2123 31
6 2124 35
6 2125 57
6 2126 30
6 2127 19
6 2128 58
6 2129 31
6 2130 23
6 2132 26
6 2133 21
6 2134 19
6 2135 17
6 2136 17
6 2137 20
6 2138 16
6 2139 47
6 2140 26
6 2141 1
6 2142 18
6 2143 15
6 2144 17
6 2145 24
6 2146 20
6 2147 536
6 2148 20
6 2149 35
6 2150 44
6 2151 37
6 2152 55
6 2153 97
6 2154 30
6 2155 24
6 2156 21
6 2157 35
6 2158 1012
6 2159 19
6 2160 18
6 2161 31
6 2162 19
6 2163 19
6 2164 15
6 2165 13
6 2166 26
6 2167 15
6 2168 45
6 2169 16
6 2170 25
6 2171 25
6 2172 384
6 2173 18
6 2174 26
6 2175 25
6 2176 20
6 2177 16
6 2178 32
6 2179 23
6 2180 25
6 2181 425
6 2182 1
6 2183 1
6 2184 32
6 2185 27
6 2186 27
6 2187 19
6 2188 32
6 2189 44
6 2191 16
6 2192 17
6 2193 31
6 2194 25
6 2195 56
6 2196 44
6 2197 16
6 2198 28
6 2199 22
6 2200 85
6 2201 32
6 2202 28
6 2203 9
6 2205 35
6 2206 23
6 2207 31
6 2208 40
6 2209 23
6 2210 20
6 2211 21
6 2212 23
6 2213 22
6 2214 17
6 2215 22
6 2216 13
6 2217 27
6 2218 30
6 2219 99
6 2220 28
6 2221 20
6 2222 2
6 2223 1
6 2224 2
6 2225 3
6 2226 2
6 2227 4
6 2228 2
6 2229 6
6 2230 1
6 2231 3
6 2232 3
6 2233 4
6 2234 2
6 2235 1
6 2236 3
6 2237 2
6 2238 19
6 2239 53
6 2240 15
6 2241 16
6 2242 22
6 2243 16
6 2244 14
6 2245 13
6 2246 17
6 2247 18
6 2248 11
6 2249 13
6 2250 24
6 2251 16
6 2252 18
6 2253 21
6 2254 22
6 2255 36
6 2256 821
6 2257 32
6 2258 20
6 2259 26
6 2260 20
6 2261 21
6 2262 17
6 2263 26
6 2264 26
6 2265 26
6 2266 121
6 2267 16
6 2268 71
6 2269 28
6 2270 15
6 2271 15
6 2272 468
6 2273 19
6 2274 30
6 2275 20
6 2276 17
6 2277 603
6 2278 28
6 2279 54
6 2280 11
6 2281 20
6 2282 22
6 2283 28
6 2284 36
6 2286 30
6 2287 50
6 2288 25
6 2289 58
6 2290 23
6 2291 565
6 2292 1287
6 2293 18
6 2294 603
6 2295 26
6 2296 25
6 2297 26
6 2298 21
6 2299 28
6 2300 64
6 2301 17
6 2302 26
6 2303 38
6 2304 63
6 2305 3
6 2306 4
6 2307 90
6 2308 10
6 2309 26
6 2310 22
6 2311 33
6 2312 35
6 2313 29
6 2314 35
6 2315 32
6 2316 4
6 2317 23
6 2318 19
6 2319 1
6 2320 26
6 2321 88
6 2322 21
6 2323 22
6 2324 19
6 2325 42
6 2326 32
6 2327 28
6 2328 19
6 2329 46
6 2330 58
6 2331 42
6 2332 22
6 2333 21
6 2334 56
6 2335 10
6 2336 18
6 2337 29
6 2338 32
6 2339 469
6 2340 35
6 2341 28
6 2342 26
6 2343 19
6 2344 22
6 2345 31
6 2346 1
6 2347 2
6 2348 15
6 2349 39
6 2350 15
6 2351 34
6 2352 38
6 2353 60
6 2354 10
6 2355 21
6 2356 27
6 2357 25
6 2358 29
6 2359 28
6 2360 27
6 2361 28
6 2362 38
6 2363 24
6 2364 14
6 2365 23
6 2366 81
6 2367 16
6 2368 28
6 2369 29
6 2370 45
6 2371 26
6 2372 20
6 2373 23
6 2374 25
6 2375 30
6 2376 15
6 2377 27
6 2378 15
6 2379 18
6 2380 29
6 2381 50
6 2382 24
6 2383 31
6 2384 1
6 2385 111
6 2386 24
6 2387 18
6 2388 29
6 2389 1
6 2390 25
6 2391 26
6 2392 146
6 2393 36
6 2394 16
6 2396 814
6 2397 29
6 2398 46
6 2399 24
6 2400 33
6 2401 38
6 2402 17
6 2403 30
6 2404 21
6 2405 35
6 2406 33
6 2407 23
6 2408 31
6 2409 60
6 2410 67
6 2411 34
6 2412 27
6 2413 55
6 2414 24
6 2415 22
6 2416 46
6 2417 42
6 2418 27
6 2419 29
6 2420 35
6 2421 35
6 2422 21
6 2423 9
6 2424 23
6 2425 15
6 2426 17
6 2427 19
6 2428 22
6 2429 22
6 2430 26
6 2431 125
6 2432 31
6 2433 55
6 2434 22
6 2435 36
6 2436 28
6 2437 27
6 2438 709
6 2439 25
6 2440 41
6 2441 15
6 2442 22
6 2443 36
6 2444 37
6 2445 17
6 2446 31
6 2447 20
6 2448 47
6 2449 107
6 2450 20
6 2451 16
6 2452 669
6 2453 37
6 2454 27
6 2455 36
6 2456 37
6 2457 22
6 2458 30
6 2459 22
6 2460 32
6 2461 39
6 2462 21
6 2463 34
6 2464 27
6 2465 31
6 2466 62
6 2467 24
6 2468 23
6 2469 40
6 2470 24
6 2471 36
6 2472 3
6 2473 33
6 2474 29
6 2475 30
6 2476 27
6 2477 18
6 2478 20
6 2479 23
6 2480 26
6 2481 18
6 2482 36
6 2483 28
6 2484 21
6 2485 40
6 2486 27
6 2487 13
6 2488 22
6 2489 721
6 2490 15
6 2491 39
6 2492 25
6 2493 38
6 2494 28
6 2495 35
6 2496 18
6 2497 18
6 2498 23
6 2499 577
6 2500 663
6 2501 28
6 2502 30
6 2503 28
6 2504 26
6 2505 16
6 2506 42
6 2507 16
6 2508 30
6 2509 30
6 2510 30
6 2511 23
6 2512 21
6 2513 21
6 2514 21
6 2515 32
6 2516 23
6 2517 792
6 2518 29
6 2519 126
6 2520 23
6 2521 32
6 2522 40
6 2523 27
6 2524 24
6 2525 38
6 2526 16
6 2527 36
6 2528 28
6 2530 21
6 2531 35
6 2532 21
6 2533 30
6 2534 27
6 2535 22
6 2536 30
6 2537 754
6 2538 24
6 2539 29
6 2540 36
6 2541 501
6 2542 29
6 2543 500
6 2544 19
6 2545 23
6 2546 87
6 2547 30
6 2548 56
6 2549 27
6 2550 39
6 2551 1
6 2552 117
6 2553 35
6 2554 40
6 2555 28
6 2556 26
6 2557 42
6 2558 19
6 2559 18
6 2560 337
6 2561 2
6 2562 33
6 2563 32
6 2564 27
6 2565 26
6 2566 26
6 2567 106
6 2568 25
6 2569 33
6 2570 51
6 2571 22
6 2572 24
6 2573 25
6 2574 43
6 2575 27
6 2576 5
6 2577 39
6 2578 26
6 2579 21
6 2580 2
6 2581 7
6 2582 31
6 2583 30
6 2584 46
6 2586 637
6 2587 39
6 2588 48
6 2589 16
6 2590 28
6 2591 28
6 2592 37
6 2593 63
6 2594 27
6 2595 100
6 2596 31
6 2597 25
6 2598 87
6 2600 18
6 2601 19
6 2602 29
6 2603 33
6 2604 30
6 2605 23
6 2606 29
6 2607 627
6 2608 253
6 2609 32
6 2610 24
6 2611 27
6 2612 23
6 2613 56
6 2614 22
6 2615 16
6 2616 32
6 2617 83
6 2618 33
6 2619 97
6 2620 22
6 2621 18
6 2622 21
6 2623 19
6 2624 19
6 2625 29
6 2626 42
6 2627 23
6 2628 26
6 2629 43
6 2630 38
6 2631 35
6 2632 25
6 2633 27
6 2634 18
6 2635 2
6 2636 31
6 2637 33
6 2638 24
6 2639 53
6 2640 23
6 2641 32
6 2642 16
6 2643 42
6 2644 28
6 2645 11
6 2646 21
6 2647 13
6 2648 30
6 2649 19
6 2650 1
6 2651 27
6 2652 20
6 2653 12
6 2654 23
6 2655 27
6 2656 17
6 2657 23
6 2658 29
6 2659 35
6 2660 23
6 2661 21
6 2662 29
6 2663 30
6 2664 26
6 2665 30
6 2666 50
6 2667 22
6 2668 24
6 2669 19
6 2670 26
6 2671 16
6 2672 23
6 2673 98
6 2674 29
6 2675 23
6 2676 33
6 2677 26
6 2678 21
6 2679 24
6 2680 110
6 2681 1
6 2682 31
6 2683 6
6 2684 28
6 2685 26
6 2686 730
6 2687 23
6 2688 19
6 2689 28
6 2690 14
6 2691 39
6 2692 31
6 2693 24
6 2694 19
6 2695 30
6 2696 20
6 2697 20
6 2698 23
6 2699 18
6 2700 25
6 2701 33
6 2703 11
6 2704 20
6 2705 21
6 2706 24
6 2707 21
6 2708 24
6 2709 20
6 2710 20
6 2711 22
6 2712 29
6 2713 27
6 2714 23
6 2715 42
6 2716 12
6 2717 13
6 2718 14
6 2719 17
6 2721 27
6 2722 23
6 2723 23
6 2724 23
6 2725 22
6 2726 25
6 2727 21
6 2728 84
6 2729 35
6 2730 11
6 2731 33
6 2732 16
6 2733 18
6 2734 22
6 2735 30
6 2736 2
6 2737 20
6 2738 14
6 2739 27
6 2740 13
6 2741 381
6 2742 50
6 2743 17
6 2744 20
6 2745 21
6 2746 27
6 2747 74
6 2748 71
6 2749 18
6 2751 30
6 2752 21
6 2753 31
6 2754 40
6 2755 17
6 2756 22
6 2757 30
6 2758 16
6 2759 15
6 2760 14
6 2761 22
6 2762 22
6 2763 34
6 2764 1
6 2765 31
6 2766 16
6 2767 14
6 2768 17
6 2769 354
6 2770 27
6 2771 30
6 2772 17
6 2773 29
6 2774 22
6 2775 10
6 2776 26
6 2777 21
6 2778 24
6 2779 26
6 2780 19
6 2781 17
6 2782 20
6 2783 30
6 2784 39
6 2785 24
6 2786 23
6 2787 43
6 2788 36
6 2789 33
6 2790 24
6 2791 29
6 2792 29
6 2793 28
6 2794 30
6 2795 91
6 2796 25
6 2797 20
6 2798 21
6 2799 16
6 2800 21
6 2801 57
6 2802 24
6 2803 23
6 2804 27
6 2805 35
6 2806 29
6 2807 21
6 2808 13
6 2809 21
6 2810 30
6 2811 24
6 2812 158
6 2813 13
6 2814 17
6 2815 14
6 2816 26
6 2817 12
6 2818 25
6 2819 45
6 2820 25
6 2821 31
6 2822 21
6 2823 17
6 2824 18
6 2825 38
6 2826 14
6 2827 83
6 2828 24
6 2829 170
6 2830 377
6 2831 23
6 2832 30
6 2833 17
6 2834 17
6 2835 28
6 2836 10
6 2837 19
6 2838 27
6 2839 92
6 2840 13
6 2841 24
6 2843 21
6 2844 28
6 2845 26
6 2846 11
6 2847 17
6 2848 12
6 2849 571
6 2850 26
6 2851 64
6 2852 16
6 2853 21
6 2854 4
6 2855 25
6 2856 14
6 2857 19
6 2858 26
6 2859 25
6 2861 20
6 2862 18
6 2863 13
6 2864 18
6 2865 16
6 2866 89
6 2867 43
6 2868 16
6 2869 27
6 2870 23
6 2871 16
6 2872 52
6 2873 32
6 2874 17
6 2875 37
6 2876 24
6 2877 38
6 2878 37
6 2879 385
6 2880 17
6 2881 24
6 2882 27
6 2883 18
6 2884 16
6 2885 27
6 2887 15
6 2888 18
6 2889 32
6 2890 11
6 2891 22
6 2892 14
6 2893 25
6 2894 22
6 2895 35
6 2896 33
6 2897 32
6 2898 32
6 2899 17
6 2900 106
6 2901 18
6 2902 22
6 2903 24
6 2904 1
6 2905 24
6 2906 25
6 2907 22
6 2908 25
6 2909 19
6 2910 99
6 2911 54
6 2912 24
6 2913 36
6 2914 24
6 2915 15
6 2916 43
6 2917 17
6 2918 22
6 2919 23
6 2920 36
6 2921 17
6 2923 94
6 2924 18
6 2925 22
6 2926 21
6 2927 16
6 2928 16
6 2929 20
6 2930 42
6 2931 28
6 2932 43
6 2933 19
6 2934 20
6 2935 27
6 2936 43
6 2937 26
6 2938 16
6 2939 18
6 2940 27
6 2941 26
6 2942 22
6 2943 30
6 2944 26
6 2945 20
6 2946 20
6 2947 22
6 2948 22
6 2949 26
6 2950 26
6 2951 24
6 2952 17
6 2953 36
6 2954 17
6 2955 17
6 2956 13
6 2957 13
6 2958 18
6 2959 390
6 2960 29
6 2961 13
6 2962 22
6 2963 34
6 2964 12
6 2965 13
6 2966 16
6 2967 27
6 2968 25
6 2969 19
6 2970 37
6 2971 21
6 2972 24
6 2973 16
6 2974 20
6 2975 42
6 2976 17
6 2977 21
6 2978 21
6 2979 14
6 2980 10
6 2981 21
6 2982 20
6 2983 27
6 2984 21
6 2985 4
6 2986 21
6 2987 41
6 2988 33
6 2989 19
6 2990 30
6 2991 17
6 2992 21
6 2993 15
6 2994 22
6 2995 23
6 2996 14
6 2997 18
6 2999 14
6 3000 21
6 3001 16
6 3002 2
6 3003 54
6 3004 28
6 3005 28
6 3006 16
6 3007 1
6 3008 21
6 3009 26
6 3010 161
6 3011 14
6 3012 21
6 3013 5
6 3014 10
6 3015 16
6 3016 16
6 3017 20
6 3018 18
6 3019 26
6 3021 28
6 3022 20
6 3023 35
6 3024 20
6 3025 30
6 3026 17
6 3027 18
6 3028 18
6 3029 21
6 3030 14
6 3031 19
6 3032 34
6 3033 18
6 3034 22
6 3035 16
6 3036 11
6 3037 19
6 3038 42
6 3039 22
6 3040 9
6 3041 13
6 3042 33
6 3043 21
6 3044 27
6 3045 16
6 3046 10
6 3047 17
6 3048 75
6 3049 18
6 3050 26
6 3051 28
6 3052 22
6 3053 23
6 3054 19
6 3055 16
6 3056 17
6 3057 38
6 3058 28
6 3059 20
6 3060 20
6 3061 19
6 3062 27
6 3063 6
6 3064 30
6 3065 34
6 3066 23
6 3067 18
6 3068 15
6 3069 20
6 3070 50
6 3071 33
6 3072 26
6 3073 27
6 3074 16
6 3075 13
6 3076 28
6 3077 21
6 3078 63
6 3079 43
6 3080 23
6 3081 24
6 3083 13
6 3084 30
6 3085 14
6 3086 1
6 3087 33
6 3088 22
6 3089 32
6 3090 15
6 3091 20
6 3092 23
6 3093 13
6 3094 16
6 3095 46
6 3096 30
6 3097 14
6 3098 17
6 3099 34
6 3100 17
6 3101 20
6 3102 22
6 3103 25
6 3104 23
6 3105 12
6 3106 12
6 3107 25
6 3108 15
6 3109 23
6 3110 14
6 3111 11
6 3112 15
6 3113 32
6 3114 13
6 3115 13
6 3116 62
6 3117 23
6 3118 12
6 3119 25
6 3120 25
6 3121 28
6 3122 26
6 3123 18
6 3124 21
6 3125 23
6 3126 14
6 3127 19
6 3128 54
6 3129 15
6 3130 23
6 3131 23
6 3132 17
6 3133 525
6 3135 24
6 3136 639
6 3137 11
6 3138 25
6 3139 91
6 3140 28
6 3141 31
6 3142 27
6 3143 25
6 3144 21
6 3145 21
6 3146 26
6 3147 26
6 3148 18
6 3149 29
6 3150 13
6 3151 14
6 3152 14
6 3153 23
6 3154 24
6 3155 65
6 3156 17
6 3157 20
6 3158 15
6 3159 24
6 3160 30
6 3161 18
6 3162 23
6 3163 14
6 3165 15
6 3166 13
6 3167 22
6 3168 18
6 3169 17
6 3170 25
6 3171 35
6 3172 19
6 3173 19
6 3174 21
6 3175 19
6 3176 23
6 3177 17
6 3178 47
6 3179 2
6 3180 25
6 3181 137
6 3182 31
6 3183 16
6 3184 15
6 3185 25
6 3186 19
6 3187 159
6 3188 35
6 3189 21
6 3190 18
6 3191 48
6 3192 26
6 3193 19
6 3194 28
6 3195 18
6 3196 23
6 3197 22
6 3198 13
6 3199 16
6 3200 59
6 3201 15
6 3202 25
6 3203 22
6 3204 15
6 3205 24
6 3206 13
6 3207 42
6 3208 20
6 3209 35
6 3210 15
6 3211 12
6 3212 22
6 3213 24
6 3214 9
6 3215 216
6 3216 32
6 3217 44
6 3218 28
6 3219 23
6 3220 16
6 3221 11
6 3222 26
6 3223 15
6 3224 24
6 3225 16
6 3226 24
6 3227 31
6 3228 12
6 3229 111
6 3230 513
6 3231 27
6 3232 20
6 3233 11
6 3234 25
6 3235 3
6 3236 18
6 3237 33
6 3238 15
6 3239 22
6 3240 14
6 3241 27
6 3242 28
6 3243 596
6 3244 20
6 3245 54
6 3246 24
6 3247 19
6 3248 25
6 3249 19
6 3250 19
6 3251 46
6 3252 22
6 3253 25
6 3254 15
6 3255 419
6 3256 23
6 3257 13
6 3258 24
6 3259 38
6 3260 15
6 3261 42
6 3262 31
6 3263 431
6 3264 26
6 3265 22
6 3266 7
6 3267 16
6 3268 50
6 3269 24
6 3270 56
6 3271 14
6 3272 18
6 3273 41
6 3274 267
6 3275 17
6 3276 20
6 3277 22
6 3278 15
6 3279 14
6 3281 50
6 3282 14
6 3283 22
6 3284 16
6 3285 15
6 3286 10
6 3287 31
6 3288 24
6 3289 15
6 3290 21
6 3291 22
6 3292 16
6 3293 14
6 3294 21
6 3295 16
6 3296 40
6 3297 20
6 3298 23
6 3299 10
6 3300 13
6 3301 1
6 3302 39
6 3303 12
6 3304 11
6 3305 19
6 3306 21
6 3307 14
6 3308 30
6 3309 2
6 3310 18
6 3311 23
6 3312 383
6 3313 14
6 3314 9
6 3315 14
6 3316 17
6 3317 26
6 3319 129
6 3320 13
6 3321 315
6 3322 38
6 3323 36
6 3324 12
6 3325 29
6 3326 18
6 3327 40
6 3328 21
6 3329 24
6 3330 1
6 3331 19
6 3332 22
6 3333 29
6 3334 32
6 3335 17
6 3336 14
6 3337 12
6 3338 9
6 3339 19
6 3340 32
6 3341 27
6 3342 21
6 3343 10
6 3344 496
6 3345 20
6 3346 13
6 3347 23
6 3348 20
6 3349 18
6 3350 26
6 3351 15
6 3352 12
6 3353 18
6 3354 18
6 3355 18
6 3356 24
6 3357 27
6 3358 14
6 3359 23
6 3360 25
6 3361 22
6 3362 504
6 3363 24
6 3364 22
6 3365 80
6 3366 12
6 3367 10
6 3368 19
6 3369 77
6 3370 15
6 3371 16
6 3372 60
6 3373 20
6 3374 342
6 3375 16
6 3376 18
6 3377 48
6 3378 22
6 3379 13
6 3380 19
6 3381 18
6 3382 18
6 3383 25
6 3384 455
6 3385 21
6 3386 16
6 3387 24
6 3388 28
6 3389 22
6 3390 17
6 3391 44
6 3392 18
6 3393 18
6 3394 31
6 3395 21
6 3396 25
6 3397 20
6 3398 29
6 3399 108
6 3400 38
6 3401 20
6 3402 23
6 3403 41
6 3404 29
6 3405 19
6 3406 12
6 3407 29
6 3408 22
6 3409 24
6 3410 34
6 3411 23
6 3412 3
6 3413 19
6 3414 855
6 3415 15
6 3416 24
6 3417 48
6 3418 21
6 3419 15
6 3420 22
6 3421 62
6 3422 14
6 3423 17
6 3424 12
6 3425 27
6 3426 27
6 3427 98
6 3428 36
6 3429 18
6 3430 15
6 3431 19
6 3432 29
6 3433 32
6 3434 23
6 3435 46
6 3436 21
6 3437 34
6 3438 30
6 3439 13
6 3440 15
6 3441 25
6 3442 20
6 3443 60
6 3444 81
6 3445 21
6 3446 12
6 3447 17
6 3448 21
6 3449 22
6 3450 26
6 3451 27
6 3452 14
6 3453 21
6 3454 99
6 3455 32
6 3456 1
6 3457 17
6 3458 17
6 3459 39
6 3460 29
6 3461 20
6 3462 23
6 3463 20
6 3464 84
6 3465 14
6 3466 22
6 3467 13
6 3468 22
6 3469 23
6 3470 28
6 3471 303
6 3472 23
6 3473 26
6 3474 20
6 3475 40
6 3476 23
6 3477 15
6 3478 20
6 3479 17
6 3481 17
6 3482 17
6 3483 15
6 3484 31
6 3485 29
6 3486 47
6 3487 29
6 3489 460
6 3490 20
6 3491 24
6 3492 21
6 3493 10
6 3494 23
6 3495 48
6 3496 18
6 3497 21
6 3498 11
6 3499 13
6 3500 46
6 3501 22
6 3502 26
6 3503 13
6 3504 20
6 3506 2
6 3507 56
6 3508 26
6 3509 51
6 3510 21
6 3511 15
6 3512 14
6 3513 14
6 3514 17
6 3515 14
6 3516 12
6 3517 21
6 3518 31
6 3519 149
6 3520 13
6 3521 21
6 3522 19
6 3523 25
6 3524 24
6 3525 23
6 3526 11
6 3527 13
6 3528 27
6 3529 1
6 3530 24
6 3531 19
6 3532 22
6 3533 28
6 3534 22
6 3535 49
6 3536 31
6 3537 16
6 3538 17
6 3539 16
6 3540 32
6 3541 1
6 3542 58
6 3543 12
6 3544 27
6 3545 19
6 3546 11
6 3547 16
6 3548 46
6 3549 22
6 3550 22
6 3551 1
6 3552 19
6 3553 23
6 3554 32
6 3555 14
6 3556 13
6 3557 13
6 3558 19
6 3559 26
6 3560 22
6 3561 12
6 3562 23
6 3563 15
6 3564 13
6 3565 17
6 3566 26
6 3567 500
6 3568 61
6 3569 29
6 3570 22
6 3571 50
6 3572 16
6 3573 24
6 3574 25
6 3575 14
6 3576 18
6 3577 13
6 3578 23
6 3579 38
6 3580 8
6 3581 11
6 3582 17
6 3583 24
6 3584 32
6 3586 28
6 3587 45
6 3588 19
6 3589 472
6 3590 9
6 3591 25
6 3592 512
6 3593 17
6 3594 40
6 3595 18
6 3596 20
6 3597 20
6 3598 14
6 3599 31
6 3600 22
6 3601 17
6 3602 1158
6 3603 45
6 3604 31
6 3605 20
6 3606 46
6 3607 15
6 3608 27
6 3609 19
6 3610 108
6 3611 20
6 3612 32
6 3613 14
6 3614 20
6 3615 104
6 3616 31
6 3617 13
6 3618 16
6 3619 16
6 3620 37
6 3621 28
6 3622 29
6 3623 26
6 3624 28
6 3625 61
6 3626 25
6 3627 20
6 3628 15
6 3629 94
6 3630 23
6 3631 31
6 3632 12
6 3633 12
6 3634 17
6 3635 43
6 3636 27
6 3637 18
6 3638 20
6 3639 24
6 3640 39
6 3641 268
6 3642 16
6 3643 26
6 3644 17
6 3645 31
6 3646 54
6 3647 13
6 3648 21
6 3649 19
6 3650 81
6 3651 22
6 3652 15
6 3653 14
6 3654 6
6 3655 29
6 3656 24
6 3657 12
6 3658 535
6 3659 32
6 3660 19
6 3661 20
6 3662 13
6 3663 20
6 3664 48
6 3665 13
6 3666 29
6 3667 71
6 3668 25
6 3669 17
6 3670 14
6 3671 25
6 3672 21
6 3673 18
6 3674 491
6 3675 16
6 3676 19
6 3677 18
6 3678 12
6 3679 12
6 3680 23
6 3681 105
6 3682 25
6 3683 8
6 3684 11
6 3685 1
6 3686 12
6 3687 14
6 3688 18
6 3689 15
6 3690 14
6 3691 47
6 3692 30
6 3693 28
6 3694 59
6 3695 9
6 3696 13
6 3697 28
6 3698 24
6 3699 16
6 3700 25
6 3701 28
6 3703 11
6 3704 19
6 3705 17
6 3706 18
6 3707 41
6 3708 17
6 3709 25
6 3710 21
6 3711 13
6 3712 15
6 3713 14
6 3714 30
6 3715 22
6 3716 23
6 3717 14
6 3718 19
6 3719 17
6 3720 27
6 3721 11
6 3722 34
6 3723 18
6 3724 22
6 3725 61
6 3726 23
6 3727 25
6 3728 12
6 3729 19
6 3730 19
6 3731 26
6 3732 16
6 3733 25
6 3734 13
6 3735 24
6 3736 7
6 3737 9
6 3738 19
6 3739 8
6 3740 12
6 3741 21
6 3742 5
6 3743 10
6 3744 12
6 3745 16
6 3746 10
6 3747 13
6 3748 7
6 3749 9
6 3750 7
6 3751 18
6 3752 33
6 3753 35
6 3754 13
6 3755 76
6 3756 19
6 3757 9
6 3758 30
6 3759 12
6 3760 1
6 3761 11
6 3762 8
6 3763 13
6 3764 12
6 3765 55
6 3766 12
6 3767 7
6 3768 29
6 3769 11
6 3770 11
6 3771 25
6 3772 16
6 3773 17
6 3774 14
6 3775 11
6 3776 13
6 3777 8
6 3778 22
6 3779 39
6 3780 17
6 3781 16
6 3782 536
6 3783 13
6 3784 35
6 3785 12
6 3786 12
6 3787 6
6 3788 16
6 3789 1
6 3790 10
6 3791 19
6 3792 20
6 3793 9
6 3794 15
6 3795 25
6 3796 14
6 3797 15
6 3798 13
6 3799 19
6 3800 40
6 3801 30
6 3802 24
6 3803 21
6 3804 32
6 3805 18
6 3806 62
6 3807 16
6 3808 204
6 3809 14
6 3810 22
6 3811 1
6 3812 20
6 3813 20
6 3814 7
6 3815 11
6 3816 25
6 3817 9
6 3818 15
6 3819 19
6 3820 20
6 3821 22
6 3822 106
6 3823 14
6 3824 25
6 3825 396
6 3826 18
6 3827 12
6 3828 50
6 3829 28
6 3830 14
6 3831 26
6 3832 17
6 3834 2
6 3835 2
6 3836 18
6 3837 15
6 3838 10
6 3839 20
6 3840 18
6 3841 20
6 3842 38
6 3843 10
6 3845 14
6 3846 11
6 3847 14
6 3848 18
6 3849 174
6 3850 17
6 3851 16
6 3852 13
6 3853 20
6 3854 9
6 3855 15
6 3856 19
6 3857 10
6 3858 2
6 3859 18
6 3861 22
6 3862 19
6 3863 238
6 3864 14
6 3865 14
6 3866 374
6 3867 12
6 3869 37
6 3870 17
6 3871 12
6 3872 18
6 3873 62
6 3874 19
6 3875 588
6 3876 21
6 3877 22
6 3878 22
6 3879 17
6 3880 22
6 3881 17
6 3882 14
6 3883 21
6 3884 33
6 3885 40
6 3886 10
6 3887 21
6 3888 21
6 3889 20
6 3890 286
6 3891 17
6 3892 24
6 3893 18
6 3894 13
6 3895 18
6 3896 18
6 3897 14
6 3898 26
6 3899 57
6 3900 22
6 3901 20
6 3902 12
6 3903 21
6 3904 18
6 3905 22
6 3906 21
6 3907 11
6 3908 402
6 3909 19
6 3910 16
6 3911 12
6 3912 35
6 3913 18
6 3914 18
6 3915 25
6 3916 17
6 3917 21
6 3918 18
6 3919 9
6 3920 16
6 3921 17
6 3922 15
6 3923 15
6 3924 28
6 3925 20
6 3926 5668
6 3927 11
6 3928 20
6 3929 13
6 3930 129
6 3931 11
6 3932 12
6 3934 10
6 3935 11
6 3936 20
6 3937 41
6 3938 14
6 3939 9
6 3940 28
6 3941 14
6 3942 37
6 3943 18
6 3944 1
6 3945 8
6 3946 18
6 3947 13
6 3948 16
6 3949 22
6 3950 27
6 3951 14
6 3952 14
6 3953 17
6 3954 16
6 3955 21
6 3956 315
6 3957 38
6 3958 12
6 3959 20
6 3960 12
6 3961 24
6 3962 25
6 3963 10
6 3964 11
6 3965 65
6 3966 12
6 3967 24
6 3968 13
6 3969 14
6 3970 13
6 3971 1
6 3972 12
6 3973 16
6 3974 20
6 3975 13
6 3976 12
6 3977 10
6 3978 15
6 3979 472
6 3980 15
6 3981 93
6 3982 15
6 3983 14
6 3984 16
6 3985 30
6 3986 2
6 3987 46
6 3988 14
6 3989 14
6 3990 16
6 3991 9
6 3992 11
6 3993 23
6 3994 15
6 3995 15
6 3996 50
6 3997 10
6 3998 495
6 3999 114
6 4000 17
6 4001 12
6 4002 15
6 4003 20
6 4004 16
6 4005 18
6 4006 15
6 4007 18
6 4008 18
6 4009 9
6 4010 13
6 4011 16
6 4012 14
6 4013 7
6 4014 6
6 4015 14
6 4016 17
6 4017 64
6 4018 68
6 4019 53
6 4020 17
6 4021 786
6 4022 14
6 4023 21
6 4024 129
6 4025 18
6 4027 14
6 4028 15
6 4029 18
6 4030 17
6 4031 36
6 4032 25
6 4033 20
6 4034 16
6 4035 22
6 4036 422
6 4037 27
6 4038 34
6 4039 28
6 4040 21
6 4041 24
6 4042 18
6 4043 12
6 4044 21
6 4045 592
6 4046 23
6 4047 30
6 4048 23
6 4049 26
6 4050 21
6 4051 22
6 4052 14
6 4053 23
6 4054 26
6 4055 23
6 4056 30
6 4057 26
6 4058 124
6 4059 25
6 4060 25
6 4061 24
6 4062 23
6 4063 18
6 4064 25
6 4065 26
6 4066 42
6 4068 13
6 4069 41
6 4070 28
6 4071 24
6 4072 30
6 4073 2
6 4074 23
6 4075 25
6 4076 32
6 4077 36
6 4078 34
6 4079 13
6 4080 38
6 4081 28
6 4082 31
6 4084 4
6 4085 22
6 4086 31
6 4087 23
6 4088 27
6 4089 55
6 4090 30
6 4091 23
6 4092 26
6 4093 50
6 4094 19
6 4095 24
6 4096 17
6 4097 15
6 4098 38
6 4099 21
6 4100 22
6 4101 20
6 4102 25
6 4103 25
6 4104 19
6 4105 20
6 4106 29
6 4107 601
6 4108 27
6 4109 21
6 4110 27
6 4111 29
6 4112 31
6 4113 18
6 4114 162
6 4115 27
6 4116 21
6 4117 14
6 4118 1
6 4119 39
6 4120 53
6 4121 36
6 4122 50
6 4123 22
6 4124 25
6 4125 46
6 4126 45
6 4127 14
6 4128 41
6 4129 12
6 4130 28
6 4131 21
6 4132 25
6 4133 21
6 4134 83
6 4135 24
6 4136 19
6 4137 37
6 4138 43
6 4139 18
6 4140 6
6 4141 31
6 4142 40
6 4143 34
6 4144 25
6 4145 25
6 4146 43
6 4147 25
6 4148 44
6 4149 51
6 4150 22
6 4152 22
6 4153 24
6 4154 17
6 4155 20
6 4156 19
6 4157 31
6 4158 18
6 4159 79
6 4160 15
6 4161 21
6 4162 23
6 4163 29
6 4164 13
6 4165 62
6 4166 30
6 4167 26
6 4168 22
6 4169 29
6 4170 20
6 4171 48
6 4172 34
6 4173 39
6 4174 12
6 4175 806
6 4176 17
6 4177 28
6 4178 27
6 4179 22
6 4180 17
6 4181 37
6 4182 18
6 4183 53
6 4184 19
6 4185 22
6 4186 18
6 4187 24
6 4188 22
6 4189 15
6 4190 23
6 4191 21
6 4192 23
6 4193 37
6 4194 16
6 4195 31
6 4196 31
6 4197 26
6 4198 23
6 4199 386
6 4200 29
6 4201 48
6 4202 442
6 4203 58
6 4204 18
6 4205 67
6 4206 27
6 4207 25
6 4208 24
6 4209 21
6 4210 585
6 4211 27
6 4212 17
6 4213 30
6 4214 33
6 4215 16
6 4216 16
6 4217 20
6 4218 20
6 4219 24
6 4220 17
6 4221 31
6 4222 16
6 4223 24
6 4224 49
6 4225 484
6 4226 29
6 4227 19
6 4228 122
6 4229 85
6 4230 13
6 4231 23
6 4232 21
6 4233 32
6 4234 13
6 4235 27
6 4236 13
6 4237 667
6 4238 14
6 4239 17
6 4240 19
6 4242 18
6 4243 31
6 4244 25
6 4245 32
6 4246 32
6 4247 38
6 4248 17
6 4249 25
6 4251 19
6 4252 26
6 4253 155
6 4254 36
6 4255 12
6 4256 1
6 4257 17
6 4258 30
6 4259 21
6 4260 22
6 4261 741
6 4262 22
6 4263 13
6 4264 16
6 4265 31
6 4266 30
6 4267 1594
6 4268 37
6 4269 21
6 4270 23
6 4271 520
6 4272 20
6 4273 18
6 4274 32
6 4275 20
6 4276 38
6 4277 59
6 4278 19
6 4279 16
6 4280 29
6 4281 28
6 4282 31
6 4283 438
6 4284 1
6 4285 36
6 4286 43
6 4287 20
6 4288 21
6 4289 16
6 4290 23
6 4291 22
6 4292 31
6 4293 20
6 4294 35
6 4295 28
6 4296 14
6 4297 30
6 4298 22
6 4299 29
6 4300 35
6 4301 34
6 4302 25
6 4303 69
6 4305 39
6 4306 29
6 4307 24
6 4308 21
6 4309 18
6 4310 16
6 4311 45
6 4312 24
6 4313 50
6 4314 1
6 4315 19
6 4316 32
6 4318 22
6 4319 18
6 4320 29
6 4321 23
6 4322 17
6 4323 16
6 4324 177
6 4325 22
6 4326 24
6 4327 21
6 4328 20
6 4329 12
6 4331 383
6 4332 21
6 4333 26
6 4334 22
6 4335 55
6 4336 19
6 4338 37
6 4339 36
6 4340 23
6 4341 29
6 4342 22
6 4343 19
6 4344 15
6 4345 43
6 4346 29
6 4347 30
6 4348 20
6 4349 30
6 4350 28
6 4351 31
6 4352 29
6 4353 21
6 4354 49
6 4355 21
6 4356 25
6 4357 26
6 4358 31
6 4359 27
6 4360 22
6 4361 28
6 4362 15
6 4363 453
6 4364 25
6 4365 32
6 4366 38
6 4367 20
6 4368 16
6 4369 20
6 4370 44
6 4371 21
6 4372 34
6 4373 37
6 4374 225
6 4375 22
6 4376 22
6 4377 18
6 4378 557
6 4379 22
6 4380 15
6 4381 54
6 4382 26
6 4383 23
6 4384 33
6 4385 17
6 4386 54
6 4387 19
6 4388 26
6 4389 42
6 4390 41
6 4391 32
6 4392 34
6 4393 25
6 4394 23
6 4395 28
6 4396 67
6 4397 28
6 4398 25
6 4399 41
6 4400 33
6 4401 30
6 4402 24
6 4403 37
6 4404 37
6 4406 9
6 4407 25
6 4408 23
6 4409 20
6 4410 17
6 4411 6
6 4412 4
6 4413 22
6 4414 5
6 4415 21
6 4416 35
6 4417 30
6 4418 19
6 4419 19
6 4420 20
6 4421 18
6 4422 24
6 4423 24
6 4424 23
6 4425 18
6 4426 26
6 4427 36
6 4428 21
6 4429 20
6 4430 29
6 4431 28
6 4432 26
6 4433 779
6 4434 28
6 4435 12
6 4436 22
6 4437 242
6 4438 13
6 4439 45
6 4440 37
6 4441 23
6 4442 43
6 4443 40
6 4444 25
6 4445 20
6 4446 27
6 4447 54
6 4448 16
6 4449 52
6 4450 21
6 4451 28
6 4452 31
6 4453 26
6 4454 27
6 4455 25
6 4456 24
6 4457 22
6 4458 31
6 4459 1
6 4460 19
6 4461 5
6 4462 25
6 4463 55
6 4464 40
6 4466 19
6 4467 883
6 4468 13
6 4469 21
6 4470 20
6 4471 21
6 4472 29
6 4473 12
6 4474 25
6 4475 24
6 4476 29
6 4477 30
6 4478 24
6 4479 12
6 4480 39
6 4481 16
6 4482 24
6 4483 13
6 4484 1089
6 4485 14
6 4486 26
6 4487 18
6 4488 20
6 4489 45
6 4490 27
6 4491 30
6 4492 30
6 4493 20
6 4494 36
6 4495 28
6 4496 32
6 4497 25
6 4498 25
6 4499 18
6 4500 37
6 4501 18
6 4502 61
6 4503 17
6 4504 16
6 4505 24
6 4506 33
6 4507 24
6 4508 12
6 4509 18
6 4510 10
6 4511 21
6 4512 113
6 4513 33
6 4514 24
6 4515 32
6 4516 29
6 4517 15
6 4518 22
6 4519 15
6 4520 69
6 4521 22
6 4522 39
6 4523 20
6 4524 39
6 4525 26
6 4526 20
6 4527 49
6 4528 23
6 4529 31
6 4530 15
6 4531 34
6 4532 15
6 4533 25
6 4534 22
6 4536 23
6 4537 65
6 4538 25
6 4539 290
6 4540 20
6 4541 25
6 4542 36
6 4543 21
6 4544 9
6 4545 111
6 4546 18
6 4547 34
6 4548 56
6 4549 28
6 4550 24
6 4551 62
6 4552 28
6 4553 30
6 4554 30
6 4555 24
6 4556 11
6 4557 26
6 4558 79
6 4559 19
6 4560 18
6 4561 21
6 4562 23
6 4563 35
6 4564 25
6 4565 20
6 4566 31
6 4567 27
6 4568 19
6 4569 376
6 4570 28
6 4571 15
6 4572 28
6 4573 35
6 4574 20
6 4575 22
6 4576 30
6 4578 75
6 4579 23
6 4580 22
6 4582 22
6 4583 25
6 4584 26
6 4585 28
6 4586 29
6 4587 28
6 4588 19
6 4589 19
6 4590 24
6 4591 20
6 4592 32
6 4593 28
6 4594 21
6 4595 25
6 4596 24
6 4597 27
6 4598 36
6 4599 30
6 4600 24
6 4601 16
6 4602 769
6 4603 38
6 4604 24
6 4605 20
6 4606 23
6 4607 53
6 4608 29
6 4609 55
6 4610 36
6 4611 667
6 4612 25
6 4613 18
6 4614 35
6 4615 22
6 4616 28
6 4617 40
6 4618 26
6 4619 18
6 4620 38
6 4621 55
6 4623 18
6 4624 81
6 4625 451
6 4626 22
6 4627 25
6 4628 32
6 4629 55
6 4630 22
6 4631 21
6 4632 32
6 4633 61
6 4634 57
6 4635 29
6 4636 52
6 4637 17
6 4638 38
6 4639 25
6 4640 24
6 4641 22
6 4642 122
6 4643 13
6 4644 35
6 4645 28
6 4646 22
6 4647 42
6 4648 41
6 4650 19
6 4651 1
6 4653 13
6 4654 23
6 4655 16
6 4656 197
6 4657 32
6 4658 24
6 4659 45
6 4660 22
6 4661 27
6 4662 26
6 4663 33
6 4664 23
6 4665 27
6 4666 30
6 4667 21
6 4668 24
6 4669 81
6 4670 23
6 4671 17
6 4672 33
6 4673 14
6 4674 24
6 4675 29
6 4676 62
6 4677 23
6 4678 38
6 4679 17
6 4680 16
6 4681 17
6 4682 2
6 4683 63
6 4684 21
6 4685 9
6 4686 25
6 4687 34
6 4688 31
6 4689 45
6 4690 20
6 4691 20
6 4692 68
6 4693 25
6 4694 27
6 4696 33
6 4697 161
6 4698 17
6 4699 17
6 4700 1
6 4702 22
6 4703 38
6 4704 15
6 4705 30
6 4706 33
6 4707 29
6 4708 118
6 4709 28
6 4711 26
6 4712 22
6 4713 2
6 4714 18
6 4715 30
6 4716 21
6 4717 25
6 4718 50
6 4719 15
6 4720 37
6 4721 29
6 4722 24
6 4723 29
6 4724 26
6 4725 24
6 4726 15
6 4727 13
6 4728 24
6 4729 27
6 4730 20
6 4731 1
6 4732 45
6 4733 131
6 4734 13
6 4735 13
6 4736 134
6 4737 36
6 4738 39
6 4739 18
6 4740 19
6 4741 22
6 4742 26
6 4743 55
6 4744 23
6 4745 27
6 4746 30
6 4747 32
6 4748 18
6 4749 14
6 4750 31
6 4752 24
6 4753 96
6 4754 29
6 4755 21
6 4756 16
6 4757 29
6 4758 29
6 4759 16
6 4760 19
6 4761 26
6 4762 19
6 4763 26
6 4764 31
6 4765 27
6 4766 29
6 4767 193
6 4768 12
6 4769 69
6 4770 29
6 4771 28
6 4772 37
6 4773 20
6 4774 43
6 4775 68
6 4776 25
6 4777 44
6 4778 27
6 4779 20
6 4780 25
6 4781 16
6 4782 29
6 4783 35
6 4785 29
6 4786 60
6 4787 30
6 4788 29
6 4789 25
6 4790 12
6 4791 26
6 4792 38
6 4793 16
6 4794 116
6 4795 24
6 4796 58
6 4797 21
6 4798 31
6 4799 19
6 4800 32
6 4801 24
6 4802 15
6 4803 21
6 4804 25
6 4805 22
6 4806 42
6 4807 16
6 4809 20
6 4810 15
6 4811 25
6 4812 56
6 4813 21
6 4814 45
6 4815 35
6 4816 26
6 4817 43
6 4818 48
6 4819 31
6 4820 18
6 4821 18
6 4822 18
6 4823 19
6 4824 17
6 4825 27
6 4826 119
6 4827 19
6 4828 24
6 4829 32
6 4830 868
6 4831 18
6 4832 65
6 4833 23
6 4834 12
6 4835 21
6 4836 28
6 4837 21
6 4838 60
6 4839 30
6 4840 31
6 4841 32
6 4842 21
6 4843 14
6 4844 21
6 4845 32
6 4846 36
6 4847 31
6 4848 24
6 4849 33
6 4850 73
6 4851 69
6 4852 26
6 4853 23
6 4854 19
6 4855 23
6 4856 61
6 4857 30
6 4858 29
6 4859 22
6 4860 16
6 4861 438
6 4862 50
6 4863 35
6 4864 31
6 4865 38
6 4866 33
6 4867 29
6 4868 13
6 4869 678
6 4870 33
6 4871 27
6 4872 31
6 4873 17
6 4874 25
6 4875 55
6 4876 211
6 4877 32
6 4878 52
6 4879 44
6 4880 33
6 4881 28
6 4882 15
6 4883 26
6 4884 35
6 4885 24
6 4886 1
6 4887 22
6 4888 16
6 4889 32
6 4890 39
6 4891 19
6 4892 33
6 4893 22
6 4894 70
6 4895 23
6 4896 25
6 4897 21
6 4898 16
6 4899 2
6 4900 19
6 4901 29
6 4902 719
6 4903 20
6 4904 39
6 4905 31
6 4906 26
6 4907 19
6 4908 18
6 4909 35
6 4910 39
6 4911 19
6 4912 20
6 4913 61
6 4914 23
6 4915 25
6 4916 19
6 4917 31
6 4918 17
6 4919 94
6 4920 9
6 4921 24
6 4922 19
6 4923 21
6 4924 21
6 4925 15
6 4926 6
6 4927 41
6 4928 13
6 4929 22
6 4930 29
6 4931 33
6 4932 38
6 4933 27
6 4934 24
6 4935 24
6 4936 26
6 4937 23
6 4939 26
6 4940 14
6 4941 22
6 4942 20
6 4943 14
6 4944 14
6 4945 93
6 4946 17
6 4947 16
6 4949 26
6 4950 23
6 4951 19
6 4952 40
6 4953 8
6 4954 26
6 4955 20
6 4956 18
6 4957 18
6 4958 22
6 4959 253
6 4960 29
6 4961 29
6 4962 21
6 4963 29
6 4964 35
6 4965 28
6 4966 22
6 4967 19
6 4968 33
6 4969 27
6 4970 23
6 4971 11
6 4972 20
6 4973 26
6 4974 26
6 4975 31
6 4976 28
6 4977 14
6 4978 30
6 4979 25
6 4980 29
6 4981 26
6 4982 30
6 4983 1
6 4984 92
6 4985 30
6 4986 23
6 4987 12
6 4989 18
6 4990 22
6 4991 16
6 4992 20
6 4993 24
6 4994 4
6 4996 42
6 4997 24
6 4998 320
6 4999 13
6 5000 17
6 5001 40
6 5002 19
6 5003 10
6 5004 44
6 5005 20
6 5006 26
6 5007 20
6 5008 22
6 5009 17
6 5010 13
6 5011 19
6 5012 25
6 5013 27
6 5014 19
6 5015 21
6 5016 22
6 5017 16
6 5018 22
6 5019 27
6 5020 20
6 5021 23
6 5022 34
6 5023 20
6 5024 16
6 5025 31
6 5026 45
6 5027 18
6 5028 12
6 5029 53
6 5030 13
6 5031 20
6 5032 18
6 5033 14
6 5034 18
6 5035 10
6 5036 26
6 5037 31
6 5038 17
6 5039 21
6 5040 9
6 5041 1
6 5042 22
6 5043 26
6 5044 40
6 5045 20
6 5046 26
6 5047 4
6 5048 23
6 5049 18
6 5050 25
6 5051 30
6 5052 23
6 5053 14
6 5054 15
6 5055 2
6 5056 13
6 5057 13
6 5058 78
6 5059 17
6 5060 22
6 5061 23
6 5062 21
6 5063 23
6 5064 31
6 5065 31
6 5066 10
6 5067 34
6 5068 760
6 5069 9
6 5070 3
6 5071 1
6 5072 860
6 5073 16
6 5074 27
6 5075 25
6 5076 55
6 5077 23
6 5078 27
6 5079 17
6 5080 17
6 5081 25
6 5083 21
6 5084 23
6 5085 51
6 5086 556
6 5087 26
6 5088 24
6 5089 22
6 5090 21
6 5091 2
6 5092 32
6 5093 20
6 5094 47
6 5095 69
6 5096 5
6 5097 30
6 5098 23
6 5099 21
6 5100 34
6 5101 26
6 5102 20
6 5103 26
6 5104 16
6 5105 18
6 5106 26
6 5107 22
6 5108 20
6 5109 27
6 5110 18
6 5111 20
6 5112 15
6 5113 204
6 5114 1
6 5115 24
6 5116 304
6 5117 16
6 5118 86
6 5119 41
6 5120 19
6 5121 27
6 5122 27
6 5123 28
6 5124 30
6 5125 20
6 5126 13
6 5127 8
6 5128 162
6 5129 16
6 5130 34
6 5131 22
6 5132 10
6 5133 19
6 5134 18
6 5135 21
6 5136 85
6 5137 6
6 5138 1
6 5139 25
6 5140 22
6 5141 23
6 5142 1
6 5143 10
6 5144 15
6 5145 28
6 5146 18
6 5147 13
6 5148 32
6 5149 9
6 5150 30
6 5151 1
6 5152 16
6 5153 10
6 5154 18
6 5156 12
6 5157 17
6 5158 15
6 5159 19
7 1 60
7 2 34
7 3 64
7 4 43
7 5 62
7 6 69
7 7 38
7 8 1
7 9 25
7 10 21
7 11 18
7 12 17
7 13 47
7 14 21
7 15 23
7 16 26
7 17 32
7 18 39
7 19 18
7 20 34
7 21 22
7 22 26
7 23 42
7 24 21
7 25 33
7 26 40
7 27 1218
7 28 28
7 29 26
7 30 34
7 31 147
7 32 128
7 33 32
7 34 34
7 35 44
7 36 1047
7 37 577
7 38 34
7 39 28
7 40 25
7 41 36
7 42 97
7 43 21
7 44 22
7 45 29
7 46 28
7 47 27
7 48 20
7 49 44
7 50 63
7 51 31
7 52 37
7 53 64
7 54 34
7 55 41
7 56 26
7 57 42
7 58 30
7 59 47
7 60 34
7 61 29
7 62 19
7 63 28
7 64 28
7 65 58
7 66 20
7 67 47
7 68 61
7 69 89
7 70 46
7 71 30
7 72 19
7 73 36
7 74 68
7 75 90
7 76 32
7 77 42
7 78 22
7 79 27
7 80 261
7 81 20
7 82 95
7 83 19
7 84 46
7 86 22
7 87 1792
7 88 39
7 89 796
7 90 31
7 91 30
7 92 2
7 93 32
7 94 13
7 95 10
7 96 17
7 97 90
7 99 119
7 100 98
7 101 60
7 102 105
7 103 21
7 104 32
7 105 26
7 106 46
7 107 28
7 108 28
7 109 28
7 110 29
7 111 24
7 112 42
7 113 12
7 114 37
7 115 19
7 116 716
7 117 34
7 118 26
7 119 29
7 120 221
7 121 40
7 122 86
7 123 30
7 124 28
7 125 24
7 126 22
7 127 90
7 128 24
7 129 25
7 130 28
7 131 34
7 132 1
7 133 161
7 134 33
7 135 26
7 136 31
7 137 27
7 138 36
7 139 24
7 140 32
7 141 37
7 142 55
7 143 51
7 144 31
7 145 38
7 146 36
7 147 27
7 148 31
7 149 31
7 150 20
7 151 58
7 152 86
7 153 49
7 154 32
7 155 52
7 156 23
7 157 33
7 158 29
7 159 33
7 160 28
7 161 34
7 162 35
7 163 31
7 165 34
7 166 38
7 167 38
7 168 26
7 169 40
7 170 36
7 171 25
7 172 31
7 173 23
7 174 1
7 175 22
7 176 83
7 177 30
7 178 24
7 179 31
7 180 20
7 181 29
7 182 137
7 183 39
7 184 43
7 185 35
7 186 44
7 187 85
7 188 38
7 189 43
7 190 45
7 191 1
7 192 103
7 193 72
7 194 25
7 195 2
7 196 222
7 198 27
7 199 25
7 200 37
7 201 88
7 202 71
7 204 34
7 205 33
7 206 39
7 207 32
7 208 1167
7 209 39
7 210 24
7 211 56
7 212 39
7 213 29
7 214 25
7 215 39
7 216 64
7 217 31
7 218 30
7 219 51
7 220 53
7 221 25
7 222 22
7 223 167
7 224 31
7 225 1565
7 226 38
7 227 65
7 228 38
7 229 25
7 230 26
7 231 20
7 232 29
7 233 97
7 234 30
7 235 31
7 236 27
7 237 27
7 238 20
7 239 25
7 240 201
7 241 988
7 242 71
7 243 31
7 244 43
7 245 25
7 246 68
7 247 33
7 248 27
7 249 27
7 250 62
7 251 44
7 252 39
7 253 31
7 254 102
7 256 19
7 257 2
7 258 43
7 259 37
7 260 114
7 261 32
7 262 46
7 263 58
7 264 27
7 265 104
7 266 31
7 267 36
7 268 37
7 269 26
7 270 28
7 271 37
7 272 26
7 273 23
7 274 30
7 275 28
7 276 36
7 277 2
7 278 34
7 279 26
7 280 34
7 281 88
7 282 48
7 283 32
7 284 36
7 285 887
7 286 86
7 287 45
7 288 1321
7 289 752
7 290 25
7 291 2261
7 292 31
7 293 38
7 294 31
7 295 33
7 296 27
7 297 32
7 298 42
7 299 74
7 300 30
7 301 38
7 302 34
7 303 28
7 304 40
7 305 33
7 306 26
7 307 44
7 308 41
7 309 26
7 310 35
7 311 38
7 312 11
7 313 39
7 314 81
7 315 36
7 316 20
7 317 30
7 319 224
7 321 27
7 322 43
7 323 84
7 324 26
7 325 29
7 326 29
7 327 30
7 328 29
7 329 29
7 330 63
7 331 51
7 332 33
7 333 319
7 334 28
7 335 27
7 336 1143
7 338 32
7 339 292
7 340 46
7 341 855
7 342 50
7 343 70
7 344 38
7 345 108
7 346 41
7 347 40
7 348 39
7 349 33
7 350 67
7 351 32
7 352 31
7 353 45
7 355 28
7 356 34
7 357 142
7 358 26
7 359 27
7 360 29
7 361 57
7 362 45
7 363 34
7 364 115
7 365 52
7 366 73
7 367 29
7 368 56
7 369 20
7 370 35
7 371 41
7 372 43
7 373 25
7 374 33
7 375 202
7 376 19
7 377 51
7 378 28
7 379 38
7 380 36
7 381 7
7 382 37
7 383 28
7 384 33
7 385 20
7 386 163
7 387 25
7 388 35
7 389 25
7 390 28
7 391 25
7 392 54
7 393 27
7 394 56
7 395 29
7 396 1263
7 397 40
7 398 23
7 399 39
7 400 100
7 401 25
7 402 81
7 403 34
7 404 25
7 405 35
7 406 50
7 407 78
7 408 793
7 409 21
7 410 182
7 411 90
7 412 47
7 413 109
7 414 44
7 415 28
7 416 40
7 417 46
7 418 1
7 419 56
7 420 2
7 421 97
7 422 59
7 423 22
7 424 25
7 425 21
7 426 232
7 427 36
7 428 35
7 429 37
7 430 25
7 432 44
7 433 40
7 434 29
7 435 47
7 436 60
7 437 1251
7 438 32
7 439 37
7 440 39
7 441 25
7 442 34
7 443 30
7 444 40
7 445 36
7 446 35
7 447 25
7 448 36
7 449 20
7 450 21
7 451 27
7 452 19
7 453 14
7 454 35
7 455 37
7 456 42
7 457 56
7 458 59
7 459 32
7 460 49
7 461 68
7 462 156
7 463 1209
7 464 33
7 465 50
7 466 39
7 467 40
7 468 31
7 469 83
7 470 38
7 471 29
7 472 45
7 473 39
7 474 27
7 475 29
7 476 49
7 478 72
7 479 30
7 480 11
7 481 22
7 482 38
7 483 26
7 484 37
7 485 48
7 486 1788
7 487 26
7 488 81
7 489 32
7 490 40
7 491 41
7 492 50
7 493 29
7 494 2
7 495 59
7 496 42
7 497 611
7 498 31
7 499 30
7 500 36
7 501 16
7 502 35
7 503 72
7 504 38
7 505 34
7 506 21
7 507 35
7 508 33
7 509 93
7 510 227
7 511 32
7 512 130
7 513 55
7 514 33
7 515 28
7 516 29
7 517 34
7 518 30
7 519 29
7 520 79
7 521 68
7 522 21
7 523 30
7 524 210
7 525 103
7 526 35
7 527 59
7 528 58
7 529 33
7 530 58
7 531 25
7 532 29
7 533 89
7 534 1
7 535 32
7 537 29
7 538 35
7 539 47
7 540 32
7 541 27
7 542 41
7 543 68
7 544 44
7 545 28
7 546 32
7 547 34
7 548 39
7 549 23
7 550 62
7 551 190
7 552 26
7 553 59
7 554 1117
7 555 28
7 556 74
7 557 39
7 558 31
7 559 53
7 560 31
7 561 36
7 562 26
7 563 71
7 564 33
7 565 231
7 566 35
7 567 31
7 568 32
7 569 18
7 570 18
7 571 33
7 572 33
7 573 57
7 574 29
7 575 28
7 576 33
7 577 31
7 578 35
7 579 1
7 580 21
7 581 67
7 582 1
7 583 37
7 584 1524
7 586 38
7 587 25
7 588 29
7 589 46
7 590 28
7 591 25
7 592 108
7 593 29
7 594 21
7 595 42
7 596 71
7 597 38
7 598 26
7 599 410
7 600 20
7 601 28
7 602 16
7 603 1
7 604 191
7 605 20
7 606 50
7 607 841
7 608 30
7 609 1925
7 610 26
7 611 40
7 612 34
7 613 38
7 614 47
7 615 111
7 616 31
7 617 2
7 618 1
7 619 52
7 620 26
7 621 27
7 622 24
7 623 39
7 624 28
7 625 35
7 626 32
7 627 41
7 628 21
7 629 32
7 630 35
7 631 43
7 632 29
7 633 31
7 634 34
7 635 40
7 636 132
7 637 42
7 638 48
7 639 25
7 640 133
7 641 38
7 642 38
7 643 18
7 644 45
7 645 20
7 646 42
7 647 222
7 648 23
7 649 32
7 650 19
7 651 127
7 652 38
7 653 23
7 654 32
7 655 28
7 656 50
7 657 35
7 658 42
7 659 31
7 660 69
7 661 30
7 662 19
7 663 35
7 664 44
7 665 21
7 666 34
7 667 184
7 668 24
7 669 1542
7 670 39
7 671 27
7 672 53
7 673 29
7 674 46
7 675 36
7 676 76
7 677 33
7 678 37
7 679 21
7 680 42
7 681 33
7 682 40
7 683 22
7 684 31
7 685 29
7 686 37
7 687 27
7 688 37
7 689 1128
7 690 35
7 691 39
7 692 3
7 693 36
7 694 25
7 695 23
7 696 1322
7 697 28
7 698 37
7 699 72
7 700 19
7 701 38
7 702 30
7 703 35
7 704 39
7 705 38
7 706 28
7 707 29
7 708 76
7 709 27
7 710 51
7 711 30
7 712 40
7 713 10
7 714 92
7 715 10
7 716 19
7 717 15
7 718 11
7 719 23
7 720 122
7 721 830
7 722 7
7 723 10
7 724 7
7 725 5
7 726 15
7 727 15
7 728 54
7 729 24
7 730 51
7 731 59
7 732 38
7 733 34
7 734 34
7 735 27
7 736 59
7 738 78
7 739 36
7 740 28
7 741 52
7 742 28
7 743 46
7 744 44
7 745 33
7 746 61
7 748 23
7 749 1259
7 750 24
7 751 29
7 753 19
7 754 32
7 755 26
7 756 34
7 757 129
7 758 41
7 759 1416
7 760 98
7 761 1412
7 762 32
7 763 65
7 764 2079
7 765 77
7 766 30
7 767 20
7 768 44
7 769 44
7 770 34
7 771 36
7 772 42
7 773 29
7 774 58
7 775 28
7 776 145
7 777 101
7 778 33
7 779 44
7 780 30
7 781 39
7 782 28
7 783 34
7 784 14
7 785 898
7 786 18
7 787 21
7 788 51
7 789 37
7 790 29
7 791 30
7 792 35
7 793 31
7 794 21
7 795 28
7 796 34
7 797 29
7 798 51
7 799 34
7 800 87
7 801 16
7 802 327
7 803 27
7 804 705
7 805 175
7 806 244
7 807 38
7 808 31
7 809 30
7 810 21
7 811 25
7 812 48
7 813 26
7 814 59
7 815 29
7 816 32
7 817 30
7 818 55
7 819 34
7 820 35
7 821 44
7 822 98
7 823 28
7 824 38
7 825 65
7 826 14
7 827 30
7 828 26
7 829 42
7 830 30
7 831 59
7 832 24
7 833 36
7 834 30
7 835 71
7 836 24
7 837 30
7 838 35
7 839 37
7 840 51
7 841 26
7 842 48
7 843 787
7 844 34
7 845 30
7 846 15
7 847 35
7 849 25
7 850 24
7 851 111
7 852 33
7 853 40
7 854 25
7 855 29
7 856 20
7 857 32
7 858 391
7 859 32
7 860 34
7 861 29
7 862 44
7 863 22
7 864 29
7 865 33
7 867 20
7 868 2265
7 869 22
7 870 1065
7 871 34
7 872 26
7 873 34
7 874 29
7 875 45
7 876 18
7 877 38
7 878 65
7 879 24
7 880 28
7 881 1160
7 882 52
7 883 32
7 884 25
7 885 35
7 886 23
7 887 92
7 888 28
7 889 48
7 890 205
7 891 2
7 892 36
7 893 221
7 894 25
7 895 17
7 896 23
7 897 31
7 898 59
7 899 24
7 900 43
7 901 17
7 902 20
7 904 25
7 905 1
7 906 14
7 907 49
7 908 30
7 909 27
7 910 44
7 911 19
7 912 60
7 913 21
7 914 1193
7 915 24
7 916 36
7 917 33
7 918 1185
7 919 28
7 920 30
7 921 761
7 922 103
7 923 46
7 924 36
7 925 58
7 926 37
7 927 32
7 928 1869
7 929 42
7 930 26
7 931 33
7 932 320
7 933 31
7 934 889
7 935 58
7 936 25
7 937 25
7 938 76
7 939 37
7 940 28
7 941 26
7 943 21
7 944 29
7 945 25
7 946 25
7 947 25
7 948 33
7 949 1192
7 950 34
7 951 47
7 952 20
7 953 29
7 954 28
7 955 23
7 956 68
7 957 25
7 958 38
7 959 32
7 961 27
7 962 84
7 963 45
7 964 63
7 965 62
7 966 32
7 967 38
7 968 18
7 969 1
7 970 32
7 971 186
7 972 39
7 973 27
7 974 31
7 975 1413
7 976 2
7 977 36
7 978 68
7 979 18
7 980 29
7 981 39
7 982 32
7 983 37
7 984 22
7 985 120
7 986 41
7 987 134
7 988 36
7 989 36
7 990 61
7 991 1
7 992 229
7 993 38
7 994 50
7 995 36
7 996 17
7 997 52
7 998 80
7 999 30
7 1000 36
7 1001 35
7 1002 38
7 1003 25
7 1004 26
7 1005 29
7 1006 21
7 1007 34
7 1008 19
7 1009 35
7 1010 24
7 1011 36
7 1012 28
7 1013 26
7 1014 177
7 1015 28
7 1016 25
7 1017 25
7 1018 32
7 1019 29
7 1020 37
7 1021 1
7 1022 35
7 1023 29
7 1024 41
7 1025 30
7 1026 2
7 1027 33
7 1028 30
7 1029 65
7 1030 23
7 1031 37
7 1032 65
7 1033 31
7 1034 105
7 1035 43
7 1036 35
7 1037 49
7 1038 37
7 1039 24
7 1040 34
7 1041 20
7 1042 36
7 1043 64
7 1044 50
7 1045 26
7 1046 30
7 1047 23
7 1048 20
7 1049 27
7 1050 30
7 1051 133
7 1052 48
7 1053 22
7 1054 28
7 1055 34
7 1056 23
7 1057 24
7 1058 25
7 1059 27
7 1060 34
7 1061 36
7 1062 46
7 1063 37
7 1064 33
7 1065 30
7 1066 23
7 1067 1267
7 1068 39
7 1069 17
7 1070 35
7 1071 20
7 1072 18
7 1073 14
7 1075 34
7 1076 87
7 1077 32
7 1079 21
7 1080 52
7 1081 145
7 1082 17
7 1083 30
7 1084 40
7 1085 41
7 1086 26
7 1087 55
7 1088 28
7 1089 36
7 1090 16
7 1091 24
7 1092 29
7 1093 55
7 1094 20
7 1096 148
7 1097 26
7 1098 47
7 1099 29
7 1100 25
7 1101 94
7 1102 29
7 1103 17
7 1104 38
7 1105 23
7 1106 42
7 1107 32
7 1108 19
7 1109 26
7 1110 36
7 1111 29
7 1112 25
7 1113 33
7 1114 879
7 1115 30
7 1116 25
7 1117 26
7 1118 31
7 1119 47
7 1120 25
7 1121 27
7 1122 38
7 1123 32
7 1124 139
7 1125 27
7 1126 20
7 1127 29
7 1128 29
7 1129 36
7 1130 34
7 1131 25
7 1132 31
7 1133 19
7 1134 53
7 1135 17
7 1136 124
7 1137 35
7 1138 35
7 1139 121
7 1140 20
7 1141 24
7 1142 31
7 1143 40
7 1144 31
7 1145 46
7 1146 82
7 1147 32
7 1148 25
7 1149 49
7 1150 119
7 1151 33
7 1152 50
7 1153 34
7 1154 1536
7 1155 185
7 1156 115
7 1157 33
7 1158 32
7 1159 32
7 1160 45
7 1162 39
7 1163 281
7 1164 32
7 1165 28
7 1166 82
7 1167 1
7 1168 24
7 1169 19
7 1170 33
7 1171 20
7 1172 53
7 1173 268
7 1174 134
7 1175 57
7 1176 64
7 1177 19
7 1179 42
7 1180 35
7 1181 43
7 1182 57
7 1183 12
7 1184 24
7 1185 60
7 1186 28
7 1187 40
7 1188 30
7 1189 47
7 1190 35
7 1191 48
7 1192 38
7 1193 39
7 1194 30
7 1195 41
7 1196 52
7 1197 41
7 1198 27
7 1199 39
7 1201 1
7 1202 1
7 1203 1
7 1204 25
7 1205 35
7 1206 35
7 1207 24
7 1209 31
7 1210 41
7 1211 39
7 1213 1
7 1214 39
7 1215 215
7 1216 31
7 1217 42
7 1218 31
7 1219 1
7 1220 29
7 1221 30
7 1222 57
7 1223 20
7 1224 105
7 1225 26
7 1226 27
7 1227 25
7 1228 41
7 1229 53
7 1230 1271
7 1232 50
7 1233 30
7 1234 32
7 1235 21
7 1236 95
7 1237 43
7 1238 46
7 1239 31
7 1240 47
7 1241 37
7 1242 37
7 1243 45
7 1244 40
7 1245 210
7 1246 25
7 1247 21
7 1248 41
7 1249 27
7 1250 24
7 1251 1
7 1252 26
7 1253 39
7 1254 40
7 1255 31
7 1256 34
7 1257 59
7 1258 30
7 1259 35
7 1260 47
7 1261 1101
7 1262 36
7 1263 25
7 1264 38
7 1265 142
7 1266 60
7 1267 42
7 1268 187
7 1269 86
7 1270 37
7 1271 41
7 1272 47
7 1273 1204
7 1274 48
7 1275 17
7 1276 49
7 1277 34
7 1278 28
7 1279 54
7 1280 39
7 1281 36
7 1282 35
7 1283 45
7 1284 35
7 1285 60
7 1286 28
7 1287 36
7 1288 25
7 1289 40
7 1290 38
7 1291 62
7 1292 32
7 1293 39
7 1294 34
7 1295 29
7 1296 1
7 1297 39
7 1298 24
7 1299 25
7 1300 30
7 1301 30
7 1302 35
7 1303 34
7 1304 1427
7 1305 27
7 1306 33
7 1307 164
7 1308 96
7 1309 30
7 1310 20
7 1311 41
7 1312 60
7 1313 29
7 1314 32
7 1315 55
7 1316 3
7 1317 39
7 1318 23
7 1319 26
7 1320 39
7 1321 43
7 1322 30
7 1323 45
7 1324 48
7 1325 40
7 1326 33
7 1327 98
7 1328 1220
7 1329 649
7 1330 31
7 1331 30
7 1332 35
7 1333 40
7 1334 28
7 1335 35
7 1336 1405
7 1337 33
7 1338 1305
7 1339 49
7 1340 39
7 1341 43
7 1342 22
7 1343 34
7 1344 31
7 1345 29
7 1346 67
7 1347 37
7 1348 23
7 1349 1
7 1350 37
7 1351 34
7 1352 36
7 1353 38
7 1356 39
7 1357 33
7 1358 150
7 1359 101
7 1360 32
7 1361 27
7 1362 36
7 1363 37
7 1364 31
7 1365 36
7 1366 43
7 1367 96
7 1368 27
7 1369 20
7 1370 72
7 1371 38
7 1373 75
7 1374 20
7 1375 44
7 1376 40
7 1377 29
7 1378 97
7 1379 33
7 1380 22
7 1382 67
7 1383 47
7 1384 5
7 1385 34
7 1386 75
7 1388 41
7 1389 36
7 1390 36
7 1391 22
7 1392 39
7 1393 24
7 1394 39
7 1395 27
7 1396 48
7 1397 48
7 1398 36
7 1399 27
7 1400 177
7 1401 56
7 1402 1253
7 1403 24
7 1404 22
7 1405 45
7 1406 35
7 1407 3
7 1408 93
7 1409 30
7 1410 29
7 1411 37
7 1413 37
7 1414 36
7 1415 36
7 1416 24
7 1417 39
7 1418 32
7 1419 44
7 1420 24
7 1421 37
7 1422 26
7 1423 35
7 1424 17
7 1425 33
7 1426 26
7 1427 21
7 1428 37
7 1430 256
7 1431 25
7 1432 20
7 1433 49
7 1434 20
7 1435 66
7 1436 26
7 1437 30
7 1438 22
7 1439 38
7 1440 36
7 1441 32
7 1442 30
7 1443 31
7 1444 39
7 1445 25
7 1446 27
7 1447 156
7 1448 23
7 1449 31
7 1450 1
7 1451 49
7 1452 24
7 1453 27
7 1454 40
7 1455 22
7 1456 39
7 1457 23
7 1458 42
7 1459 36
7 1460 44
7 1461 20
7 1462 25
7 1463 33
7 1464 15
7 1466 28
7 1467 77
7 1468 36
7 1469 32
7 1470 39
7 1471 63
7 1472 26
7 1473 32
7 1474 24
7 1475 33
7 1476 28
7 1477 997
7 1478 43
7 1479 22
7 1480 35
7 1481 39
7 1482 20
7 1483 34
7 1484 34
7 1485 31
7 1486 22
7 1487 28
7 1488 171
7 1489 24
7 1490 53
7 1491 33
7 1492 25
7 1493 44
7 1494 31
7 1495 27
7 1496 23
7 1497 255
7 1498 52
7 1499 28
7 1500 124
7 1501 1
7 1502 24
7 1503 45
7 1504 32
7 1505 32
7 1506 60
7 1507 70
7 1508 28
7 1510 89
7 1511 18
7 1512 47
7 1513 1
7 1514 35
7 1515 48
7 1516 738
7 1517 41
7 1518 33
7 1519 37
7 1520 42
7 1521 28
7 1522 63
7 1523 67
7 1524 61
7 1525 100
7 1526 14
7 1527 53
7 1528 38
7 1529 33
7 1530 46
7 1531 37
7 1532 30
7 1533 194
7 1534 35
7 1535 25
7 1536 43
7 1537 32
7 1538 30
7 1539 35
7 1540 52
7 1541 33
7 1542 59
7 1543 40
7 1544 1881
7 1545 70
7 1546 39
7 1547 57
7 1548 211
7 1549 44
7 1550 52
7 1551 11
7 1552 40
7 1553 27
7 1554 43
7 1555 31
7 1556 24
7 1557 30
7 1558 31
7 1559 1
7 1560 32
7 1561 32
7 1562 32
7 1563 33
7 1564 34
7 1565 24
7 1566 35
7 1567 34
7 1568 1144
7 1569 65
7 1570 34
7 1571 35
7 1572 106
7 1573 32
7 1574 38
7 1575 45
7 1576 210
7 1577 68
7 1578 32
7 1579 28
7 1580 82
7 1581 61
7 1582 39
7 1583 48
7 1584 40
7 1585 49
7 1586 27
7 1587 25
7 1588 35
7 1589 34
7 1590 32
7 1591 83
7 1592 48
7 1593 17
7 1594 59
7 1595 30
7 1596 26
7 1597 35
7 1598 28
7 1599 34
7 1600 35
7 1601 30
7 1602 47
7 1603 75
7 1605 1805
7 1606 40
7 1607 23
7 1608 29
7 1609 23
7 1611 27
7 1612 77
7 1613 39
7 1614 26
7 1615 61
7 1616 18
7 1617 35
7 1618 99
7 1619 39
7 1620 1
7 1621 45
7 1622 41
7 1623 3796
7 1624 27
7 1625 31
7 1626 34
7 1627 37
7 1628 27
7 1629 23
7 1630 43
7 1631 42
7 1632 30
7 1633 21
7 1634 35
7 1635 37
7 1636 1690
7 1637 177
7 1638 40
7 1639 28
7 1640 34
7 1641 34
7 1642 25
7 1643 37
7 1644 31
7 1645 1033
7 1646 32
7 1647 32
7 1648 115
7 1649 70
7 1650 24
7 1651 47
7 1652 54
7 1653 1303
7 1654 45
7 1655 43
7 1656 86
7 1657 27
7 1658 22
7 1659 57
7 1660 19
7 1661 21
7 1662 36
7 1663 3
7 1664 35
7 1665 84
7 1666 28
7 1667 43
7 1668 48
7 1669 39
7 1670 25
7 1671 38
7 1672 185
7 1673 32
7 1674 28
7 1675 62
7 1676 36
7 1677 27
7 1678 28
7 1679 270
7 1680 29
7 1681 27
7 1682 25
7 1683 38
7 1684 29
7 1685 32
7 1686 38
7 1687 77
7 1688 37
7 1689 221
7 1690 20
7 1691 61
7 1692 34
7 1693 168
7 1694 33
7 1695 31
7 1696 9
7 1697 31
7 1698 2
7 1699 25
7 1700 46
7 1701 75
7 1702 31
7 1703 55
7 1704 26
7 1705 21
7 1706 47
7 1707 75
7 1708 1
7 1709 29
7 1710 38
7 1711 55
7 1712 39
7 1713 50
7 1714 22
7 1715 31
7 1716 491
7 1717 54
7 1718 129
7 1719 30
7 1720 119
7 1721 54
7 1722 245
7 1723 25
7 1724 95
7 1725 22
7 1726 29
7 1727 23
7 1728 37
7 1729 42
7 1730 29
7 1731 36
7 1732 33
7 1733 25
7 1734 63
7 1735 5
7 1736 10
7 1737 127
7 1738 25
7 1739 29
7 1740 36
7 1741 27
7 1742 163
7 1743 29
7 1744 26
7 1745 24
7 1746 1
7 1747 24
7 1748 37
7 1749 31
7 1750 24
7 1751 40
7 1752 92
7 1753 35
7 1754 26
7 1755 32
7 1756 67
7 1757 35
7 1758 28
7 1759 37
7 1760 26
7 1761 28
7 1762 42
7 1763 27
7 1764 61
7 1765 34
7 1766 25
7 1767 27
7 1768 24
7 1769 37
7 1770 29
7 1771 33
7 1772 26
7 1773 72
7 1774 28
7 1775 32
7 1776 1
7 1777 63
7 1778 32
7 1779 44
7 1780 32
7 1781 36
7 1782 38
7 1783 112
7 1784 31
7 1785 25
7 1786 111
7 1787 786
7 1788 27
7 1789 36
7 1790 46
7 1791 36
7 1792 36
7 1793 29
7 1794 31
7 1795 23
7 1796 47
7 1797 46
7 1799 27
7 1800 43
7 1801 20
7 1802 27
7 1803 107
7 1804 25
7 1805 33
7 1806 1572
7 1807 27
7 1809 23
7 1810 32
7 1811 34
7 1812 24
7 1813 20
7 1814 39
7 1815 113
7 1816 13
7 1817 36
7 1818 40
7 1819 33
7 1820 36
7 1821 45
7 1822 22
7 1823 34
7 1824 33
7 1825 40
7 1826 28
7 1827 17
7 1828 50
7 1829 34
7 1830 33
7 1831 27
7 1832 23
7 1833 37
7 1834 18
7 1835 29
7 1836 16
7 1837 40
7 1838 25
7 1839 1400
7 1840 35
7 1841 63
7 1842 59
7 1843 24
7 1844 27
7 1846 28
7 1847 15
7 1848 25
7 1849 137
7 1850 26
7 1851 30
7 1852 26
7 1853 29
7 1854 31
7 1855 61
7 1856 63
7 1857 42
7 1858 28
7 1859 18
7 1861 37
7 1862 38
7 1863 28
7 1864 34
7 1865 25
7 1866 25
7 1867 32
7 1868 31
7 1869 36
7 1870 61
7 1871 21
7 1872 32
7 1874 41
7 1875 26
7 1876 37
7 1877 1086
7 1878 32
7 1879 37
7 1880 833
7 1881 78
7 1882 25
7 1884 56
7 1885 25
7 1886 226
7 1887 32
7 1888 36
7 1889 20
7 1890 23
7 1891 39
7 1892 1669
7 1893 201
7 1894 35
7 1895 115
7 1896 37
7 1897 48
7 1898 24
7 1899 1
7 1900 52
7 1901 36
7 1902 41
7 1903 754
7 1904 42
7 1905 18
7 1906 29
7 1907 1343
7 1908 30
7 1909 605
7 1910 53
7 1911 42
7 1912 50
7 1913 23
7 1914 177
7 1915 29
7 1916 27
7 1917 43
7 1918 195
7 1919 32
7 1920 111
7 1921 39
7 1922 32
7 1923 58
7 1924 30
7 1925 19
7 1926 40
7 1927 13
7 1928 44
7 1929 32
7 1930 93
7 1931 22
7 1932 22
7 1933 25
7 1934 50
7 1935 22
7 1936 33
7 1937 53
7 1938 30
7 1939 28
7 1940 33
7 1941 27
7 1942 34
7 1943 45
7 1944 51
7 1945 56
7 1946 155
7 1947 185
7 1948 28
7 1949 52
7 1950 31
7 1951 37
7 1952 27
7 1953 56
7 1954 57
7 1955 52
7 1956 33
7 1957 109
7 1958 2
7 1959 1
7 1960 33
7 1961 32
7 1962 35
7 1963 30
7 1964 38
7 1965 37
7 1966 40
7 1967 1
7 1968 43
7 1969 61
7 1970 92
7 1971 26
7 1972 22
7 1973 27
7 1974 61
7 1975 60
7 1976 24
7 1977 41
7 1978 66
7 1979 92
7 1980 23
7 1981 33
7 1982 35
7 1983 1260
7 1984 44
7 1985 34
7 1986 182
7 1987 43
7 1988 227
7 1989 34
7 1990 63
7 1991 45
7 1992 25
7 1993 53
7 1994 36
7 1995 24
7 1996 31
7 1997 24
7 1998 26
7 1999 58
7 2000 32
7 2001 38
7 2002 28
7 2003 27
7 2004 25
7 2005 32
7 2006 30
7 2007 48
7 2008 25
7 2009 30
7 2011 22
7 2012 52
7 2013 85
7 2014 32
7 2015 37
7 2016 90
7 2017 28
7 2018 24
7 2019 30
7 2020 38
7 2021 22
7 2022 34
7 2023 38
7 2024 35
7 2025 29
7 2026 29
7 2027 33
7 2028 30
7 2029 50
7 2030 33
7 2031 332
7 2032 26
7 2033 23
7 2034 35
7 2035 40
7 2036 116
7 2037 40
7 2038 25
7 2039 24
7 2040 39
7 2041 25
7 2042 10
7 2043 151
7 2044 25
7 2045 267
7 2046 38
7 2047 1109
7 2048 24
7 2049 27
7 2050 29
7 2051 21
7 2052 19
7 2053 18
7 2054 46
7 2055 47
7 2056 33
7 2057 34
7 2058 69
7 2059 35
7 2060 33
7 2061 160
7 2062 30
7 2063 33
7 2064 76
7 2065 125
7 2066 28
7 2067 34
7 2068 37
7 2069 34
7 2070 32
7 2071 190
7 2072 37
7 2073 217
7 2074 36
7 2075 31
7 2076 1
7 2077 28
7 2078 43
7 2079 40
7 2080 21
7 2081 1142
7 2082 26
7 2083 36
7 2084 38
7 2085 40
7 2086 20
7 2087 37
7 2088 18
7 2089 13
7 2090 94
7 2091 100
7 2092 15
7 2093 38
7 2094 28
7 2095 796
7 2096 51
7 2097 26
7 2098 46
7 2099 1
7 2100 36
7 2101 22
7 2102 42
7 2103 33
7 2104 8
7 2105 30
7 2106 32
7 2107 33
7 2108 36
7 2109 20
7 2110 71
7 2111 48
7 2112 24
7 2113 37
7 2114 30
7 2116 35
7 2117 28
7 2118 30
7 2120 61
7 2121 26
7 2122 96
7 2123 54
7 2124 44
7 2125 24
7 2126 1238
7 2127 29
7 2128 27
7 2129 25
7 2130 33
7 2131 1
7 2132 31
7 2133 31
7 2134 31
7 2135 18
7 2136 27
7 2137 18
7 2138 20
7 2139 48
7 2140 120
7 2141 1
7 2142 28
7 2143 28
7 2144 50
7 2145 28
7 2146 23
7 2147 72
7 2148 34
7 2149 51
7 2150 32
7 2151 43
7 2152 45
7 2153 33
7 2154 26
7 2155 120
7 2156 65
7 2157 17
7 2158 48
7 2159 23
7 2160 502
7 2161 28
7 2162 28
7 2163 39
7 2164 19
7 2165 24
7 2166 171
7 2167 34
7 2168 205
7 2169 20
7 2170 32
7 2171 30
7 2172 53
7 2173 18
7 2174 35
7 2175 38
7 2176 21
7 2177 32
7 2178 29
7 2179 613
7 2180 19
7 2181 50
7 2184 31
7 2185 34
7 2186 44
7 2187 155
7 2188 31
7 2189 195
7 2191 26
7 2192 28
7 2193 35
7 2194 25
7 2195 56
7 2196 27
7 2197 29
7 2198 35
7 2199 25
7 2200 26
7 2201 45
7 2202 82
7 2203 48
7 2205 29
7 2206 35
7 2207 29
7 2208 31
7 2209 81
7 2210 20
7 2211 39
7 2212 26
7 2213 21
7 2214 23
7 2215 76
7 2216 44
7 2217 25
7 2218 16
7 2219 44
7 2220 30
7 2221 36
7 2222 3
7 2223 14
7 2224 31
7 2225 5
7 2226 1
7 2227 6
7 2229 3
7 2230 3
7 2231 2
7 2232 4
7 2233 3
7 2235 1
7 2236 1
7 2237 2
7 2238 864
7 2239 27
7 2240 51
7 2241 15
7 2242 23
7 2243 15
7 2244 16
7 2245 23
7 2246 16
7 2247 19
7 2248 20
7 2249 12
7 2250 33
7 2251 25
7 2252 12
7 2253 26
7 2254 15
7 2255 35
7 2256 60
7 2257 58
7 2258 76
7 2259 31
7 2260 72
7 2261 41
7 2262 32
7 2263 25
7 2264 36
7 2265 30
7 2266 34
7 2267 25
7 2268 40
7 2269 102
7 2270 1402
7 2271 25
7 2272 35
7 2273 28
7 2274 113
7 2275 20
7 2276 83
7 2277 29
7 2278 26
7 2279 49
7 2280 24
7 2281 26
7 2282 39
7 2283 31
7 2284 26
7 2286 1139
7 2287 58
7 2288 266
7 2289 41
7 2290 21
7 2291 723
7 2292 79
7 2293 25
7 2294 52
7 2295 34
7 2296 1257
7 2297 27
7 2298 895
7 2299 27
7 2300 98
7 2301 29
7 2302 43
7 2303 56
7 2304 31
7 2305 1
7 2306 70
7 2307 37
7 2308 28
7 2309 24
7 2310 29
7 2311 28
7 2312 28
7 2313 31
7 2314 31
7 2315 33
7 2317 34
7 2318 30
7 2320 31
7 2321 47
7 2322 24
7 2323 118
7 2324 257
7 2325 49
7 2326 39
7 2327 29
7 2328 26
7 2329 41
7 2330 2800
7 2331 43
7 2332 71
7 2333 32
7 2334 46
7 2335 31
7 2336 32
7 2337 27
7 2338 33
7 2339 55
7 2340 33
7 2341 28
7 2342 31
7 2343 37
7 2344 260
7 2345 23
7 2347 2
7 2348 97
7 2349 36
7 2350 75
7 2351 30
7 2352 30
7 2353 60
7 2354 28
7 2355 122
7 2356 31
7 2357 29
7 2358 45
7 2359 158
7 2360 31
7 2361 23
7 2362 32
7 2363 28
7 2364 9
7 2365 29
7 2366 46
7 2367 26
7 2368 20
7 2369 47
7 2370 27
7 2371 39
7 2372 29
7 2373 25
7 2374 22
7 2375 19
7 2376 37
7 2377 30
7 2378 19
7 2379 21
7 2380 41
7 2381 52
7 2382 26
7 2383 29
7 2384 3
7 2385 54
7 2386 22
7 2387 161
7 2388 40
7 2390 57
7 2391 1439
7 2392 38
7 2393 33
7 2394 35
7 2396 82
7 2397 28
7 2398 48
7 2399 28
7 2400 42
7 2401 31
7 2402 39
7 2403 26
7 2404 61
7 2405 21
7 2406 32
7 2407 106
7 2408 24
7 2409 57
7 2410 63
7 2411 41
7 2412 35
7 2413 41
7 2414 34
7 2415 140
7 2416 54
7 2417 34
7 2418 34
7 2419 17
7 2420 33
7 2421 33
7 2422 23
7 2423 11
7 2424 42
7 2425 43
7 2426 25
7 2427 28
7 2428 23
7 2429 124
7 2430 134
7 2431 35
7 2432 33
7 2433 80
7 2434 25
7 2435 35
7 2436 33
7 2437 34
7 2438 44
7 2439 23
7 2440 44
7 2441 24
7 2442 29
7 2443 41
7 2444 53
7 2445 30
7 2446 42
7 2447 26
7 2448 67
7 2449 32
7 2450 35
7 2451 27
7 2452 53
7 2453 38
7 2454 35
7 2455 25
7 2456 41
7 2457 45
7 2458 25
7 2459 29
7 2460 47
7 2461 1339
7 2462 30
7 2463 84
7 2464 27
7 2465 24
7 2466 42
7 2467 92
7 2468 31
7 2469 31
7 2470 26
7 2471 30
7 2473 25
7 2474 22
7 2475 35
7 2476 37
7 2477 24
7 2478 35
7 2479 30
7 2480 30
7 2481 38
7 2482 1201
7 2483 29
7 2484 32
7 2485 59
7 2486 32
7 2487 13
7 2488 29
7 2489 52
7 2490 36
7 2491 32
7 2492 25
7 2493 20
7 2494 32
7 2495 28
7 2496 35
7 2497 36
7 2498 29
7 2499 77
7 2500 38
7 2501 27
7 2502 33
7 2503 45
7 2504 22
7 2505 37
7 2506 49
7 2507 98
7 2508 35
7 2509 24
7 2510 276
7 2511 35
7 2512 22
7 2513 64
7 2514 21
7 2515 28
7 2516 23
7 2517 99
7 2518 37
7 2519 35
7 2520 37
7 2521 1396
7 2522 53
7 2523 28
7 2524 33
7 2525 1118
7 2526 39
7 2527 36
7 2528 22
7 2530 28
7 2531 33
7 2532 31
7 2533 28
7 2534 26
7 2535 32
7 2536 33
7 2537 52
7 2538 19
7 2539 75
7 2540 1769
7 2541 45
7 2542 29
7 2543 97
7 2544 29
7 2545 38
7 2546 49
7 2547 38
7 2548 38
7 2549 25
7 2550 40
7 2552 45
7 2553 30
7 2554 1318
7 2555 34
7 2556 31
7 2557 51
7 2558 24
7 2559 23
7 2560 51
7 2561 1
7 2562 28
7 2563 32
7 2564 29
7 2565 31
7 2566 37
7 2567 34
7 2568 31
7 2569 37
7 2570 47
7 2571 33
7 2572 35
7 2573 35
7 2574 60
7 2575 39
7 2576 3
7 2577 46
7 2578 35
7 2579 120
7 2580 1
7 2581 11
7 2582 39
7 2583 31
7 2584 28
7 2586 47
7 2587 34
7 2588 58
7 2589 19
7 2590 26
7 2591 21
7 2592 20
7 2593 62
7 2594 27
7 2595 44
7 2596 25
7 2597 21
7 2598 18
7 2600 20
7 2601 29
7 2602 33
7 2603 48
7 2604 39
7 2605 26
7 2606 28
7 2607 52
7 2608 81
7 2609 36
7 2610 28
7 2611 21
7 2612 21
7 2613 28
7 2614 27
7 2615 85
7 2616 29
7 2617 43
7 2618 26
7 2619 26
7 2620 29
7 2621 23
7 2622 29
7 2623 26
7 2624 119
7 2625 44
7 2626 47
7 2627 29
7 2628 23
7 2629 68
7 2630 30
7 2631 44
7 2632 165
7 2633 38
7 2634 26
7 2635 8
7 2636 25
7 2637 32
7 2638 25
7 2639 43
7 2640 30
7 2641 35
7 2642 33
7 2643 46
7 2644 27
7 2645 28
7 2646 25
7 2647 18
7 2648 34
7 2649 30
7 2651 37
7 2652 38
7 2653 21
7 2654 31
7 2655 27
7 2656 20
7 2657 32
7 2658 39
7 2659 33
7 2660 35
7 2661 28
7 2662 19
7 2663 32
7 2664 34
7 2665 30
7 2666 4163
7 2667 146
7 2668 28
7 2669 26
7 2670 29
7 2671 1013
7 2672 30
7 2673 38
7 2674 23
7 2675 18
7 2676 37
7 2677 35
7 2678 25
7 2679 28
7 2680 29
7 2681 1
7 2682 41
7 2683 3
7 2684 1363
7 2685 302
7 2686 37
7 2687 25
7 2688 38
7 2689 31
7 2690 32
7 2691 30
7 2692 27
7 2693 27
7 2694 19
7 2695 37
7 2696 159
7 2697 30
7 2698 26
7 2699 17
7 2700 19
7 2701 50
7 2703 7
7 2704 25
7 2705 23
7 2706 16
7 2707 25
7 2708 26
7 2709 29
7 2710 15
7 2711 31
7 2712 45
7 2713 53
7 2714 504
7 2715 47
7 2716 24
7 2717 30
7 2718 30
7 2719 90
7 2721 33
7 2722 34
7 2723 43
7 2724 17
7 2725 23
7 2726 21
7 2727 85
7 2728 67
7 2729 28
7 2730 25
7 2731 33
7 2732 26
7 2733 219
7 2734 20
7 2735 40
7 2737 16
7 2738 32
7 2739 26
7 2740 36
7 2741 52
7 2742 1279
7 2743 22
7 2744 22
7 2745 26
7 2746 17
7 2747 37
7 2748 34
7 2749 22
7 2750 4
7 2751 38
7 2752 20
7 2753 46
7 2754 48
7 2755 19
7 2756 34
7 2757 26
7 2758 22
7 2759 480
7 2760 36
7 2761 19
7 2762 25
7 2763 35
7 2764 1
7 2765 27
7 2766 1246
7 2767 23
7 2768 18
7 2769 35
7 2770 22
7 2771 27
7 2772 25
7 2773 23
7 2774 25
7 2775 17
7 2776 19
7 2777 24
7 2778 22
7 2779 23
7 2780 1268
7 2781 19
7 2782 20
7 2783 21
7 2784 28
7 2785 16
7 2786 25
7 2787 27
7 2788 31
7 2789 51
7 2790 32
7 2791 34
7 2792 94
7 2793 32
7 2794 46
7 2795 60
7 2796 28
7 2797 27
7 2798 27
7 2799 29
7 2800 28
7 2801 44
7 2802 23
7 2803 20
7 2804 19
7 2805 44
7 2806 27
7 2807 38
7 2808 26
7 2809 58
7 2810 1279
7 2811 15
7 2812 35
7 2813 30
7 2814 21
7 2815 19
7 2816 241
7 2817 30
7 2818 95
7 2819 42
7 2820 34
7 2821 89
7 2822 27
7 2823 24
7 2824 17
7 2825 58
7 2826 24
7 2827 27
7 2828 25
7 2829 47
7 2830 67
7 2831 19
7 2832 64
7 2833 17
7 2834 23
7 2835 28
7 2836 129
7 2837 33
7 2838 32
7 2839 49
7 2840 12
7 2841 24
7 2843 22
7 2844 39
7 2845 22
7 2846 76
7 2847 80
7 2848 30
7 2849 45
7 2850 28
7 2851 22
7 2852 18
7 2853 28
7 2854 49
7 2855 107
7 2856 23
7 2857 21
7 2858 18
7 2859 29
7 2860 1
7 2861 21
7 2862 27
7 2863 104
7 2864 21
7 2865 496
7 2866 91
7 2867 31
7 2868 25
7 2869 16
7 2870 28
7 2871 24
7 2872 26
7 2873 19
7 2874 32
7 2875 48
7 2876 36
7 2877 30
7 2878 122
7 2879 41
7 2880 26
7 2881 31
7 2882 25
7 2883 24
7 2884 19
7 2885 27
7 2887 93
7 2888 88
7 2889 29
7 2890 17
7 2891 590
7 2892 27
7 2893 31
7 2894 25
7 2895 176
7 2896 28
7 2897 18
7 2898 28
7 2899 25
7 2900 25
7 2901 28
7 2902 28
7 2903 24
7 2904 1
7 2905 39
7 2906 21
7 2907 30
7 2908 9
7 2909 30
7 2910 43
7 2911 36
7 2912 23
7 2913 43
7 2914 28
7 2915 21
7 2916 86
7 2917 34
7 2918 27
7 2919 37
7 2920 20
7 2921 92
7 2922 2
7 2923 29
7 2924 564
7 2925 35
7 2926 72
7 2927 25
7 2928 23
7 2929 18
7 2930 43
7 2931 37
7 2932 44
7 2933 25
7 2934 44
7 2935 23
7 2936 57
7 2937 51
7 2938 14
7 2939 27
7 2940 26
7 2941 40
7 2942 31
7 2943 26
7 2944 20
7 2945 24
7 2946 964
7 2947 18
7 2948 18
7 2949 29
7 2950 15
7 2951 819
7 2952 18
7 2953 41
7 2954 132
7 2955 30
7 2956 32
7 2957 20
7 2958 15
7 2959 41
7 2960 120
7 2961 29
7 2962 28
7 2963 36
7 2964 23
7 2965 29
7 2966 23
7 2967 22
7 2968 32
7 2969 25
7 2970 86
7 2971 19
7 2972 38
7 2973 21
7 2974 19
7 2975 40
7 2976 34
7 2977 28
7 2978 186
7 2979 15
7 2980 12
7 2981 24
7 2982 24
7 2983 19
7 2984 154
7 2985 30
7 2986 33
7 2987 38
7 2988 38
7 2989 23
7 2990 19
7 2991 18
7 2992 56
7 2993 17
7 2994 79
7 2995 28
7 2996 103
7 2997 25
7 2999 25
7 3000 22
7 3001 45
7 3003 27
7 3004 21
7 3005 32
7 3006 27
7 3008 23
7 3009 25
7 3010 32
7 3011 16
7 3012 173
7 3013 6
7 3014 23
7 3015 164
7 3016 80
7 3017 32
7 3018 90
7 3019 23
7 3021 41
7 3022 28
7 3023 44
7 3024 16
7 3025 32
7 3026 34
7 3027 29
7 3028 15
7 3029 22
7 3030 37
7 3031 23
7 3032 39
7 3033 22
7 3034 44
7 3035 21
7 3036 33
7 3037 32
7 3038 31
7 3039 155
7 3040 27
7 3041 33
7 3042 29
7 3043 32
7 3044 28
7 3045 13
7 3046 19
7 3047 23
7 3048 27
7 3049 25
7 3050 22
7 3051 54
7 3052 14
7 3053 23
7 3054 28
7 3055 24
7 3056 28
7 3057 31
7 3058 27
7 3059 20
7 3060 32
7 3061 23
7 3062 25
7 3063 17
7 3064 659
7 3065 51
7 3066 23
7 3067 16
7 3068 13
7 3069 24
7 3070 43
7 3071 24
7 3072 26
7 3073 29
7 3074 25
7 3075 18
7 3076 24
7 3077 30
7 3078 98
7 3079 50
7 3080 21
7 3081 29
7 3083 30
7 3084 39
7 3085 28
7 3086 2
7 3087 36
7 3088 22
7 3089 29
7 3090 23
7 3091 30
7 3092 25
7 3093 24
7 3094 32
7 3095 47
7 3096 26
7 3097 31
7 3098 17
7 3099 17
7 3100 737
7 3101 21
7 3102 22
7 3103 17
7 3104 15
7 3105 18
7 3106 25
7 3107 17
7 3108 22
7 3109 79
7 3110 27
7 3111 60
7 3112 27
7 3113 40
7 3114 16
7 3115 19
7 3116 22
7 3117 29
7 3118 25
7 3119 24
7 3120 22
7 3121 27
7 3122 23
7 3123 18
7 3124 19
7 3125 27
7 3126 20
7 3127 22
7 3128 29
7 3129 21
7 3130 23
7 3131 23
7 3132 58
7 3133 42
7 3135 21
7 3136 45
7 3137 66
7 3138 17
7 3139 27
7 3140 25
7 3141 1298
7 3142 40
7 3143 38
7 3144 21
7 3145 51
7 3146 85
7 3147 20
7 3148 19
7 3149 20
7 3150 7
7 3151 14
7 3152 922
7 3153 27
7 3154 37
7 3155 36
7 3156 17
7 3157 20
7 3158 30
7 3159 23
7 3160 48
7 3161 24
7 3162 27
7 3163 36
7 3165 27
7 3166 18
7 3167 27
7 3168 21
7 3169 17
7 3170 19
7 3171 28
7 3172 20
7 3173 13
7 3174 20
7 3175 15
7 3176 24
7 3177 31
7 3178 22
7 3180 57
7 3181 125
7 3182 65
7 3183 20
7 3184 21
7 3185 17
7 3186 30
7 3187 22
7 3188 117
7 3189 20
7 3190 24
7 3191 26
7 3192 31
7 3193 68
7 3194 22
7 3195 29
7 3196 44
7 3197 25
7 3198 48
7 3199 25
7 3200 41
7 3201 21
7 3202 33
7 3203 100
7 3204 21
7 3205 29
7 3206 22
7 3207 51
7 3208 24
7 3209 29
7 3210 16
7 3211 21
7 3212 26
7 3213 32
7 3214 30
7 3215 68
7 3216 20
7 3217 37
7 3218 53
7 3219 28
7 3220 16
7 3221 19
7 3222 32
7 3223 73
7 3224 21
7 3225 17
7 3226 22
7 3227 17
7 3228 13
7 3229 29
7 3230 28
7 3231 1891
7 3232 20
7 3233 32
7 3234 25
7 3235 1
7 3236 18
7 3237 70
7 3238 21
7 3239 10
7 3240 14
7 3241 26
7 3242 53
7 3243 72
7 3244 28
7 3245 26
7 3246 24
7 3247 24
7 3248 22
7 3249 21
7 3250 24
7 3251 42
7 3252 940
7 3253 24
7 3254 499
7 3255 41
7 3256 28
7 3257 79
7 3258 21
7 3259 35
7 3260 23
7 3261 1288
7 3262 39
7 3263 38
7 3264 21
7 3265 15
7 3266 14
7 3267 21
7 3268 320
7 3269 1120
7 3270 1391
7 3271 20
7 3272 38
7 3273 773
7 3274 20
7 3275 23
7 3276 13
7 3277 27
7 3278 25
7 3279 17
7 3281 27
7 3282 21
7 3283 40
7 3284 23
7 3285 12
7 3286 25
7 3287 23
7 3288 41
7 3289 28
7 3290 25
7 3291 33
7 3292 224
7 3293 27
7 3294 23
7 3295 25
7 3296 38
7 3297 23
7 3298 33
7 3299 78
7 3300 14
7 3301 1
7 3302 22
7 3303 15
7 3304 19
7 3305 25
7 3306 17
7 3307 17
7 3308 18
7 3309 1
7 3310 24
7 3311 25
7 3312 35
7 3313 57
7 3314 17
7 3315 13
7 3316 26
7 3317 27
7 3318 1
7 3319 28
7 3320 27
7 3321 29
7 3322 39
7 3323 44
7 3324 26
7 3325 35
7 3326 22
7 3327 35
7 3328 20
7 3329 1421
7 3330 1
7 3331 15
7 3332 21
7 3333 33
7 3334 32
7 3335 84
7 3336 24
7 3337 14
7 3338 17
7 3339 15
7 3340 29
7 3341 40
7 3342 19
7 3343 18
7 3344 48
7 3345 20
7 3346 16
7 3347 20
7 3348 38
7 3349 29
7 3350 37
7 3351 18
7 3352 25
7 3353 24
7 3354 24
7 3355 37
7 3356 31
7 3357 831
7 3358 316
7 3359 23
7 3360 30
7 3361 24
7 3362 33
7 3363 29
7 3364 24
7 3365 13
7 3366 31
7 3367 18
7 3368 21
7 3369 22
7 3370 79
7 3371 28
7 3372 20
7 3373 20
7 3374 40
7 3375 120
7 3376 26
7 3377 67
7 3378 28
7 3379 26
7 3380 1006
7 3381 31
7 3382 31
7 3383 90
7 3384 35
7 3385 28
7 3386 24
7 3387 27
7 3388 26
7 3389 34
7 3390 22
7 3391 25
7 3392 25
7 3393 21
7 3394 20
7 3395 36
7 3396 31
7 3397 31
7 3398 998
7 3399 30
7 3400 37
7 3401 33
7 3402 81
7 3403 3440
7 3404 29
7 3405 32
7 3406 21
7 3407 25
7 3408 78
7 3409 30
7 3410 32
7 3411 32
7 3413 119
7 3414 36
7 3415 81
7 3416 27
7 3417 57
7 3418 21
7 3419 13
7 3420 30
7 3421 51
7 3422 60
7 3423 26
7 3424 22
7 3425 45
7 3426 28
7 3427 34
7 3428 36
7 3429 44
7 3430 20
7 3431 19
7 3432 30
7 3433 24
7 3434 631
7 3435 33
7 3436 30
7 3437 35
7 3438 32
7 3439 18
7 3440 18
7 3441 18
7 3442 21
7 3443 33
7 3444 106
7 3445 168
7 3446 24
7 3447 78
7 3448 29
7 3449 15
7 3450 27
7 3451 1257
7 3452 26
7 3453 25
7 3454 27
7 3455 43
7 3456 1
7 3457 26
7 3458 26
7 3459 28
7 3460 226
7 3461 35
7 3462 25
7 3463 34
7 3464 25
7 3465 20
7 3466 32
7 3467 29
7 3468 33
7 3469 22
7 3470 39
7 3471 36
7 3472 15
7 3473 24
7 3474 20
7 3475 34
7 3476 21
7 3477 25
7 3478 32
7 3479 32
7 3481 31
7 3482 26
7 3483 26
7 3484 31
7 3485 25
7 3486 45
7 3487 35
7 3488 1
7 3489 55
7 3490 15
7 3491 23
7 3492 33
7 3493 34
7 3494 82
7 3495 55
7 3496 26
7 3497 843
7 3498 32
7 3499 22
7 3500 49
7 3501 22
7 3502 29
7 3503 32
7 3504 31
7 3505 4
7 3506 6
7 3507 14
7 3508 36
7 3509 31
7 3510 103
7 3511 17
7 3512 21
7 3513 80
7 3514 27
7 3515 16
7 3516 24
7 3517 17
7 3518 27
7 3519 727
7 3520 18
7 3521 25
7 3522 23
7 3523 20
7 3524 34
7 3525 180
7 3526 23
7 3527 25
7 3528 28
7 3530 16
7 3531 29
7 3532 22
7 3533 29
7 3534 93
7 3535 31
7 3536 267
7 3537 21
7 3538 37
7 3539 20
7 3540 30
7 3541 1
7 3542 30
7 3543 61
7 3544 20
7 3545 28
7 3546 30
7 3547 23
7 3548 55
7 3549 28
7 3550 79
7 3552 29
7 3553 28
7 3554 1054
7 3555 23
7 3556 28
7 3557 23
7 3558 27
7 3559 31
7 3560 102
7 3561 515
7 3562 22
7 3563 20
7 3564 25
7 3565 12
7 3566 31
7 3567 27
7 3568 59
7 3569 1093
7 3570 16
7 3571 29
7 3572 24
7 3573 19
7 3574 13
7 3575 22
7 3576 23
7 3577 69
7 3578 25
7 3579 24
7 3580 72
7 3581 29
7 3582 30
7 3583 71
7 3584 43
7 3586 24
7 3587 58
7 3588 35
7 3589 42
7 3590 21
7 3591 32
7 3592 258
7 3593 31
7 3594 48
7 3595 28
7 3596 23
7 3597 24
7 3598 25
7 3599 30
7 3600 697
7 3601 18
7 3602 57
7 3603 56
7 3604 35
7 3605 18
7 3606 37
7 3607 21
7 3608 20
7 3609 25
7 3610 14
7 3611 20
7 3612 47
7 3613 23
7 3614 20
7 3615 50
7 3616 30
7 3617 24
7 3618 14
7 3619 24
7 3620 42
7 3621 23
7 3622 29
7 3623 21
7 3624 18
7 3625 37
7 3626 20
7 3627 14
7 3628 23
7 3629 32
7 3630 37
7 3631 21
7 3632 24
7 3633 17
7 3634 25
7 3635 29
7 3636 28
7 3637 16
7 3638 24
7 3639 28
7 3640 61
7 3641 30
7 3642 30
7 3643 26
7 3644 752
7 3645 134
7 3646 47
7 3647 20
7 3648 26
7 3649 78
7 3650 33
7 3651 24
7 3652 22
7 3653 13
7 3654 25
7 3655 28
7 3656 15
7 3657 16
7 3658 39
7 3659 30
7 3660 27
7 3661 38
7 3662 22
7 3663 27
7 3664 26
7 3665 23
7 3666 63
7 3667 62
7 3668 23
7 3669 118
7 3670 21
7 3671 756
7 3672 25
7 3673 24
7 3674 34
7 3675 23
7 3676 21
7 3677 25
7 3678 14
7 3679 33
7 3680 30
7 3681 30
7 3682 364
7 3683 31
7 3684 15
7 3686 20
7 3687 16
7 3688 61
7 3689 27
7 3690 20
7 3691 40
7 3692 18
7 3693 33
7 3694 33
7 3695 23
7 3696 19
7 3697 27
7 3698 21
7 3699 19
7 3700 44
7 3701 15
7 3702 1
7 3703 31
7 3704 14
7 3705 17
7 3706 58
7 3707 64
7 3708 14
7 3709 19
7 3710 31
7 3711 23
7 3712 16
7 3713 78
7 3714 38
7 3715 30
7 3716 21
7 3717 19
7 3718 17
7 3719 19
7 3720 30
7 3721 17
7 3722 24
7 3723 15
7 3724 59
7 3725 41
7 3726 14
7 3727 48
7 3728 24
7 3729 36
7 3730 18
7 3731 95
7 3732 28
7 3733 12
7 3734 23
7 3735 23
7 3736 12
7 3737 21
7 3738 479
7 3739 11
7 3740 11
7 3741 20
7 3742 9
7 3743 18
7 3744 15
7 3745 15
7 3746 21
7 3747 26
7 3748 10
7 3749 42
7 3750 19
7 3751 11
7 3752 31
7 3753 35
7 3754 25
7 3755 15
7 3756 18
7 3757 10
7 3758 36
7 3759 22
7 3760 1
7 3761 14
7 3762 21
7 3763 19
7 3764 41
7 3765 20
7 3766 22
7 3767 3
7 3768 777
7 3769 22
7 3770 16
7 3771 21
7 3772 16
7 3773 19
7 3774 18
7 3775 16
7 3776 13
7 3777 20
7 3778 32
7 3779 31
7 3780 29
7 3781 22
7 3782 34
7 3783 18
7 3784 92
7 3785 18
7 3786 82
7 3787 21
7 3788 10
7 3790 3
7 3791 25
7 3792 15
7 3793 25
7 3794 26
7 3795 27
7 3796 20
7 3797 15
7 3798 21
7 3799 90
7 3800 16
7 3801 15
7 3802 34
7 3803 27
7 3804 21
7 3805 29
7 3806 29
7 3807 930
7 3808 19
7 3809 13
7 3810 14
7 3812 17
7 3813 16
7 3814 21
7 3815 10
7 3816 24
7 3817 16
7 3818 22
7 3819 665
7 3820 20
7 3821 25
7 3822 28
7 3823 22
7 3824 31
7 3825 15
7 3826 22
7 3827 15
7 3828 44
7 3829 30
7 3830 26
7 3831 29
7 3832 26
7 3834 4
7 3835 131
7 3836 14
7 3837 34
7 3838 22
7 3839 16
7 3840 20
7 3841 16
7 3842 26
7 3843 16
7 3844 1
7 3845 16
7 3846 22
7 3847 7
7 3848 17
7 3849 21
7 3850 18
7 3851 25
7 3852 18
7 3853 24
7 3854 22
7 3855 15
7 3856 24
7 3857 13
7 3858 1
7 3859 18
7 3861 17
7 3862 601
7 3863 43
7 3864 15
7 3865 19
7 3866 32
7 3867 80
7 3868 1
7 3869 67
7 3870 18
7 3871 67
7 3872 16
7 3873 21
7 3874 32
7 3875 40
7 3876 17
7 3877 35
7 3878 18
7 3879 163
7 3880 21
7 3881 19
7 3882 15
7 3883 56
7 3884 48
7 3885 24
7 3886 16
7 3887 24
7 3888 20
7 3889 15
7 3890 27
7 3891 27
7 3892 32
7 3893 25
7 3894 77
7 3895 28
7 3896 26
7 3897 27
7 3898 25
7 3899 22
7 3900 16
7 3901 14
7 3902 15
7 3903 1325
7 3904 22
7 3905 13
7 3906 27
7 3907 19
7 3908 37
7 3909 15
7 3910 25
7 3911 14
7 3912 250
7 3913 18
7 3914 21
7 3915 851
7 3916 23
7 3917 36
7 3918 29
7 3919 15
7 3920 19
7 3921 21
7 3922 12
7 3923 18
7 3924 28
7 3925 20
7 3926 119
7 3927 39
7 3928 29
7 3929 29
7 3930 21
7 3931 18
7 3932 21
7 3933 2
7 3934 113
7 3935 31
7 3936 18
7 3937 35
7 3938 12
7 3939 13
7 3940 46
7 3941 27
7 3942 14
7 3943 35
7 3945 9
7 3946 19
7 3947 24
7 3948 16
7 3949 26
7 3950 23
7 3951 22
7 3952 17
7 3953 18
7 3954 25
7 3955 28
7 3956 43
7 3957 37
7 3958 13
7 3959 14
7 3960 21
7 3961 22
7 3962 21
7 3963 8
7 3964 22
7 3965 23
7 3966 20
7 3967 19
7 3968 12
7 3969 11
7 3970 17
7 3972 22
7 3973 22
7 3974 77
7 3975 171
7 3976 12
7 3977 14
7 3978 21
7 3979 22
7 3980 14
7 3981 17
7 3982 14
7 3983 24
7 3984 10
7 3985 25
7 3986 3
7 3987 26
7 3988 71
7 3989 16
7 3990 21
7 3991 28
7 3992 24
7 3993 624
7 3994 115
7 3995 17
7 3996 24
7 3997 17
7 3998 55
7 3999 27
7 4000 23
7 4001 15
7 4002 17
7 4003 378
7 4004 16
7 4005 16
7 4006 82
7 4007 13
7 4008 14
7 4009 17
7 4010 14
7 4011 56
7 4012 27
7 4013 23
7 4014 19
7 4015 12
7 4016 9
7 4017 21
7 4018 44
7 4019 35
7 4020 770
7 4021 55
7 4022 81
7 4023 27
7 4024 27
7 4025 26
7 4026 2
7 4027 24
7 4028 29
7 4029 33
7 4030 44
7 4031 60
7 4032 31
7 4033 28
7 4034 27
7 4035 27
7 4036 50
7 4037 35
7 4038 48
7 4039 18
7 4040 26
7 4041 27
7 4042 164
7 4043 11
7 4044 20
7 4045 69
7 4046 34
7 4047 31
7 4048 39
7 4049 205
7 4050 35
7 4051 31
7 4052 19
7 4053 19
7 4054 72
7 4055 132
7 4056 19
7 4057 19
7 4058 41
7 4059 29
7 4060 24
7 4061 30
7 4062 38
7 4063 29
7 4064 29
7 4065 30
7 4066 3125
7 4067 4
7 4068 29
7 4069 19
7 4070 42
7 4071 25
7 4072 47
7 4073 2
7 4074 36
7 4075 49
7 4076 36
7 4077 40
7 4078 58
7 4079 39
7 4080 33
7 4081 36
7 4082 35
7 4084 2
7 4085 29
7 4086 34
7 4087 26
7 4088 44
7 4089 33
7 4090 60
7 4091 25
7 4092 28
7 4093 57
7 4094 39
7 4095 23
7 4096 26
7 4097 23
7 4098 54
7 4099 27
7 4100 82
7 4101 21
7 4102 19
7 4103 22
7 4104 18
7 4105 37
7 4106 32
7 4107 39
7 4108 37
7 4109 24
7 4110 23
7 4111 28
7 4112 57
7 4113 23
7 4114 35
7 4115 28
7 4116 63
7 4117 28
7 4118 1
7 4119 33
7 4120 152
7 4121 28
7 4122 33
7 4123 24
7 4124 74
7 4125 56
7 4126 64
7 4127 30
7 4128 55
7 4129 24
7 4130 31
7 4131 25
7 4132 29
7 4133 44
7 4134 50
7 4135 25
7 4136 36
7 4137 41
7 4138 47
7 4139 28
7 4140 7
7 4141 31
7 4142 62
7 4143 43
7 4144 95
7 4145 23
7 4146 56
7 4147 25
7 4148 81
7 4149 47
7 4150 34
7 4151 1
7 4152 16
7 4153 30
7 4154 24
7 4155 31
7 4156 38
7 4157 29
7 4158 17
7 4159 65
7 4160 155
7 4161 23
7 4162 19
7 4163 31
7 4164 16
7 4165 38
7 4166 29
7 4167 101
7 4168 21
7 4169 34
7 4170 30
7 4171 1507
7 4172 47
7 4173 27
7 4174 14
7 4175 34
7 4176 29
7 4177 697
7 4178 27
7 4179 22
7 4180 27
7 4181 32
7 4182 33
7 4183 73
7 4184 23
7 4185 30
7 4186 109
7 4187 26
7 4188 19
7 4189 11
7 4190 19
7 4191 27
7 4192 31
7 4193 42
7 4194 36
7 4195 43
7 4196 36
7 4197 48
7 4198 25
7 4199 39
7 4200 99
7 4201 92
7 4202 52
7 4203 1131
7 4204 20
7 4205 42
7 4206 26
7 4207 34
7 4208 87
7 4209 23
7 4210 43
7 4211 35
7 4212 32
7 4213 158
7 4214 32
7 4215 18
7 4216 34
7 4217 27
7 4218 31
7 4219 31
7 4220 191
7 4221 27
7 4222 17
7 4223 30
7 4224 68
7 4225 56
7 4226 26
7 4227 40
7 4228 30
7 4229 87
7 4230 24
7 4231 177
7 4232 187
7 4233 40
7 4234 25
7 4235 38
7 4236 76
7 4237 50
7 4238 35
7 4239 30
7 4240 30
7 4241 2
7 4242 24
7 4243 32
7 4244 25
7 4245 45
7 4246 36
7 4247 62
7 4248 102
7 4249 23
7 4251 19
7 4252 160
7 4253 37
7 4254 50
7 4255 21
7 4256 1
7 4257 106
7 4258 23
7 4259 35
7 4260 27
7 4261 34
7 4262 79
7 4263 28
7 4264 16
7 4265 28
7 4266 27
7 4267 47
7 4268 55
7 4269 24
7 4270 17
7 4271 41
7 4272 29
7 4273 20
7 4274 24
7 4275 24
7 4276 49
7 4277 32
7 4278 31
7 4279 29
7 4280 1010
7 4281 48
7 4282 32
7 4283 74
7 4285 1218
7 4286 45
7 4287 32
7 4288 21
7 4289 35
7 4290 29
7 4291 33
7 4292 31
7 4293 29
7 4294 42
7 4295 25
7 4296 29
7 4297 25
7 4298 1674
7 4299 29
7 4300 41
7 4301 24
7 4302 25
7 4303 97
7 4304 1
7 4305 58
7 4306 51
7 4307 25
7 4308 38
7 4309 38
7 4310 23
7 4311 129
7 4312 29
7 4313 58
7 4314 1
7 4315 38
7 4316 38
7 4318 31
7 4319 26
7 4320 39
7 4321 123
7 4322 23
7 4323 19
7 4324 46
7 4325 29
7 4326 24
7 4327 29
7 4328 44
7 4329 41
7 4330 4
7 4331 40
7 4332 20
7 4333 27
7 4334 27
7 4335 71
7 4336 26
7 4338 23
7 4339 241
7 4340 15
7 4341 28
7 4342 39
7 4343 20
7 4344 29
7 4345 56
7 4346 28
7 4347 104
7 4348 27
7 4349 42
7 4350 18
7 4351 31
7 4352 37
7 4353 30
7 4354 58
7 4355 20
7 4356 22
7 4357 40
7 4358 30
7 4359 98
7 4360 103
7 4361 24
7 4362 25
7 4363 45
7 4364 23
7 4365 1521
7 4366 249
7 4367 44
7 4368 29
7 4369 26
7 4370 108
7 4371 29
7 4372 31
7 4373 29
7 4374 54
7 4375 30
7 4376 24
7 4377 30
7 4378 68
7 4379 22
7 4380 29
7 4381 32
7 4382 25
7 4383 28
7 4384 23
7 4385 26
7 4386 69
7 4387 21
7 4388 28
7 4389 30
7 4390 1492
7 4391 106
7 4392 32
7 4393 29
7 4394 31
7 4395 22
7 4396 78
7 4397 25
7 4398 46
7 4399 46
7 4400 40
7 4401 34
7 4402 19
7 4403 60
7 4404 45
7 4406 24
7 4407 79
7 4408 28
7 4409 18
7 4410 35
7 4411 4
7 4413 23
7 4414 1
7 4415 200
7 4416 211
7 4417 1118
7 4418 17
7 4419 269
7 4420 26
7 4421 19
7 4422 30
7 4423 89
7 4424 28
7 4425 33
7 4426 44
7 4427 34
7 4428 101
7 4429 18
7 4430 18
7 4431 34
7 4432 23
7 4433 56
7 4434 29
7 4435 102
7 4436 23
7 4437 38
7 4438 9
7 4439 50
7 4440 31
7 4441 31
7 4442 53
7 4443 146
7 4444 23
7 4445 28
7 4446 51
7 4447 52
7 4448 19
7 4449 52
7 4450 29
7 4451 42
7 4452 389
7 4453 25
7 4454 21
7 4455 31
7 4456 23
7 4457 41
7 4458 40
7 4460 147
7 4462 133
7 4463 37
7 4464 43
7 4465 3
7 4466 73
7 4467 88
7 4468 23
7 4469 94
7 4470 812
7 4471 22
7 4472 36
7 4473 33
7 4474 34
7 4475 29
7 4476 22
7 4477 140
7 4478 19
7 4479 38
7 4480 57
7 4481 18
7 4482 75
7 4483 36
7 4484 40
7 4485 20
7 4486 49
7 4487 21
7 4488 19
7 4489 47
7 4490 44
7 4491 24
7 4492 19
7 4493 29
7 4494 50
7 4495 1503
7 4496 35
7 4497 249
7 4498 1158
7 4499 21
7 4500 44
7 4501 31
7 4502 25
7 4503 26
7 4504 25
7 4505 28
7 4506 31
7 4507 27
7 4508 27
7 4509 46
7 4510 22
7 4511 30
7 4512 64
7 4513 30
7 4514 23
7 4515 945
7 4516 27
7 4517 37
7 4518 35
7 4519 17
7 4520 31
7 4521 31
7 4522 2119
7 4523 24
7 4524 33
7 4525 31
7 4526 33
7 4527 69
7 4528 25
7 4529 30
7 4530 142
7 4531 262
7 4532 116
7 4533 28
7 4534 33
7 4535 3
7 4536 25
7 4537 79
7 4538 41
7 4539 299
7 4540 26
7 4541 1200
7 4542 40
7 4543 41
7 4544 27
7 4545 47
7 4546 24
7 4547 53
7 4548 43
7 4549 32
7 4550 20
7 4551 42
7 4552 25
7 4553 488
7 4554 137
7 4555 22
7 4556 27
7 4557 30
7 4558 35
7 4559 26
7 4560 27
7 4561 31
7 4562 35
7 4563 22
7 4564 24
7 4565 34
7 4566 21
7 4567 21
7 4568 13
7 4569 59
7 4570 511
7 4571 15
7 4572 28
7 4573 42
7 4574 22
7 4575 201
7 4576 659
7 4578 38
7 4579 38
7 4580 26
7 4582 25
7 4583 28
7 4584 18
7 4585 29
7 4586 33
7 4587 393
7 4588 28
7 4589 51
7 4590 25
7 4591 32
7 4592 33
7 4593 26
7 4594 38
7 4595 34
7 4596 29
7 4597 17
7 4598 30
7 4599 27
7 4600 25
7 4601 26
7 4602 49
7 4603 185
7 4604 147
7 4605 603
7 4606 39
7 4607 3293
7 4608 104
7 4609 71
7 4610 63
7 4611 38
7 4612 25
7 4613 21
7 4614 29
7 4615 39
7 4616 32
7 4617 30
7 4618 26
7 4619 101
7 4620 50
7 4621 47
7 4622 1
7 4623 32
7 4624 31
7 4625 42
7 4626 34
7 4627 29
7 4628 30
7 4629 36
7 4630 25
7 4631 33
7 4632 44
7 4633 66
7 4634 55
7 4635 32
7 4636 35
7 4637 12
7 4638 39
7 4639 37
7 4640 30
7 4641 34
7 4642 30
7 4643 22
7 4644 106
7 4645 35
7 4646 26
7 4647 41
7 4648 61
7 4650 41
7 4653 156
7 4654 16
7 4655 26
7 4656 24
7 4657 49
7 4658 33
7 4659 1273
7 4660 37
7 4661 108
7 4662 1150
7 4663 83
7 4664 28
7 4665 83
7 4666 40
7 4667 141
7 4668 1148
7 4669 49
7 4670 24
7 4671 27
7 4672 39
7 4673 13
7 4674 37
7 4675 32
7 4676 45
7 4677 44
7 4678 17
7 4679 30
7 4680 718
7 4681 70
7 4682 1
7 4683 126
7 4684 26
7 4685 8
7 4686 29
7 4687 47
7 4688 97
7 4689 55
7 4690 43
7 4691 53
7 4692 41
7 4693 23
7 4694 22
7 4696 31
7 4697 58
7 4698 34
7 4699 25
7 4700 8
7 4702 26
7 4703 34
7 4704 28
7 4705 36
7 4706 35
7 4707 32
7 4708 121
7 4709 39
7 4711 99
7 4712 38
7 4714 251
7 4715 35
7 4716 25
7 4717 27
7 4718 45
7 4719 32
7 4720 40
7 4721 35
7 4722 29
7 4723 32
7 4724 32
7 4725 39
7 4726 18
7 4727 26
7 4728 36
7 4729 30
7 4730 27
7 4731 1
7 4732 229
7 4733 31
7 4734 21
7 4735 19
7 4736 35
7 4737 23
7 4738 41
7 4739 35
7 4740 29
7 4741 26
7 4742 25
7 4743 21
7 4744 17
7 4745 34
7 4746 393
7 4747 39
7 4748 25
7 4749 19
7 4750 28
7 4752 19
7 4753 39
7 4754 31
7 4755 25
7 4756 34
7 4757 37
7 4758 1081
7 4759 228
7 4760 29
7 4761 16
7 4762 29
7 4763 30
7 4764 39
7 4765 107
7 4766 28
7 4767 106
7 4768 23
7 4769 53
7 4770 21
7 4771 25
7 4772 35
7 4773 27
7 4774 44
7 4775 57
7 4776 41
7 4777 46
7 4778 35
7 4779 33
7 4780 30
7 4781 27
7 4782 31
7 4783 23
7 4784 1
7 4785 38
7 4786 62
7 4787 33
7 4788 31
7 4789 42
7 4790 20
7 4791 32
7 4792 24
7 4793 15
7 4794 36
7 4795 23
7 4796 77
7 4797 117
7 4798 38
7 4799 30
7 4800 32
7 4801 927
7 4802 37
7 4803 30
7 4804 30
7 4805 39
7 4806 39
7 4807 29
7 4809 33
7 4810 36
7 4811 45
7 4812 63
7 4813 18
7 4814 55
7 4815 24
7 4816 38
7 4817 60
7 4818 53
7 4819 23
7 4820 25
7 4821 26
7 4822 22
7 4823 66
7 4824 25
7 4825 34
7 4826 38
7 4827 184
7 4828 26
7 4829 26
7 4830 43
7 4831 23
7 4832 34
7 4833 111
7 4834 173
7 4835 23
7 4836 29
7 4837 29
7 4838 96
7 4839 24
7 4840 19
7 4841 36
7 4842 19
7 4843 31
7 4844 29
7 4845 34
7 4846 47
7 4847 30
7 4848 147
7 4849 47
7 4850 14
7 4851 76
7 4852 21
7 4853 33
7 4854 214
7 4855 30
7 4856 43
7 4857 23
7 4858 28
7 4859 36
7 4860 37
7 4861 45
7 4862 36
7 4863 52
7 4864 22
7 4865 58
7 4866 40
7 4867 1101
7 4868 90
7 4869 44
7 4870 41
7 4871 29
7 4872 33
7 4873 100
7 4874 31
7 4875 48
7 4876 30
7 4877 26
7 4878 34
7 4879 29
7 4880 191
7 4881 32
7 4882 32
7 4883 22
7 4884 1546
7 4885 93
7 4886 1
7 4887 29
7 4888 23
7 4889 74
7 4890 36
7 4891 81
7 4892 22
7 4893 28
7 4894 28
7 4895 29
7 4896 40
7 4897 26
7 4898 23
7 4900 28
7 4901 38
7 4902 36
7 4903 17
7 4904 20
7 4905 55
7 4906 25
7 4907 31
7 4908 26
7 4909 35
7 4910 40
7 4911 24
7 4912 28
7 4913 50
7 4914 52
7 4915 40
7 4916 27
7 4917 23
7 4918 24
7 4919 72
7 4920 42
7 4921 27
7 4922 30
7 4923 33
7 4924 26
7 4925 21
7 4926 15
7 4927 42
7 4928 23
7 4929 37
7 4930 26
7 4931 34
7 4932 52
7 4933 20
7 4934 32
7 4935 27
7 4936 21
7 4937 66
7 4939 91
7 4940 89
7 4941 27
7 4942 23
7 4943 15
7 4944 21
7 4945 37
7 4946 74
7 4947 18
7 4948 1
7 4949 26
7 4950 21
7 4951 17
7 4952 35
7 4954 28
7 4955 26
7 4956 29
7 4957 24
7 4958 34
7 4959 38
7 4960 38
7 4961 26
7 4962 24
7 4963 25
7 4964 33
7 4965 24
7 4966 32
7 4967 31
7 4968 22
7 4969 37
7 4970 20
7 4971 38
7 4972 36
7 4973 26
7 4974 24
7 4975 23
7 4976 98
7 4977 23
7 4978 27
7 4979 33
7 4980 32
7 4981 29
7 4982 13
7 4984 29
7 4985 27
7 4986 20
7 4987 14
7 4988 5
7 4989 21
7 4990 29
7 4991 26
7 4992 21
7 4993 29
7 4994 1
7 4996 20
7 4997 29
7 4998 35
7 4999 21
7 5000 737
7 5001 46
7 5002 35
7 5003 33
7 5004 39
7 5005 526
7 5006 37
7 5007 131
7 5008 28
7 5009 31
7 5010 26
7 5011 21
7 5012 159
7 5013 42
7 5014 31
7 5015 24
7 5016 44
7 5017 28
7 5018 31
7 5019 37
7 5020 25
7 5021 25
7 5022 45
7 5023 19
7 5024 26
7 5025 36
7 5026 38
7 5027 24
7 5028 108
7 5029 42
7 5030 26
7 5031 30
7 5032 42
7 5033 21
7 5034 1721
7 5035 4
7 5036 37
7 5037 34
7 5038 29
7 5039 20
7 5040 24
7 5041 2
7 5042 29
7 5043 371
7 5044 29
7 5045 78
7 5046 19
7 5048 1171
7 5049 43
7 5050 32
7 5051 42
7 5052 22
7 5053 25
7 5054 28
7 5055 12
7 5056 22
7 5057 85
7 5058 38
7 5059 22
7 5060 30
7 5061 22
7 5062 18
7 5063 30
7 5064 31
7 5065 92
7 5066 81
7 5067 24
7 5068 35
7 5069 13
7 5070 7
7 5072 44
7 5073 24
7 5074 29
7 5075 33
7 5076 85
7 5077 24
7 5078 24
7 5079 26
7 5080 35
7 5081 30
7 5083 30
7 5084 30
7 5085 771
7 5086 53
7 5087 19
7 5088 36
7 5089 31
7 5090 27
7 5091 3
7 5092 33
7 5093 27
7 5094 48
7 5095 33
7 5097 30
7 5098 18
7 5099 30
7 5100 48
7 5101 25
7 5102 216
7 5103 24
7 5104 28
7 5105 15
7 5106 25
7 5107 38
7 5108 21
7 5109 25
7 5110 13
7 5111 29
7 5112 29
7 5113 23
7 5115 57
7 5116 60
7 5117 23
7 5118 21
7 5119 46
7 5120 22
7 5121 31
7 5122 73
7 5123 32
7 5124 34
7 5125 32
7 5126 25
7 5127 24
7 5128 21
7 5129 27
7 5130 19
7 5131 35
7 5132 82
7 5133 25
7 5134 274
7 5135 14
7 5136 13
7 5137 3
7 5139 38
7 5140 32
7 5141 24
7 5143 166
7 5144 15
7 5145 26
7 5146 18
7 5147 58
7 5148 15
7 5149 9
7 5150 42
7 5151 1
7 5152 20
7 5153 76
7 5154 61
7 5155 4
7 5156 54
7 5157 10
7 5158 19
7 5159 29
8 1 116
8 2 197
8 3 129
8 4 74
8 5 134
8 6 141
8 7 81
8 8 1
8 9 67
8 10 72
8 11 36
8 12 54
8 13 801
8 14 557
8 15 50
8 16 70
8 17 338
8 18 389
8 19 59
8 20 373
8 21 72
8 22 102
8 23 55
8 24 58
8 25 44
8 26 175
8 27 84
8 28 423
8 29 41
8 30 60
8 31 68
8 32 66
8 33 150
8 34 88
8 35 384
8 36 85
8 37 107
8 38 88
8 39 80
8 40 105
8 41 113
8 42 72
8 43 104
8 44 62
8 45 58
8 46 61
8 47 68
8 48 69
8 49 99
8 50 147
8 51 613
8 52 71
8 53 133
8 54 70
8 55 512
8 56 56
8 57 83
8 58 76
8 59 91
8 60 182
8 61 78
8 62 65
8 63 82
8 64 62
8 65 102
8 66 420
8 67 201
8 68 150
8 69 98
8 70 76
8 71 65
8 72 52
8 73 137
8 74 139
8 75 156
8 76 83
8 77 75
8 78 85
8 79 66
8 80 55
8 81 69
8 82 60
8 83 37
8 84 100
8 85 1
8 86 55
8 87 77
8 88 783
8 89 74
8 90 189
8 91 64
8 92 3
8 93 139
8 94 48
8 95 495
8 96 34
8 97 67
8 98 1
8 99 70
8 100 65
8 101 95
8 102 61
8 103 62
8 104 84
8 105 61
8 106 561
8 107 45
8 108 77
8 109 325
8 110 62
8 111 47
8 112 71
8 113 67
8 114 61
8 115 55
8 116 63
8 117 308
8 118 259
8 119 54
8 120 67
8 121 51
8 122 62
8 123 56
8 124 86
8 125 977
8 126 51
8 127 54
8 128 68
8 129 52
8 130 119
8 131 67
8 132 1
8 133 50
8 134 161
8 135 66
8 136 83
8 137 51
8 138 861
8 139 75
8 140 104
8 141 103
8 142 107
8 143 95
8 144 969
8 145 74
8 146 43
8 147 67
8 148 54
8 149 91
8 150 83
8 151 114
8 152 53
8 153 88
8 154 86
8 155 111
8 156 129
8 157 63
8 158 67
8 159 66
8 160 73
8 161 515
8 162 83
8 163 77
8 165 69
8 166 84
8 167 89
8 168 64
8 169 153
8 170 1019
8 171 150
8 172 74
8 173 188
8 174 3
8 175 691
8 176 82
8 177 69
8 178 106
8 179 61
8 180 53
8 181 254
8 182 63
8 183 75
8 184 93
8 185 83
8 186 730
8 187 50
8 188 69
8 189 86
8 190 82
8 191 5
8 192 66
8 193 948
8 194 81
8 195 2
8 196 78
8 197 3
8 198 76
8 199 144
8 200 1182
8 201 67
8 202 87
8 203 1
8 204 70
8 205 55
8 206 53
8 207 75
8 208 76
8 209 778
8 210 75
8 211 125
8 212 194
8 213 64
8 214 54
8 215 64
8 216 193
8 217 58
8 218 56
8 219 100
8 220 85
8 221 62
8 222 626
8 223 125
8 224 82
8 225 83
8 226 64
8 227 124
8 228 63
8 229 106
8 230 75
8 231 81
8 232 660
8 233 199
8 234 175
8 235 666
8 236 136
8 237 93
8 238 80
8 239 75
8 240 74
8 241 76
8 242 219
8 243 142
8 244 68
8 245 570
8 246 173
8 247 74
8 248 125
8 249 59
8 250 930
8 251 73
8 252 193
8 253 88
8 254 84
8 255 2
8 256 58
8 257 1
8 258 252
8 259 74
8 260 71
8 261 942
8 262 99
8 263 164
8 264 66
8 265 91
8 266 607
8 267 136
8 268 84
8 269 61
8 270 63
8 271 88
8 272 73
8 273 101
8 274 56
8 275 224
8 276 71
8 277 1
8 278 80
8 279 63
8 280 80
8 281 115
8 282 107
8 283 107
8 284 95
8 285 92
8 286 143
8 287 77
8 288 79
8 289 59
8 290 80
8 291 84
8 292 66
8 293 66
8 294 63
8 295 71
8 296 64
8 297 52
8 298 136
8 299 116
8 300 175
8 301 85
8 302 60
8 303 65
8 304 66
8 305 860
8 306 82
8 307 79
8 308 76
8 309 61
8 310 52
8 311 87
8 312 64
8 313 58
8 314 71
8 315 132
8 316 73
8 317 134
8 318 2
8 319 67
8 321 79
8 322 62
8 323 179
8 324 146
8 325 160
8 326 61
8 327 334
8 328 892
8 329 92
8 330 113
8 331 87
8 332 43
8 333 60
8 334 117
8 335 78
8 336 132
8 337 3
8 338 174
8 339 72
8 340 128
8 341 57
8 342 138
8 343 75
8 344 86
8 345 76
8 346 111
8 347 104
8 348 78
8 349 69
8 350 610
8 351 82
8 352 58
8 353 68
8 354 2
8 355 72
8 356 72
8 357 60
8 358 78
8 359 543
8 360 74
8 361 924
8 362 93
8 363 89
8 364 81
8 365 127
8 366 212
8 367 87
8 368 143
8 369 70
8 370 65
8 371 76
8 372 78
8 373 23
8 374 82
8 375 62
8 376 54
8 377 53
8 378 105
8 379 98
8 380 218
8 381 32
8 382 72
8 383 571
8 384 60
8 385 325
8 386 299
8 387 58
8 388 857
8 389 64
8 390 603
8 391 85
8 392 82
8 393 83
8 394 102
8 395 78
8 396 102
8 397 76
8 398 83
8 399 89
8 400 71
8 401 70
8 402 72
8 403 169
8 404 61
8 405 483
8 406 110
8 407 152
8 408 100
8 409 57
8 410 80
8 411 80
8 412 99
8 413 86
8 414 77
8 415 244
8 416 90
8 417 92
8 418 1
8 419 45
8 420 1
8 421 85
8 422 103
8 423 94
8 424 74
8 425 165
8 426 57
8 427 350
8 428 612
8 429 91
8 430 62
8 431 1
8 432 109
8 433 51
8 434 51
8 435 75
8 436 134
8 437 99
8 438 90
8 439 71
8 440 79
8 441 60
8 442 91
8 443 72
8 444 200
8 445 80
8 446 80
8 447 63
8 448 70
8 449 72
8 450 55
8 451 67
8 452 61
8 453 66
8 454 55
8 455 906
8 456 81
8 457 144
8 458 113
8 459 69
8 460 98
8 461 117
8 462 77
8 463 85
8 464 252
8 465 95
8 466 64
8 467 90
8 468 195
8 469 130
8 470 85
8 471 61
8 472 79
8 473 362
8 474 68
8 475 157
8 476 183
8 478 118
8 479 149
8 480 27
8 481 60
8 482 100
8 483 58
8 484 889
8 485 70
8 486 101
8 487 59
8 488 63
8 489 68
8 490 703
8 491 67
8 492 250
8 493 86
8 494 1
8 495 90
8 496 108
8 497 112
8 498 62
8 499 155
8 500 67
8 501 14
8 502 65
8 503 1438
8 504 225
8 505 77
8 506 274
8 507 268
8 508 119
8 509 55
8 510 61
8 511 49
8 512 62
8 513 59
8 514 483
8 515 250
8 516 334
8 517 62
8 518 40
8 519 67
8 520 190
8 521 134
8 522 45
8 523 131
8 524 64
8 525 67
8 526 66
8 527 158
8 528 129
8 529 84
8 530 151
8 531 46
8 532 64
8 533 56
8 534 1
8 535 75
8 536 1
8 537 62
8 538 82
8 539 124
8 540 558
8 541 82
8 542 87
8 543 150
8 544 75
8 545 64
8 546 52
8 547 69
8 548 69
8 549 48
8 550 112
8 551 66
8 552 72
8 553 251
8 554 81
8 555 56
8 556 226
8 557 88
8 558 76
8 559 107
8 560 203
8 561 67
8 562 56
8 563 128
8 564 67
8 565 138
8 566 89
8 567 100
8 568 65
8 569 325
8 570 59
8 571 149
8 572 126
8 573 131
8 574 68
8 575 96
8 576 56
8 577 67
8 578 57
8 579 4
8 580 876
8 581 136
8 582 2
8 583 80
8 584 90
8 585 1
8 586 73
8 587 138
8 588 77
8 589 96
8 590 60
8 591 58
8 592 54
8 593 67
8 594 44
8 595 165
8 596 116
8 597 83
8 598 72
8 599 70
8 600 55
8 601 63
8 602 47
8 603 1
8 604 63
8 605 76
8 606 125
8 607 65
8 608 49
8 609 69
8 610 240
8 611 84
8 612 60
8 613 67
8 614 161
8 615 70
8 616 941
8 617 3
8 618 3
8 619 334
8 620 83
8 621 141
8 622 266
8 623 58
8 624 76
8 625 48
8 626 82
8 627 89
8 628 68
8 629 75
8 630 66
8 631 135
8 632 93
8 633 95
8 634 78
8 635 69
8 636 69
8 637 63
8 638 74
8 639 317
8 640 56
8 641 214
8 642 93
8 643 72
8 644 89
8 645 139
8 646 886
8 647 102
8 648 338
8 649 78
8 650 65
8 651 95
8 652 63
8 653 52
8 654 886
8 655 60
8 656 81
8 657 84
8 658 59
8 659 135
8 660 112
8 661 64
8 662 70
8 663 178
8 664 59
8 665 57
8 666 74
8 667 80
8 668 64
8 669 89
8 670 61
8 671 77
8 672 66
8 673 62
8 674 84
8 675 69
8 676 138
8 677 90
8 678 67
8 679 70
8 680 376
8 681 208
8 682 388
8 683 177
8 684 78
8 685 81
8 686 229
8 687 177
8 688 66
8 689 159
8 690 88
8 691 67
8 692 2
8 693 61
8 694 72
8 695 101
8 696 88
8 697 254
8 698 72
8 699 168
8 700 66
8 701 54
8 702 62
8 703 143
8 704 62
8 705 77
8 706 67
8 707 56
8 708 68
8 709 104
8 710 323
8 711 79
8 712 243
8 713 37
8 714 249
8 715 32
8 716 20
8 717 39
8 718 29
8 719 43
8 720 42
8 721 64
8 722 18
8 723 28
8 724 49
8 725 24
8 726 177
8 727 13
8 728 161
8 729 59
8 730 74
8 731 728
8 732 67
8 733 173
8 734 65
8 735 72
8 736 112
8 737 1
8 738 131
8 739 570
8 740 88
8 741 88
8 742 125
8 743 78
8 744 102
8 745 292
8 746 60
8 747 1
8 748 52
8 749 81
8 750 91
8 751 54
8 752 1
8 753 160
8 754 63
8 755 62
8 756 84
8 757 115
8 758 69
8 759 112
8 760 59
8 761 92
8 762 110
8 763 1261
8 764 96
8 765 149
8 766 251
8 767 137
8 768 104
8 769 79
8 770 86
8 771 77
8 772 192
8 773 82
8 774 88
8 775 74
8 776 72
8 777 76
8 778 187
8 779 916
8 780 67
8 781 724
8 782 137
8 783 73
8 784 62
8 785 50
8 786 71
8 787 104
8 788 106
8 789 62
8 790 73
8 791 149
8 792 140
8 793 81
8 794 103
8 795 74
8 796 86
8 797 76
8 798 82
8 799 90
8 800 71
8 801 51
8 802 72
8 803 64
8 804 86
8 805 79
8 806 75
8 807 221
8 808 156
8 809 85
8 810 379
8 811 80
8 812 83
8 813 70
8 814 180
8 815 86
8 816 85
8 817 88
8 818 148
8 819 87
8 820 72
8 821 80
8 822 68
8 823 68
8 824 82
8 825 95
8 826 33
8 827 95
8 828 100
8 829 85
8 830 57
8 831 94
8 832 53
8 833 71
8 834 65
8 835 113
8 836 116
8 837 65
8 838 75
8 839 80
8 840 77
8 841 73
8 842 99
8 843 76
8 844 61
8 845 82
8 846 38
8 847 62
8 848 1
8 849 59
8 850 253
8 851 56
8 852 64
8 853 78
8 854 48
8 855 1374
8 856 51
8 857 78
8 858 57
8 859 169
8 860 381
8 861 60
8 862 63
8 863 175
8 864 135
8 865 623
8 867 51
8 868 76
8 869 359
8 870 66
8 871 70
8 872 76
8 873 83
8 874 125
8 875 87
8 876 48
8 877 527
8 878 108
8 879 167
8 880 75
8 881 69
8 882 101
8 883 118
8 884 103
8 885 84
8 886 57
8 887 54
8 888 62
8 889 90
8 890 73
8 891 2
8 892 65
8 893 63
8 894 50
8 895 52
8 896 64
8 897 132
8 898 395
8 899 49
8 900 107
8 901 30
8 902 53
8 903 1
8 904 64
8 906 34
8 907 83
8 908 111
8 909 73
8 910 611
8 911 62
8 912 95
8 913 67
8 914 76
8 915 175
8 916 395
8 917 59
8 918 96
8 919 63
8 920 53
8 921 65
8 922 57
8 923 94
8 924 51
8 925 52
8 926 186
8 927 76
8 928 77
8 929 74
8 930 38
8 931 140
8 932 98
8 933 323
8 934 75
8 935 98
8 936 51
8 937 68
8 938 73
8 939 60
8 940 360
8 941 59
8 943 44
8 944 253
8 945 63
8 946 81
8 947 51
8 948 64
8 949 85
8 950 74
8 951 1096
8 952 68
8 953 61
8 954 64
8 955 72
8 956 141
8 957 168
8 958 67
8 959 70
8 960 3
8 961 58
8 962 2282
8 963 99
8 964 168
8 965 126
8 966 68
8 967 93
8 968 52
8 969 1
8 970 122
8 971 148
8 972 75
8 973 103
8 974 84
8 975 88
8 976 1
8 977 876
8 978 129
8 979 64
8 980 178
8 981 92
8 982 77
8 983 74
8 984 61
8 985 102
8 986 150
8 987 59
8 988 136
8 989 96
8 990 122
8 991 2
8 992 327
8 993 1105
8 994 62
8 995 45
8 996 66
8 997 111
8 998 67
8 999 92
8 1000 111
8 1001 82
8 1002 91
8 1003 182
8 1004 128
8 1005 50
8 1006 108
8 1007 61
8 1008 79
8 1009 116
8 1010 748
8 1011 45
8 1012 79
8 1013 84
8 1014 60
8 1015 69
8 1016 75
8 1017 68
8 1018 107
8 1019 57
8 1020 63
8 1021 1
8 1022 209
8 1023 638
8 1024 157
8 1025 630
8 1026 3
8 1027 68
8 1028 386
8 1029 60
8 1030 90
8 1031 88
8 1032 70
8 1033 155
8 1034 64
8 1035 51
8 1036 60
8 1037 66
8 1038 80
8 1039 96
8 1040 81
8 1041 58
8 1042 96
8 1043 55
8 1044 83
8 1045 90
8 1046 72
8 1047 63
8 1048 73
8 1049 58
8 1050 97
8 1051 61
8 1052 114
8 1053 114
8 1054 78
8 1055 364
8 1056 80
8 1057 184
8 1058 58
8 1059 341
8 1060 81
8 1061 93
8 1062 116
8 1063 151
8 1064 163
8 1065 65
8 1066 157
8 1067 63
8 1068 110
8 1069 61
8 1070 60
8 1071 70
8 1072 75
8 1073 13
8 1074 2
8 1075 53
8 1076 63
8 1077 38
8 1078 1
8 1079 401
8 1080 77
8 1081 73
8 1082 154
8 1083 261
8 1084 1182
8 1085 129
8 1086 51
8 1087 93
8 1088 72
8 1089 65
8 1090 50
8 1091 120
8 1092 75
8 1093 102
8 1094 75
8 1095 1
8 1096 57
8 1097 98
8 1098 86
8 1099 51
8 1100 56
8 1101 65
8 1102 66
8 1103 144
8 1104 95
8 1105 202
8 1106 54
8 1107 60
8 1108 230
8 1109 138
8 1110 64
8 1111 65
8 1112 78
8 1113 63
8 1114 67
8 1115 658
8 1116 54
8 1117 58
8 1118 69
8 1119 86
8 1120 62
8 1121 65
8 1122 75
8 1123 73
8 1124 73
8 1125 70
8 1126 65
8 1127 81
8 1128 51
8 1129 71
8 1130 62
8 1131 47
8 1132 65
8 1133 70
8 1134 101
8 1135 63
8 1136 64
8 1137 45
8 1138 64
8 1139 63
8 1140 46
8 1141 265
8 1142 61
8 1143 96
8 1144 69
8 1145 268
8 1146 158
8 1147 62
8 1148 69
8 1149 63
8 1150 75
8 1151 298
8 1152 110
8 1153 64
8 1154 83
8 1155 60
8 1156 90
8 1157 59
8 1158 65
8 1159 67
8 1160 70
8 1161 1
8 1162 58
8 1163 77
8 1164 60
8 1165 110
8 1166 165
8 1168 180
8 1169 142
8 1170 58
8 1171 54
8 1172 123
8 1173 67
8 1174 69
8 1175 99
8 1176 82
8 1177 145
8 1179 75
8 1180 691
8 1181 588
8 1182 95
8 1183 47
8 1184 59
8 1185 109
8 1186 69
8 1187 75
8 1188 69
8 1189 416
8 1190 805
8 1191 717
8 1192 70
8 1193 86
8 1194 105
8 1195 63
8 1196 182
8 1197 59
8 1198 57
8 1199 84
8 1200 2
8 1201 2
8 1204 73
8 1205 113
8 1206 51
8 1207 57
8 1209 867
8 1210 61
8 1211 118
8 1212 1
8 1213 3
8 1214 166
8 1215 64
8 1216 126
8 1217 73
8 1218 59
8 1220 289
8 1221 112
8 1222 130
8 1223 102
8 1224 61
8 1225 70
8 1226 243
8 1227 61
8 1228 71
8 1229 226
8 1230 85
8 1232 88
8 1233 825
8 1234 67
8 1235 82
8 1236 828
8 1237 75
8 1238 55
8 1239 78
8 1240 377
8 1241 69
8 1242 76
8 1243 454
8 1244 67
8 1245 75
8 1246 122
8 1247 61
8 1248 90
8 1249 96
8 1250 68
8 1251 1
8 1252 385
8 1253 73
8 1254 95
8 1255 85
8 1256 342
8 1257 2362
8 1258 79
8 1259 37
8 1260 69
8 1261 83
8 1262 84
8 1263 84
8 1264 70
8 1265 84
8 1266 129
8 1267 296
8 1268 72
8 1269 71
8 1270 85
8 1271 87
8 1272 69
8 1273 93
8 1274 94
8 1275 47
8 1276 69
8 1277 47
8 1278 95
8 1279 117
8 1280 69
8 1281 445
8 1282 125
8 1283 57
8 1284 67
8 1285 246
8 1286 69
8 1287 71
8 1288 131
8 1289 73
8 1290 360
8 1291 138
8 1292 65
8 1293 83
8 1294 71
8 1295 61
8 1296 1
8 1297 90
8 1298 54
8 1299 71
8 1300 77
8 1301 318
8 1302 85
8 1303 77
8 1304 69
8 1305 52
8 1306 90
8 1307 76
8 1308 172
8 1309 64
8 1310 57
8 1311 46
8 1312 119
8 1313 73
8 1314 73
8 1315 109
8 1316 15
8 1317 81
8 1318 83
8 1319 71
8 1320 96
8 1321 60
8 1322 73
8 1323 225
8 1324 70
8 1325 79
8 1326 97
8 1327 47
8 1328 123
8 1329 82
8 1330 73
8 1331 78
8 1332 397
8 1333 75
8 1334 87
8 1335 83
8 1336 126
8 1337 53
8 1338 96
8 1339 86
8 1340 95
8 1341 128
8 1342 78
8 1343 157
8 1344 88
8 1345 76
8 1346 119
8 1347 79
8 1348 154
8 1349 1
8 1350 97
8 1351 761
8 1352 91
8 1353 93
8 1354 2
8 1356 101
8 1357 61
8 1358 56
8 1359 90
8 1360 73
8 1361 175
8 1362 140
8 1363 75
8 1364 68
8 1365 80
8 1366 92
8 1367 76
8 1368 171
8 1369 79
8 1370 566
8 1371 74
8 1373 945
8 1374 58
8 1375 78
8 1376 647
8 1377 60
8 1378 74
8 1379 122
8 1380 234
8 1381 1
8 1382 133
8 1383 91
8 1385 69
8 1386 138
8 1388 79
8 1389 64
8 1390 87
8 1391 57
8 1392 58
8 1393 62
8 1394 587
8 1395 69
8 1396 93
8 1397 105
8 1398 84
8 1399 54
8 1400 174
8 1401 97
8 1402 72
8 1403 65
8 1404 313
8 1405 83
8 1406 298
8 1407 3
8 1408 79
8 1409 74
8 1410 361
8 1411 64
8 1412 2
8 1413 79
8 1414 145
8 1415 55
8 1416 63
8 1417 395
8 1418 53
8 1419 81
8 1420 226
8 1421 94
8 1422 63
8 1423 88
8 1424 53
8 1425 238
8 1426 71
8 1427 50
8 1428 76
8 1429 5
8 1430 69
8 1431 71
8 1432 58
8 1433 178
8 1434 50
8 1435 77
8 1436 256
8 1437 70
8 1438 195
8 1439 64
8 1440 55
8 1441 63
8 1442 236
8 1443 72
8 1444 200
8 1445 179
8 1446 544
8 1447 72
8 1448 82
8 1449 106
8 1451 106
8 1452 71
8 1453 62
8 1454 68
8 1455 68
8 1456 83
8 1457 67
8 1458 486
8 1459 319
8 1460 57
8 1461 101
8 1462 88
8 1463 67
8 1464 45
8 1465 1
8 1466 71
8 1467 63
8 1468 83
8 1469 76
8 1470 61
8 1471 143
8 1472 100
8 1473 84
8 1474 48
8 1475 74
8 1476 59
8 1477 55
8 1478 66
8 1479 65
8 1480 73
8 1481 84
8 1482 348
8 1483 68
8 1484 71
8 1485 232
8 1486 132
8 1487 51
8 1488 66
8 1489 57
8 1490 92
8 1491 174
8 1492 63
8 1493 111
8 1494 742
8 1495 90
8 1496 229
8 1497 54
8 1498 933
8 1499 65
8 1500 227
8 1502 83
8 1503 55
8 1504 76
8 1505 600
8 1506 153
8 1507 126
8 1508 56
8 1509 1
8 1510 223
8 1511 75
8 1512 88
8 1514 75
8 1515 71
8 1516 87
8 1517 119
8 1518 157
8 1519 89
8 1520 62
8 1521 57
8 1522 115
8 1523 58
8 1524 123
8 1525 46
8 1526 109
8 1527 99
8 1528 70
8 1529 75
8 1530 78
8 1531 87
8 1532 65
8 1533 57
8 1534 68
8 1535 45
8 1536 737
8 1537 77
8 1538 274
8 1539 74
8 1540 120
8 1541 91
8 1542 65
8 1543 71
8 1544 135
8 1545 145
8 1546 85
8 1547 89
8 1548 81
8 1549 90
8 1550 93
8 1551 35
8 1552 150
8 1553 643
8 1554 853
8 1555 215
8 1556 80
8 1557 228
8 1558 48
8 1559 10
8 1560 149
8 1561 67
8 1562 119
8 1563 79
8 1564 63
8 1565 88
8 1566 1132
8 1567 66
8 1568 147
8 1569 116
8 1570 391
8 1571 80
8 1572 171
8 1573 71
8 1574 954
8 1575 90
8 1576 83
8 1577 123
8 1578 83
8 1579 66
8 1580 1167
8 1581 93
8 1582 88
8 1583 74
8 1584 79
8 1585 132
8 1586 70
8 1587 86
8 1588 88
8 1589 243
8 1590 257
8 1591 58
8 1592 48
8 1593 67
8 1594 99
8 1595 53
8 1596 67
8 1597 70
8 1598 78
8 1599 65
8 1600 74
8 1601 1099
8 1602 92
8 1603 136
8 1605 89
8 1606 72
8 1607 100
8 1608 73
8 1609 90
8 1610 1
8 1611 64
8 1612 67
8 1613 929
8 1614 81
8 1615 111
8 1616 52
8 1617 72
8 1618 68
8 1619 165
8 1621 80
8 1622 125
8 1623 142
8 1624 54
8 1625 143
8 1626 78
8 1627 100
8 1628 62
8 1629 73
8 1630 108
8 1631 66
8 1632 260
8 1633 62
8 1634 81
8 1635 96
8 1636 98
8 1637 66
8 1638 118
8 1639 76
8 1640 84
8 1641 91
8 1642 84
8 1643 73
8 1644 69
8 1645 101
8 1646 61
8 1647 51
8 1648 191
8 1649 160
8 1650 71
8 1651 80
8 1652 137
8 1653 79
8 1654 86
8 1655 96
8 1656 55
8 1657 71
8 1658 86
8 1659 47
8 1660 67
8 1661 153
8 1662 140
8 1663 1
8 1664 72
8 1665 62
8 1666 67
8 1667 64
8 1668 78
8 1669 238
8 1670 56
8 1671 57
8 1672 49
8 1673 80
8 1674 65
8 1675 112
8 1676 65
8 1677 112
8 1678 133
8 1679 350
8 1680 118
8 1681 67
8 1682 78
8 1683 61
8 1684 64
8 1685 224
8 1686 72
8 1687 136
8 1688 86
8 1689 55
8 1690 55
8 1691 89
8 1692 85
8 1693 147
8 1694 64
8 1695 249
8 1696 26
8 1697 62
8 1698 3
8 1699 144
8 1700 101
8 1701 80
8 1702 56
8 1703 35
8 1704 59
8 1705 64
8 1706 74
8 1707 133
8 1708 1
8 1709 79
8 1710 87
8 1711 352
8 1712 77
8 1713 121
8 1714 54
8 1715 75
8 1716 69
8 1717 101
8 1718 47
8 1719 80
8 1720 57
8 1721 356
8 1722 47
8 1723 54
8 1724 76
8 1725 69
8 1726 87
8 1727 72
8 1728 74
8 1729 208
8 1730 90
8 1731 139
8 1732 139
8 1733 74
8 1734 112
8 1735 2
8 1736 10
8 1737 68
8 1738 71
8 1739 80
8 1740 81
8 1741 228
8 1742 57
8 1743 71
8 1744 68
8 1745 138
8 1747 206
8 1748 79
8 1749 167
8 1750 72
8 1751 78
8 1752 75
8 1753 288
8 1754 63
8 1755 157
8 1756 143
8 1757 483
8 1758 59
8 1759 58
8 1760 199
8 1761 54
8 1762 102
8 1763 509
8 1764 108
8 1765 49
8 1766 50
8 1767 231
8 1768 78
8 1769 91
8 1770 56
8 1771 65
8 1772 77
8 1773 110
8 1774 398
8 1775 67
8 1776 2
8 1777 138
8 1778 64
8 1779 546
8 1780 66
8 1781 101
8 1782 58
8 1783 125
8 1784 99
8 1785 55
8 1786 62
8 1787 132
8 1788 71
8 1789 83
8 1790 88
8 1791 64
8 1792 157
8 1793 77
8 1794 50
8 1795 61
8 1796 126
8 1797 69
8 1799 224
8 1800 414
8 1801 166
8 1802 67
8 1803 76
8 1804 64
8 1805 86
8 1806 93
8 1807 64
8 1809 65
8 1810 53
8 1811 68
8 1812 147
8 1813 76
8 1814 75
8 1815 65
8 1816 92
8 1817 91
8 1818 194
8 1819 490
8 1820 70
8 1821 75
8 1822 59
8 1823 93
8 1824 60
8 1825 199
8 1826 51
8 1827 147
8 1828 73
8 1829 82
8 1830 811
8 1831 298
8 1832 268
8 1833 78
8 1834 70
8 1835 74
8 1836 54
8 1837 67
8 1838 110
8 1839 91
8 1840 74
8 1841 95
8 1842 99
8 1843 61
8 1844 112
8 1845 4
8 1846 42
8 1847 63
8 1848 57
8 1849 65
8 1850 83
8 1851 224
8 1852 59
8 1853 70
8 1854 85
8 1855 98
8 1856 163
8 1857 61
8 1858 63
8 1859 73
8 1861 57
8 1862 108
8 1863 51
8 1864 91
8 1865 87
8 1866 73
8 1867 77
8 1868 413
8 1869 87
8 1870 126
8 1871 55
8 1872 80
8 1874 83
8 1875 75
8 1876 158
8 1877 91
8 1878 68
8 1879 64
8 1880 76
8 1881 60
8 1882 60
8 1884 98
8 1885 288
8 1886 95
8 1887 83
8 1888 130
8 1889 119
8 1890 53
8 1891 67
8 1892 78
8 1893 61
8 1894 64
8 1895 64
8 1896 453
8 1897 71
8 1898 168
8 1900 847
8 1901 66
8 1902 227
8 1903 82
8 1904 84
8 1905 71
8 1906 138
8 1907 70
8 1908 553
8 1909 111
8 1910 98
8 1911 76
8 1912 61
8 1913 326
8 1914 64
8 1915 61
8 1916 52
8 1917 78
8 1918 69
8 1919 154
8 1920 82
8 1921 69
8 1922 76
8 1923 134
8 1924 76
8 1925 48
8 1926 699
8 1927 35
8 1928 63
8 1929 58
8 1930 58
8 1931 55
8 1932 80
8 1933 60
8 1934 85
8 1935 83
8 1936 237
8 1937 80
8 1938 58
8 1939 78
8 1940 63
8 1941 102
8 1942 74
8 1943 828
8 1944 101
8 1945 73
8 1946 85
8 1947 48
8 1948 153
8 1949 150
8 1950 59
8 1951 99
8 1952 65
8 1953 124
8 1954 530
8 1955 120
8 1956 70
8 1957 103
8 1959 2
8 1960 61
8 1961 157
8 1962 84
8 1963 64
8 1964 89
8 1965 79
8 1966 93
8 1967 5
8 1968 82
8 1969 76
8 1970 69
8 1971 72
8 1972 73
8 1973 53
8 1974 104
8 1975 155
8 1976 43
8 1977 89
8 1978 105
8 1979 103
8 1980 84
8 1981 185
8 1982 117
8 1983 83
8 1984 67
8 1985 701
8 1986 69
8 1987 103
8 1988 102
8 1989 71
8 1990 109
8 1991 907
8 1992 58
8 1993 800
8 1994 61
8 1995 62
8 1996 81
8 1997 66
8 1998 66
8 1999 110
8 2000 66
8 2001 71
8 2002 72
8 2003 474
8 2004 162
8 2005 43
8 2006 57
8 2007 117
8 2008 69
8 2009 70
8 2011 33
8 2012 82
8 2013 81
8 2014 71
8 2015 74
8 2016 76
8 2017 51
8 2018 50
8 2019 108
8 2020 166
8 2021 51
8 2022 209
8 2023 87
8 2024 72
8 2025 55
8 2026 75
8 2027 51
8 2028 67
8 2029 64
8 2030 589
8 2031 72
8 2032 101
8 2033 61
8 2034 67
8 2035 70
8 2036 76
8 2037 152
8 2038 81
8 2039 206
8 2040 211
8 2041 59
8 2042 12
8 2043 124
8 2044 61
8 2045 79
8 2046 57
8 2047 87
8 2048 66
8 2049 69
8 2050 74
8 2051 43
8 2052 90
8 2053 66
8 2054 739
8 2055 265
8 2056 205
8 2057 90
8 2058 61
8 2059 73
8 2060 70
8 2061 79
8 2062 94
8 2063 182
8 2064 67
8 2065 65
8 2066 71
8 2067 69
8 2068 116
8 2069 76
8 2070 75
8 2071 160
8 2072 86
8 2073 60
8 2074 108
8 2075 210
8 2077 62
8 2078 87
8 2079 214
8 2080 48
8 2081 104
8 2082 75
8 2083 69
8 2084 59
8 2085 210
8 2086 76
8 2087 146
8 2088 66
8 2089 23
8 2090 202
8 2091 71
8 2092 27
8 2093 69
8 2094 216
8 2095 80
8 2096 1530
8 2097 69
8 2098 51
8 2099 1
8 2100 293
8 2101 55
8 2102 75
8 2103 638
8 2104 37
8 2105 324
8 2106 214
8 2107 57
8 2108 57
8 2109 29
8 2110 70
8 2111 408
8 2112 72
8 2113 51
8 2114 50
8 2115 1
8 2116 60
8 2117 60
8 2118 70
8 2119 1
8 2120 120
8 2121 65
8 2122 61
8 2123 75
8 2124 97
8 2125 101
8 2126 68
8 2127 64
8 2128 58
8 2129 71
8 2130 67
8 2131 5
8 2132 65
8 2133 96
8 2134 70
8 2135 47
8 2136 53
8 2137 60
8 2138 57
8 2139 130
8 2140 68
8 2142 65
8 2143 76
8 2144 61
8 2145 53
8 2146 76
8 2147 125
8 2148 122
8 2149 93
8 2150 74
8 2151 76
8 2152 71
8 2153 89
8 2154 69
8 2155 72
8 2156 115
8 2157 57
8 2158 81
8 2159 56
8 2160 39
8 2161 54
8 2162 62
8 2163 139
8 2164 65
8 2165 47
8 2166 52
8 2167 86
8 2168 74
8 2169 56
8 2170 72
8 2171 66
8 2172 82
8 2173 44
8 2174 334
8 2175 57
8 2176 50
8 2177 58
8 2178 156
8 2179 68
8 2180 60
8 2181 104
8 2184 245
8 2185 83
8 2186 72
8 2187 71
8 2188 89
8 2189 105
8 2190 2
8 2191 72
8 2192 105
8 2193 197
8 2194 158
8 2195 126
8 2196 72
8 2197 81
8 2198 64
8 2199 146
8 2200 61
8 2201 230
8 2202 50
8 2203 31
8 2204 2
8 2205 293
8 2206 78
8 2207 60
8 2208 49
8 2209 71
8 2210 73
8 2211 143
8 2212 161
8 2213 61
8 2214 186
8 2215 72
8 2216 52
8 2217 67
8 2218 41
8 2219 82
8 2220 60
8 2221 71
8 2222 3
8 2223 2
8 2224 4
8 2225 11
8 2226 18
8 2227 6
8 2228 9
8 2229 6
8 2230 15
8 2231 37
8 2232 6
8 2233 28
8 2234 13
8 2235 2
8 2236 4
8 2237 11
8 2238 39
8 2239 43
8 2240 63
8 2241 27
8 2242 97
8 2243 64
8 2244 38
8 2245 66
8 2246 37
8 2247 52
8 2248 67
8 2249 39
8 2250 74
8 2251 59
8 2252 51
8 2253 59
8 2254 89
8 2255 218
8 2256 93
8 2257 104
8 2258 86
8 2259 130
8 2260 84
8 2261 81
8 2262 48
8 2263 189
8 2264 75
8 2265 69
8 2266 72
8 2267 89
8 2268 60
8 2269 61
8 2270 78
8 2271 83
8 2272 88
8 2273 601
8 2274 64
8 2275 48
8 2276 53
8 2277 48
8 2278 40
8 2279 118
8 2280 37
8 2281 119
8 2282 58
8 2283 55
8 2284 66
8 2285 2
8 2286 75
8 2287 221
8 2288 57
8 2289 78
8 2290 124
8 2291 1328
8 2292 318
8 2293 63
8 2294 83
8 2295 75
8 2296 67
8 2297 71
8 2298 80
8 2299 68
8 2300 93
8 2301 165
8 2302 916
8 2303 143
8 2304 68
8 2305 1
8 2306 13
8 2307 71
8 2308 37
8 2309 60
8 2310 84
8 2311 63
8 2312 69
8 2313 57
8 2314 881
8 2315 53
8 2316 2
8 2317 75
8 2318 67
8 2319 3
8 2320 197
8 2321 90
8 2322 59
8 2323 62
8 2324 51
8 2325 98
8 2326 84
8 2327 48
8 2328 65
8 2329 73
8 2330 143
8 2331 85
8 2332 70
8 2333 102
8 2334 103
8 2335 49
8 2336 53
8 2337 63
8 2338 63
8 2339 87
8 2340 65
8 2341 145
8 2342 253
8 2343 89
8 2344 57
8 2345 65
8 2346 1
8 2347 1
8 2348 88
8 2349 925
8 2350 59
8 2351 1194
8 2352 130
8 2353 137
8 2354 61
8 2355 64
8 2356 66
8 2357 63
8 2358 58
8 2359 82
8 2360 106
8 2361 175
8 2362 250
8 2363 67
8 2364 17
8 2365 556
8 2366 83
8 2367 143
8 2368 68
8 2369 82
8 2370 761
8 2371 149
8 2372 63
8 2373 76
8 2374 394
8 2375 65
8 2376 93
8 2377 579
8 2378 52
8 2379 52
8 2380 71
8 2381 103
8 2382 62
8 2383 613
8 2384 3
8 2385 114
8 2386 107
8 2387 74
8 2388 654
8 2390 47
8 2391 82
8 2392 78
8 2393 187
8 2394 69
8 2395 1
8 2396 155
8 2397 192
8 2398 100
8 2399 66
8 2400 799
8 2401 84
8 2402 266
8 2403 80
8 2404 66
8 2405 79
8 2406 80
8 2407 72
8 2408 97
8 2409 100
8 2410 125
8 2411 118
8 2412 55
8 2413 124
8 2414 71
8 2415 68
8 2416 89
8 2417 471
8 2418 63
8 2419 361
8 2420 132
8 2421 65
8 2422 71
8 2423 27
8 2424 158
8 2425 65
8 2426 205
8 2427 222
8 2428 338
8 2429 64
8 2430 71
8 2431 52
8 2432 68
8 2433 176
8 2434 71
8 2435 69
8 2436 77
8 2437 58
8 2438 91
8 2439 63
8 2440 269
8 2441 53
8 2442 88
8 2443 659
8 2444 107
8 2445 68
8 2446 411
8 2447 595
8 2448 142
8 2449 75
8 2450 132
8 2451 261
8 2452 99
8 2453 158
8 2454 528
8 2455 67
8 2456 65
8 2457 83
8 2458 91
8 2459 73
8 2460 118
8 2461 159
8 2462 126
8 2463 58
8 2464 350
8 2465 229
8 2466 76
8 2467 58
8 2468 60
8 2469 77
8 2470 68
8 2471 804
8 2473 69
8 2474 57
8 2475 92
8 2476 70
8 2477 88
8 2478 78
8 2479 70
8 2480 61
8 2481 68
8 2482 95
8 2483 120
8 2484 65
8 2485 108
8 2486 71
8 2487 113
8 2488 293
8 2489 96
8 2490 74
8 2491 771
8 2492 64
8 2493 236
8 2494 389
8 2495 37
8 2496 148
8 2497 59
8 2498 70
8 2499 107
8 2500 93
8 2501 142
8 2502 835
8 2503 64
8 2504 56
8 2505 49
8 2506 89
8 2507 55
8 2508 51
8 2509 88
8 2510 64
8 2511 199
8 2512 42
8 2513 68
8 2514 56
8 2515 465
8 2516 59
8 2517 124
8 2518 80
8 2519 82
8 2520 143
8 2521 96
8 2522 109
8 2523 512
8 2524 82
8 2525 75
8 2526 63
8 2527 78
8 2528 54
8 2529 1
8 2530 66
8 2531 267
8 2532 153
8 2533 53
8 2534 50
8 2535 61
8 2536 79
8 2537 117
8 2538 60
8 2539 178
8 2540 62
8 2541 85
8 2542 65
8 2543 141
8 2544 68
8 2545 54
8 2546 79
8 2547 193
8 2548 65
8 2549 74
8 2550 76
8 2552 87
8 2553 88
8 2554 66
8 2555 145
8 2556 56
8 2557 102
8 2558 262
8 2559 34
8 2560 99
8 2561 2
8 2562 74
8 2563 64
8 2564 841
8 2565 68
8 2566 77
8 2567 82
8 2568 797
8 2569 52
8 2570 2867
8 2571 66
8 2572 98
8 2573 421
8 2574 151
8 2575 62
8 2576 18
8 2577 236
8 2578 81
8 2579 68
8 2580 2
8 2581 28
8 2582 76
8 2583 89
8 2584 335
8 2586 101
8 2587 904
8 2588 134
8 2589 118
8 2590 256
8 2591 62
8 2592 62
8 2593 113
8 2594 135
8 2595 94
8 2596 215
8 2597 57
8 2598 44
8 2600 67
8 2601 69
8 2602 134
8 2603 73
8 2604 69
8 2605 80
8 2606 68
8 2607 75
8 2608 109
8 2609 69
8 2610 63
8 2611 60
8 2612 61
8 2613 76
8 2614 67
8 2615 59
8 2616 911
8 2617 67
8 2618 79
8 2619 70
8 2620 62
8 2621 69
8 2622 76
8 2623 65
8 2624 60
8 2625 86
8 2626 195
8 2627 72
8 2628 68
8 2629 1043
8 2630 72
8 2631 79
8 2632 51
8 2633 308
8 2634 166
8 2635 16
8 2636 66
8 2637 75
8 2638 76
8 2639 262
8 2640 77
8 2641 72
8 2642 94
8 2643 157
8 2644 49
8 2645 199
8 2646 76
8 2647 177
8 2648 89
8 2649 64
8 2650 2
8 2651 49
8 2652 62
8 2653 163
8 2654 67
8 2655 350
8 2656 74
8 2657 53
8 2658 78
8 2659 90
8 2660 72
8 2661 78
8 2662 64
8 2663 70
8 2664 48
8 2665 67
8 2666 95
8 2667 48
8 2668 75
8 2669 60
8 2670 74
8 2671 70
8 2672 55
8 2673 164
8 2674 289
8 2675 57
8 2676 66
8 2677 66
8 2678 68
8 2679 72
8 2680 90
8 2681 3
8 2682 47
8 2683 10
8 2684 68
8 2685 68
8 2686 101
8 2687 60
8 2688 74
8 2689 81
8 2690 66
8 2691 1795
8 2692 66
8 2693 61
8 2694 31
8 2695 230
8 2696 63
8 2697 53
8 2698 61
8 2699 28
8 2700 65
8 2701 109
8 2702 1
8 2703 32
8 2704 54
8 2705 47
8 2706 61
8 2707 46
8 2708 105
8 2709 118
8 2710 58
8 2711 66
8 2712 95
8 2713 75
8 2714 62
8 2715 111
8 2716 52
8 2717 55
8 2718 55
8 2719 52
8 2721 881
8 2722 51
8 2723 423
8 2724 57
8 2725 60
8 2726 53
8 2727 57
8 2728 886
8 2729 66
8 2730 194
8 2731 82
8 2732 128
8 2733 55
8 2734 95
8 2735 1205
8 2736 1
8 2737 155
8 2738 126
8 2739 78
8 2740 271
8 2741 90
8 2742 68
8 2743 40
8 2744 266
8 2745 351
8 2746 48
8 2747 61
8 2748 54
8 2749 49
8 2750 1
8 2751 101
8 2752 57
8 2753 113
8 2754 117
8 2755 50
8 2756 52
8 2757 83
8 2758 44
8 2759 49
8 2760 48
8 2761 177
8 2762 118
8 2763 110
8 2765 53
8 2766 59
8 2767 48
8 2768 87
8 2769 40
8 2770 179
8 2771 69
8 2772 59
8 2773 48
8 2774 69
8 2775 44
8 2776 53
8 2777 180
8 2778 290
8 2779 58
8 2780 90
8 2781 53
8 2782 46
8 2783 593
8 2784 47
8 2785 123
8 2786 65
8 2787 56
8 2788 129
8 2789 100
8 2790 86
8 2791 81
8 2792 72
8 2793 72
8 2794 64
8 2795 107
8 2796 66
8 2797 44
8 2798 64
8 2799 55
8 2800 48
8 2801 58
8 2802 61
8 2803 204
8 2804 176
8 2805 122
8 2806 52
8 2807 59
8 2808 60
8 2809 48
8 2810 91
8 2811 68
8 2812 69
8 2813 59
8 2814 103
8 2815 44
8 2816 149
8 2817 127
8 2818 56
8 2819 85
8 2820 506
8 2821 63
8 2822 45
8 2823 51
8 2824 48
8 2825 117
8 2826 58
8 2827 45
8 2828 245
8 2829 108
8 2830 150
8 2831 79
8 2832 129
8 2833 92
8 2834 61
8 2835 58
8 2836 59
8 2837 59
8 2838 578
8 2839 171
8 2840 37
8 2841 842
8 2843 39
8 2844 48
8 2845 463
8 2846 43
8 2847 62
8 2848 61
8 2849 98
8 2850 49
8 2851 44
8 2852 45
8 2853 44
8 2854 16
8 2855 49
8 2856 48
8 2857 52
8 2858 63
8 2859 114
8 2860 2
8 2861 48
8 2862 56
8 2863 61
8 2864 103
8 2865 62
8 2866 7839
8 2867 63
8 2868 54
8 2869 45
8 2870 288
8 2871 65
8 2872 60
8 2873 574
8 2874 52
8 2875 116
8 2876 60
8 2877 113
8 2878 109
8 2879 83
8 2880 73
8 2881 67
8 2882 72
8 2883 31
8 2884 294
8 2885 676
8 2886 1
8 2887 58
8 2888 46
8 2889 56
8 2890 43
8 2891 55
8 2892 72
8 2893 117
8 2894 257
8 2895 103
8 2896 107
8 2897 48
8 2898 70
8 2899 65
8 2900 57
8 2901 59
8 2902 61
8 2903 75
8 2904 1
8 2905 63
8 2906 41
8 2907 53
8 2908 13
8 2909 50
8 2910 91
8 2911 76
8 2912 60
8 2913 115
8 2914 49
8 2915 54
8 2916 103
8 2917 52
8 2918 67
8 2919 37
8 2920 427
8 2921 65
8 2922 2
8 2923 61
8 2924 56
8 2925 67
8 2926 56
8 2927 110
8 2928 53
8 2929 198
8 2930 705
8 2931 204
8 2932 128
8 2933 49
8 2934 60
8 2935 82
8 2936 102
8 2937 81
8 2938 45
8 2939 52
8 2940 124
8 2941 51
8 2942 57
8 2943 571
8 2944 56
8 2945 42
8 2946 72
8 2947 38
8 2948 75
8 2949 57
8 2950 172
8 2951 73
8 2952 44
8 2953 58
8 2954 48
8 2955 78
8 2956 119
8 2957 101
8 2958 85
8 2959 50
8 2960 54
8 2961 50
8 2962 62
8 2963 77
8 2964 45
8 2965 47
8 2966 60
8 2967 57
8 2968 68
8 2969 213
8 2970 101
8 2971 56
8 2972 202
8 2973 42
8 2974 49
8 2975 104
8 2976 51
8 2977 45
8 2978 52
8 2979 36
8 2980 18
8 2981 69
8 2982 47
8 2983 87
8 2984 51
8 2985 54
8 2986 82
8 2987 112
8 2988 93
8 2989 55
8 2990 45
8 2991 41
8 2992 106
8 2993 47
8 2994 57
8 2995 334
8 2996 51
8 2997 379
8 2998 2
8 2999 52
8 3000 57
8 3001 52
8 3003 63
8 3004 51
8 3005 56
8 3006 132
8 3007 2
8 3008 43
8 3009 606
8 3010 69
8 3011 46
8 3012 52
8 3013 6
8 3014 57
8 3015 50
8 3016 49
8 3017 53
8 3018 65
8 3019 51
8 3020 1
8 3021 104
8 3022 246
8 3023 437
8 3024 152
8 3025 453
8 3026 61
8 3027 147
8 3028 135
8 3029 71
8 3030 136
8 3031 121
8 3032 182
8 3033 47
8 3034 206
8 3035 50
8 3036 112
8 3037 52
8 3038 108
8 3039 75
8 3040 45
8 3041 55
8 3042 90
8 3043 55
8 3044 50
8 3045 55
8 3046 63
8 3047 73
8 3048 65
8 3049 77
8 3050 75
8 3051 45
8 3052 108
8 3053 63
8 3054 538
8 3055 62
8 3056 165
8 3057 72
8 3058 47
8 3059 44
8 3060 54
8 3061 49
8 3062 485
8 3063 13
8 3064 55
8 3065 93
8 3066 55
8 3067 67
8 3068 52
8 3069 64
8 3070 96
8 3071 150
8 3072 55
8 3073 42
8 3074 70
8 3075 58
8 3076 229
8 3077 107
8 3078 139
8 3079 106
8 3080 55
8 3081 45
8 3082 2
8 3083 57
8 3084 77
8 3085 42
8 3086 1
8 3087 59
8 3088 55
8 3089 87
8 3090 262
8 3091 105
8 3092 65
8 3093 55
8 3094 33
8 3095 108
8 3096 72
8 3097 57
8 3098 48
8 3099 122
8 3100 46
8 3101 56
8 3102 100
8 3103 863
8 3104 37
8 3105 52
8 3106 57
8 3107 56
8 3108 40
8 3109 37
8 3110 61
8 3111 37
8 3112 148
8 3113 95
8 3114 74
8 3115 46
8 3116 68
8 3117 48
8 3118 42
8 3119 50
8 3120 48
8 3121 51
8 3122 55
8 3123 80
8 3124 43
8 3125 55
8 3126 43
8 3127 68
8 3128 58
8 3129 183
8 3130 47
8 3131 60
8 3132 59
8 3133 59
8 3134 2
8 3135 158
8 3136 86
8 3137 57
8 3138 78
8 3139 57
8 3140 61
8 3141 70
8 3142 61
8 3143 104
8 3144 236
8 3145 46
8 3146 80
8 3147 421
8 3148 53
8 3149 44
8 3150 53
8 3151 33
8 3152 65
8 3153 52
8 3154 73
8 3155 48
8 3156 100
8 3157 57
8 3158 44
8 3159 38
8 3160 95
8 3161 58
8 3162 67
8 3163 61
8 3165 46
8 3166 91
8 3167 59
8 3168 50
8 3169 134
8 3170 118
8 3171 116
8 3172 99
8 3173 50
8 3174 53
8 3175 322
8 3176 72
8 3177 99
8 3178 44
8 3179 2
8 3180 191
8 3181 62
8 3182 79
8 3183 43
8 3184 57
8 3185 122
8 3186 532
8 3187 47
8 3188 102
8 3189 67
8 3190 112
8 3191 65
8 3192 80
8 3193 64
8 3194 52
8 3195 50
8 3196 213
8 3197 63
8 3198 35
8 3199 65
8 3200 79
8 3201 42
8 3202 75
8 3203 51
8 3204 103
8 3205 70
8 3206 62
8 3207 108
8 3208 59
8 3209 75
8 3210 46
8 3211 76
8 3212 65
8 3213 52
8 3214 69
8 3215 73
8 3216 50
8 3217 228
8 3218 56
8 3219 64
8 3220 49
8 3221 30
8 3222 494
8 3223 55
8 3224 55
8 3225 50
8 3226 51
8 3227 44
8 3228 31
8 3229 51
8 3230 58
8 3231 66
8 3232 55
8 3233 54
8 3234 162
8 3236 35
8 3237 95
8 3238 33
8 3239 44
8 3240 75
8 3241 59
8 3242 769
8 3243 109
8 3244 132
8 3245 47
8 3246 60
8 3247 52
8 3248 170
8 3249 49
8 3250 784
8 3251 88
8 3252 68
8 3253 51
8 3254 55
8 3255 78
8 3256 69
8 3257 41
8 3258 623
8 3259 102
8 3260 47
8 3261 105
8 3262 114
8 3263 72
8 3264 65
8 3265 74
8 3266 81
8 3267 52
8 3268 128
8 3269 69
8 3270 85
8 3271 56
8 3272 56
8 3273 101
8 3274 53
8 3275 47
8 3276 51
8 3277 43
8 3278 45
8 3279 88
8 3281 51
8 3282 136
8 3283 68
8 3284 40
8 3285 50
8 3286 52
8 3287 356
8 3288 102
8 3289 50
8 3290 132
8 3291 54
8 3292 85
8 3293 30
8 3294 152
8 3295 50
8 3296 130
8 3297 59
8 3298 51
8 3299 51
8 3300 48
8 3301 2
8 3302 40
8 3303 86
8 3304 48
8 3305 116
8 3306 447
8 3307 37
8 3308 365
8 3309 3
8 3310 60
8 3311 58
8 3312 66
8 3313 30
8 3314 37
8 3315 37
8 3316 68
8 3317 79
8 3318 1
8 3319 49
8 3320 49
8 3321 67
8 3322 408
8 3323 132
8 3324 37
8 3325 130
8 3326 38
8 3327 65
8 3328 58
8 3329 72
8 3331 90
8 3332 43
8 3333 63
8 3334 112
8 3335 103
8 3336 56
8 3337 50
8 3338 39
8 3339 49
8 3340 104
8 3341 756
8 3342 59
8 3343 64
8 3344 77
8 3345 56
8 3346 53
8 3347 102
8 3348 81
8 3349 52
8 3350 51
8 3351 34
8 3352 47
8 3353 56
8 3354 77
8 3355 50
8 3356 44
8 3357 64
8 3358 56
8 3359 70
8 3360 247
8 3361 47
8 3362 68
8 3363 62
8 3364 51
8 3365 56
8 3366 51
8 3367 41
8 3368 58
8 3369 73
8 3370 49
8 3371 42
8 3372 62
8 3373 66
8 3374 60
8 3375 56
8 3376 37
8 3377 78
8 3378 183
8 3379 38
8 3380 80
8 3381 82
8 3382 60
8 3383 55
8 3384 54
8 3385 48
8 3386 282
8 3387 67
8 3388 165
8 3389 54
8 3390 153
8 3391 55
8 3392 135
8 3393 437
8 3394 228
8 3395 100
8 3396 70
8 3397 72
8 3398 56
8 3399 77
8 3400 73
8 3401 604
8 3402 63
8 3403 121
8 3404 67
8 3405 62
8 3406 70
8 3407 42
8 3408 61
8 3409 60
8 3410 606
8 3411 69
8 3412 2
8 3413 43
8 3414 57
8 3415 62
8 3416 69
8 3417 109
8 3418 43
8 3419 60
8 3420 55
8 3421 89
8 3422 50
8 3423 48
8 3424 68
8 3425 104
8 3426 155
8 3427 48
8 3428 70
8 3429 75
8 3430 54
8 3431 47
8 3432 62
8 3433 204
8 3434 66
8 3435 58
8 3436 48
8 3437 108
8 3438 93
8 3439 49
8 3440 291
8 3441 60
8 3442 52
8 3443 65
8 3444 236
8 3445 54
8 3446 50
8 3447 52
8 3448 671
8 3449 59
8 3450 49
8 3451 60
8 3452 53
8 3453 70
8 3454 58
8 3455 104
8 3456 2
8 3457 47
8 3458 55
8 3459 71
8 3460 57
8 3461 100
8 3462 259
8 3463 188
8 3464 54
8 3465 37
8 3466 56
8 3467 49
8 3468 57
8 3469 39
8 3470 71
8 3471 79
8 3472 414
8 3473 64
8 3474 180
8 3475 52
8 3476 64
8 3477 324
8 3478 56
8 3479 86
8 3481 62
8 3482 70
8 3483 63
8 3484 107
8 3485 452
8 3486 125
8 3487 64
8 3488 1
8 3489 106
8 3490 57
8 3491 45
8 3492 124
8 3493 44
8 3494 60
8 3495 98
8 3496 66
8 3497 74
8 3498 53
8 3499 46
8 3500 108
8 3501 46
8 3502 52
8 3503 362
8 3504 156
8 3505 12
8 3506 8
8 3507 46
8 3508 174
8 3509 47
8 3510 45
8 3511 39
8 3512 50
8 3513 48
8 3514 74
8 3515 48
8 3516 66
8 3517 48
8 3518 47
8 3519 75
8 3520 137
8 3521 64
8 3522 69
8 3523 49
8 3524 66
8 3525 57
8 3526 43
8 3527 66
8 3528 166
8 3530 107
8 3531 132
8 3532 61
8 3533 180
8 3534 49
8 3535 66
8 3536 58
8 3537 151
8 3538 70
8 3539 82
8 3540 588
8 3541 1
8 3542 54
8 3543 46
8 3544 66
8 3545 54
8 3546 165
8 3547 159
8 3548 123
8 3549 81
8 3550 60
8 3551 2
8 3552 59
8 3553 54
8 3554 47
8 3555 63
8 3556 65
8 3557 65
8 3558 131
8 3559 487
8 3560 63
8 3561 61
8 3562 60
8 3563 60
8 3564 54
8 3565 47
8 3566 54
8 3567 68
8 3568 98
8 3569 54
8 3570 60
8 3571 69
8 3572 49
8 3573 52
8 3574 44
8 3575 48
8 3576 38
8 3577 57
8 3578 83
8 3579 65
8 3580 28
8 3581 65
8 3582 42
8 3583 57
8 3584 76
8 3586 62
8 3587 135
8 3588 60
8 3589 69
8 3590 53
8 3591 66
8 3592 96
8 3593 56
8 3594 152
8 3595 53
8 3596 97
8 3597 136
8 3598 58
8 3599 60
8 3600 60
8 3601 93
8 3602 117
8 3603 173
8 3604 77
8 3605 48
8 3606 714
8 3607 61
8 3608 55
8 3609 62
8 3610 43
8 3611 52
8 3612 178
8 3613 58
8 3614 16
8 3615 67
8 3616 50
8 3617 51
8 3618 93
8 3619 91
8 3620 169
8 3621 49
8 3622 71
8 3623 69
8 3624 56
8 3625 49
8 3626 139
8 3627 109
8 3628 53
8 3629 54
8 3630 438
8 3631 61
8 3632 54
8 3633 30
8 3634 180
8 3635 165
8 3636 71
8 3637 250
8 3638 181
8 3639 64
8 3640 503
8 3641 83
8 3642 53
8 3643 795
8 3644 48
8 3645 89
8 3646 109
8 3647 121
8 3648 55
8 3649 55
8 3650 63
8 3651 58
8 3652 32
8 3653 31
8 3654 65
8 3655 52
8 3656 38
8 3657 22
8 3658 86
8 3659 49
8 3660 59
8 3661 63
8 3662 93
8 3663 69
8 3664 66
8 3665 55
8 3666 50
8 3667 147
8 3668 333
8 3669 44
8 3670 45
8 3671 361
8 3672 40
8 3673 44
8 3674 53
8 3675 135
8 3676 47
8 3677 83
8 3678 32
8 3679 232
8 3680 53
8 3681 82
8 3682 45
8 3683 48
8 3684 32
8 3686 85
8 3687 44
8 3688 41
8 3689 51
8 3690 36
8 3691 143
8 3692 58
8 3693 105
8 3694 51
8 3695 44
8 3696 53
8 3697 93
8 3698 154
8 3699 83
8 3700 62
8 3701 118
8 3702 3
8 3703 210
8 3704 48
8 3705 40
8 3706 60
8 3707 116
8 3708 35
8 3709 148
8 3710 250
8 3711 144
8 3712 47
8 3713 48
8 3714 69
8 3715 40
8 3716 78
8 3717 47
8 3718 31
8 3719 40
8 3720 77
8 3721 82
8 3722 44
8 3723 75
8 3724 31
8 3725 54
8 3726 94
8 3727 98
8 3728 44
8 3729 38
8 3730 52
8 3731 46
8 3732 56
8 3733 40
8 3734 51
8 3735 44
8 3736 91
8 3737 25
8 3738 35
8 3739 28
8 3740 19
8 3741 44
8 3742 24
8 3743 31
8 3744 68
8 3745 32
8 3746 31
8 3747 34
8 3748 26
8 3749 11
8 3750 37
8 3751 45
8 3752 74
8 3753 52
8 3754 51
8 3755 44
8 3756 97
8 3757 44
8 3758 77
8 3759 42
8 3760 2
8 3761 183
8 3762 40
8 3763 57
8 3764 37
8 3765 40
8 3766 303
8 3767 6
8 3768 78
8 3769 43
8 3770 28
8 3771 36
8 3772 48
8 3773 32
8 3774 35
8 3775 445
8 3776 33
8 3777 66
8 3778 78
8 3779 40
8 3780 42
8 3781 288
8 3782 64
8 3783 47
8 3784 88
8 3785 45
8 3786 38
8 3787 36
8 3788 45
8 3789 3
8 3790 20
8 3791 497
8 3792 43
8 3793 48
8 3794 44
8 3795 47
8 3796 49
8 3797 348
8 3798 67
8 3799 46
8 3800 54
8 3801 44
8 3802 93
8 3803 48
8 3804 113
8 3805 48
8 3806 57
8 3807 49
8 3808 49
8 3809 44
8 3810 45
8 3812 42
8 3813 38
8 3814 168
8 3815 34
8 3816 43
8 3817 36
8 3818 209
8 3819 55
8 3820 32
8 3821 45
8 3822 54
8 3823 42
8 3824 54
8 3825 51
8 3826 42
8 3827 42
8 3828 354
8 3829 85
8 3830 74
8 3831 487
8 3832 554
8 3833 1
8 3834 9
8 3835 6
8 3836 92
8 3837 37
8 3838 40
8 3839 41
8 3840 44
8 3841 57
8 3842 36
8 3843 34
8 3844 1
8 3845 40
8 3846 34
8 3847 34
8 3848 446
8 3849 34
8 3850 53
8 3851 41
8 3852 26
8 3853 37
8 3854 40
8 3855 31
8 3856 31
8 3857 46
8 3858 2
8 3859 138
8 3860 1
8 3861 42
8 3862 54
8 3863 54
8 3864 44
8 3865 55
8 3866 73
8 3867 33
8 3869 496
8 3870 44
8 3871 52
8 3872 85
8 3873 50
8 3874 60
8 3875 56
8 3876 45
8 3877 35
8 3878 98
8 3879 43
8 3880 44
8 3881 58
8 3882 72
8 3883 48
8 3884 87
8 3885 51
8 3886 30
8 3887 44
8 3888 45
8 3889 113
8 3890 72
8 3891 40
8 3892 106
8 3893 42
8 3894 35
8 3895 41
8 3896 41
8 3897 62
8 3898 42
8 3899 47
8 3900 55
8 3901 40
8 3902 101
8 3903 47
8 3904 115
8 3905 39
8 3906 309
8 3907 44
8 3908 66
8 3909 44
8 3910 38
8 3911 31
8 3912 74
8 3913 443
8 3914 84
8 3915 55
8 3916 43
8 3917 54
8 3918 109
8 3919 39
8 3920 90
8 3921 49
8 3922 42
8 3923 128
8 3924 214
8 3925 43
8 3926 181
8 3927 47
8 3928 39
8 3929 57
8 3930 42
8 3931 374
8 3932 228
8 3934 46
8 3935 15
8 3936 37
8 3937 81
8 3938 32
8 3939 44
8 3940 85
8 3941 41
8 3942 433
8 3943 48
8 3944 6
8 3945 23
8 3946 46
8 3947 333
8 3948 23
8 3949 68
8 3950 76
8 3951 35
8 3952 124
8 3953 49
8 3954 50
8 3955 127
8 3956 78
8 3957 73
8 3958 34
8 3959 45
8 3960 28
8 3961 604
8 3962 44
8 3963 25
8 3964 244
8 3965 57
8 3966 43
8 3967 54
8 3968 66
8 3969 140
8 3970 30
8 3971 1
8 3972 35
8 3973 47
8 3974 32
8 3975 46
8 3976 42
8 3977 41
8 3978 45
8 3979 50
8 3980 34
8 3981 35
8 3982 110
8 3983 69
8 3984 74
8 3985 41
8 3986 10
8 3987 45
8 3988 52
8 3989 98
8 3990 38
8 3991 29
8 3992 34
8 3993 61
8 3994 43
8 3995 44
8 3996 36
8 3997 36
8 3998 93
8 3999 51
8 4000 44
8 4001 37
8 4002 33
8 4003 42
8 4004 32
8 4005 110
8 4006 33
8 4007 31
8 4008 36
8 4009 29
8 4010 72
8 4011 38
8 4012 38
8 4013 40
8 4014 157
8 4015 33
8 4016 39
8 4017 36
8 4018 77
8 4019 81
8 4020 58
8 4021 115
8 4022 80
8 4023 88
8 4024 60
8 4025 69
8 4026 1
8 4027 45
8 4028 111
8 4029 705
8 4030 64
8 4031 124
8 4032 54
8 4033 60
8 4034 65
8 4035 46
8 4036 102
8 4037 66
8 4038 85
8 4039 66
8 4040 54
8 4041 42
8 4042 53
8 4043 46
8 4044 47
8 4045 103
8 4046 58
8 4047 72
8 4048 65
8 4049 65
8 4050 220
8 4051 73
8 4052 194
8 4053 60
8 4054 62
8 4055 70
8 4056 55
8 4057 64
8 4058 93
8 4059 66
8 4060 56
8 4061 68
8 4062 130
8 4063 113
8 4064 55
8 4065 85
8 4066 118
8 4067 1
8 4068 52
8 4069 193
8 4070 66
8 4071 37
8 4072 73
8 4073 2
8 4074 75
8 4075 731
8 4076 74
8 4077 52
8 4078 105
8 4079 58
8 4080 571
8 4081 303
8 4082 60
8 4085 162
8 4086 893
8 4087 136
8 4088 279
8 4089 50
8 4090 463
8 4091 228
8 4092 308
8 4093 153
8 4094 72
8 4095 70
8 4096 68
8 4097 47
8 4098 116
8 4099 65
8 4100 54
8 4101 156
8 4102 195
8 4103 104
8 4104 85
8 4105 67
8 4106 66
8 4107 86
8 4108 51
8 4109 61
8 4110 80
8 4111 171
8 4112 54
8 4113 54
8 4114 64
8 4115 57
8 4116 56
8 4117 64
8 4119 70
8 4120 113
8 4121 65
8 4122 87
8 4123 95
8 4124 75
8 4125 263
8 4126 114
8 4127 60
8 4128 119
8 4129 55
8 4130 1007
8 4131 77
8 4132 68
8 4133 56
8 4134 68
8 4135 148
8 4136 91
8 4137 706
8 4138 94
8 4139 301
8 4140 16
8 4141 244
8 4142 216
8 4143 111
8 4144 70
8 4145 56
8 4146 115
8 4147 62
8 4148 124
8 4149 114
8 4150 66
8 4152 67
8 4153 128
8 4154 69
8 4155 61
8 4156 71
8 4157 156
8 4158 50
8 4159 122
8 4160 68
8 4161 202
8 4162 69
8 4163 70
8 4164 30
8 4165 77
8 4166 506
8 4167 69
8 4168 215
8 4169 82
8 4170 272
8 4171 88
8 4172 127
8 4173 65
8 4174 33
8 4175 85
8 4176 85
8 4177 85
8 4178 81
8 4179 525
8 4180 64
8 4181 59
8 4182 68
8 4183 142
8 4184 49
8 4185 54
8 4186 57
8 4187 66
8 4188 63
8 4189 30
8 4190 245
8 4191 72
8 4192 146
8 4193 90
8 4194 126
8 4195 90
8 4196 112
8 4197 71
8 4198 44
8 4199 82
8 4200 77
8 4201 105
8 4202 126
8 4203 151
8 4204 77
8 4205 508
8 4206 66
8 4207 75
8 4208 75
8 4209 75
8 4210 101
8 4211 74
8 4212 56
8 4213 70
8 4214 66
8 4215 43
8 4216 325
8 4217 67
8 4218 70
8 4219 216
8 4220 55
8 4221 359
8 4222 57
8 4223 56
8 4224 140
8 4225 84
8 4226 125
8 4227 193
8 4228 70
8 4229 1501
8 4230 43
8 4231 51
8 4232 66
8 4233 106
8 4234 57
8 4235 527
8 4236 70
8 4237 144
8 4238 65
8 4239 99
8 4240 210
8 4241 2
8 4242 89
8 4243 84
8 4244 62
8 4245 105
8 4246 145
8 4247 908
8 4248 59
8 4249 133
8 4251 68
8 4252 57
8 4253 70
8 4254 110
8 4255 130
8 4256 1
8 4257 56
8 4258 43
8 4259 56
8 4260 60
8 4261 82
8 4262 86
8 4263 54
8 4264 40
8 4265 70
8 4266 60
8 4267 81
8 4268 101
8 4269 57
8 4270 68
8 4271 76
8 4272 66
8 4273 66
8 4274 55
8 4275 123
8 4276 89
8 4277 55
8 4278 57
8 4279 55
8 4280 70
8 4281 145
8 4282 72
8 4283 125
8 4285 91
8 4286 112
8 4287 60
8 4288 96
8 4289 70
8 4290 111
8 4291 82
8 4292 115
8 4293 184
8 4294 78
8 4295 502
8 4296 63
8 4297 168
8 4298 69
8 4299 355
8 4300 77
8 4301 396
8 4302 177
8 4303 180
8 4304 1
8 4305 109
8 4306 86
8 4307 60
8 4308 68
8 4309 67
8 4310 64
8 4311 111
8 4312 60
8 4313 131
8 4314 1
8 4315 79
8 4316 254
8 4317 1
8 4318 109
8 4319 81
8 4320 52
8 4321 61
8 4322 55
8 4323 57
8 4324 82
8 4325 375
8 4326 61
8 4327 64
8 4328 171
8 4329 95
8 4331 92
8 4332 262
8 4333 64
8 4334 56
8 4335 129
8 4336 80
8 4337 1
8 4338 371
8 4339 121
8 4340 93
8 4341 444
8 4342 58
8 4343 112
8 4344 50
8 4345 140
8 4346 130
8 4347 76
8 4348 66
8 4349 170
8 4350 133
8 4351 166
8 4352 86
8 4353 353
8 4354 902
8 4355 46
8 4356 50
8 4357 69
8 4358 70
8 4359 111
8 4360 59
8 4361 58
8 4362 52
8 4363 79
8 4364 57
8 4365 73
8 4366 72
8 4367 74
8 4368 63
8 4369 65
8 4370 117
8 4371 51
8 4372 123
8 4373 65
8 4374 128
8 4375 59
8 4376 50
8 4377 40
8 4378 125
8 4379 345
8 4380 66
8 4381 1371
8 4382 50
8 4383 60
8 4384 48
8 4385 100
8 4386 633
8 4387 58
8 4388 71
8 4389 61
8 4390 86
8 4391 90
8 4392 72
8 4393 76
8 4394 64
8 4395 57
8 4396 136
8 4397 247
8 4398 60
8 4399 125
8 4400 81
8 4401 192
8 4402 78
8 4403 872
8 4404 702
8 4406 60
8 4407 68
8 4408 63
8 4409 57
8 4410 75
8 4411 7
8 4413 76
8 4414 3
8 4415 94
8 4416 143
8 4417 67
8 4418 116
8 4419 59
8 4420 242
8 4421 43
8 4422 52
8 4423 79
8 4424 46
8 4425 73
8 4426 75
8 4427 71
8 4428 61
8 4429 41
8 4430 75
8 4431 83
8 4432 235
8 4433 83
8 4434 72
8 4435 39
8 4436 94
8 4437 70
8 4438 44
8 4439 124
8 4440 634
8 4441 63
8 4442 87
8 4443 132
8 4444 276
8 4445 70
8 4446 59
8 4447 133
8 4448 78
8 4449 81
8 4450 53
8 4451 78
8 4452 68
8 4453 69
8 4454 132
8 4455 60
8 4456 106
8 4457 71
8 4458 80
8 4459 1
8 4460 81
8 4461 1
8 4462 77
8 4463 88
8 4464 122
8 4465 1
8 4466 55
8 4467 155
8 4468 63
8 4469 62
8 4470 71
8 4471 96
8 4472 61
8 4473 46
8 4474 50
8 4475 357
8 4476 83
8 4477 62
8 4478 63
8 4479 48
8 4480 120
8 4481 47
8 4482 65
8 4483 68
8 4484 86
8 4485 134
8 4486 1130
8 4487 50
8 4488 59
8 4489 118
8 4490 68
8 4491 132
8 4492 69
8 4493 699
8 4494 122
8 4495 68
8 4496 71
8 4497 72
8 4498 75
8 4499 46
8 4500 81
8 4501 67
8 4502 76
8 4503 46
8 4504 52
8 4505 180
8 4506 719
8 4507 98
8 4508 60
8 4509 48
8 4510 53
8 4511 69
8 4512 122
8 4513 90
8 4514 70
8 4515 61
8 4516 63
8 4517 66
8 4518 52
8 4519 156
8 4520 73
8 4521 68
8 4522 103
8 4523 61
8 4524 89
8 4525 49
8 4526 49
8 4527 165
8 4528 113
8 4529 219
8 4530 57
8 4531 80
8 4532 60
8 4533 79
8 4534 65
8 4535 1
8 4536 53
8 4537 140
8 4538 206
8 4539 566
8 4540 100
8 4541 92
8 4542 80
8 4543 577
8 4544 58
8 4545 79
8 4546 94
8 4547 76
8 4548 69
8 4549 77
8 4550 256
8 4551 73
8 4552 62
8 4553 67
8 4554 110
8 4555 123
8 4556 59
8 4557 56
8 4558 70
8 4559 245
8 4560 64
8 4561 57
8 4562 62
8 4563 495
8 4564 55
8 4565 64
8 4566 70
8 4567 47
8 4568 60
8 4569 97
8 4570 76
8 4571 41
8 4572 61
8 4573 1231
8 4574 66
8 4575 679
8 4576 89
8 4577 2
8 4578 64
8 4579 82
8 4580 50
8 4582 344
8 4583 65
8 4584 81
8 4585 161
8 4586 304
8 4587 56
8 4588 53
8 4589 58
8 4590 92
8 4591 69
8 4592 72
8 4593 59
8 4594 64
8 4595 71
8 4596 54
8 4597 288
8 4598 84
8 4599 61
8 4600 63
8 4601 360
8 4602 107
8 4603 65
8 4604 66
8 4605 83
8 4606 101
8 4607 113
8 4608 68
8 4609 172
8 4610 125
8 4611 104
8 4612 55
8 4613 56
8 4614 68
8 4615 204
8 4616 76
8 4617 71
8 4618 54
8 4619 71
8 4620 84
8 4621 108
8 4622 2
8 4623 57
8 4624 68
8 4625 91
8 4626 57
8 4627 73
8 4628 127
8 4629 1223
8 4630 68
8 4631 124
8 4632 295
8 4633 150
8 4634 85
8 4635 137
8 4636 87
8 4637 52
8 4638 79
8 4639 236
8 4640 68
8 4641 70
8 4642 76
8 4643 56
8 4644 51
8 4645 264
8 4646 60
8 4647 833
8 4648 119
8 4650 72
8 4652 2
8 4653 67
8 4654 61
8 4655 69
8 4656 87
8 4657 86
8 4658 76
8 4659 89
8 4660 53
8 4661 84
8 4662 77
8 4663 65
8 4664 66
8 4665 54
8 4666 79
8 4667 79
8 4668 70
8 4669 80
8 4670 64
8 4671 96
8 4672 122
8 4673 59
8 4674 65
8 4675 62
8 4676 73
8 4677 80
8 4678 178
8 4679 210
8 4680 67
8 4681 60
8 4683 135
8 4684 59
8 4685 4
8 4686 97
8 4687 257
8 4688 55
8 4689 104
8 4690 74
8 4691 61
8 4692 94
8 4693 62
8 4694 63
8 4695 1
8 4696 82
8 4697 125
8 4698 64
8 4699 61
8 4701 1
8 4702 187
8 4703 1037
8 4704 62
8 4705 267
8 4706 99
8 4707 58
8 4708 200
8 4709 140
8 4710 3
8 4711 75
8 4712 695
8 4713 2
8 4714 75
8 4715 67
8 4716 52
8 4717 62
8 4718 665
8 4719 129
8 4720 96
8 4721 52
8 4722 86
8 4723 154
8 4724 66
8 4725 81
8 4726 50
8 4727 75
8 4728 59
8 4729 430
8 4730 89
8 4731 2
8 4732 137
8 4733 60
8 4734 60
8 4735 55
8 4736 75
8 4737 153
8 4738 85
8 4739 65
8 4740 65
8 4741 53
8 4742 185
8 4743 63
8 4744 58
8 4745 590
8 4746 54
8 4747 139
8 4748 139
8 4749 57
8 4750 85
8 4752 174
8 4753 69
8 4754 68
8 4755 58
8 4756 78
8 4757 58
8 4758 83
8 4759 60
8 4760 87
8 4761 312
8 4762 94
8 4763 130
8 4764 86
8 4765 68
8 4766 73
8 4767 172
8 4768 41
8 4769 87
8 4770 67
8 4771 49
8 4772 103
8 4773 60
8 4774 77
8 4775 118
8 4776 75
8 4777 868
8 4778 65
8 4779 58
8 4780 75
8 4781 61
8 4782 80
8 4783 64
8 4784 5
8 4785 71
8 4786 124
8 4787 84
8 4788 78
8 4789 92
8 4790 484
8 4791 64
8 4792 83
8 4793 72
8 4794 70
8 4795 71
8 4796 141
8 4797 51
8 4798 146
8 4799 62
8 4800 96
8 4801 78
8 4802 63
8 4803 82
8 4804 62
8 4805 89
8 4806 81
8 4807 63
8 4809 65
8 4810 70
8 4811 80
8 4812 143
8 4813 66
8 4814 148
8 4815 73
8 4816 59
8 4817 132
8 4818 74
8 4819 74
8 4820 62
8 4821 69
8 4822 37
8 4823 41
8 4824 60
8 4825 76
8 4826 80
8 4827 58
8 4828 119
8 4829 60
8 4830 69
8 4831 63
8 4832 65
8 4833 66
8 4834 57
8 4835 123
8 4836 790
8 4837 74
8 4838 156
8 4839 209
8 4840 65
8 4841 70
8 4842 57
8 4843 58
8 4844 198
8 4845 232
8 4846 104
8 4847 68
8 4848 55
8 4849 111
8 4850 24
8 4851 155
8 4852 63
8 4853 92
8 4854 66
8 4855 86
8 4856 80
8 4857 65
8 4858 193
8 4859 133
8 4860 52
8 4861 98
8 4862 84
8 4863 119
8 4864 62
8 4865 122
8 4866 70
8 4867 82
8 4868 77
8 4869 89
8 4870 86
8 4871 666
8 4872 76
8 4873 73
8 4874 95
8 4875 106
8 4876 70
8 4877 50
8 4878 66
8 4879 257
8 4880 93
8 4881 122
8 4882 42
8 4883 64
8 4884 96
8 4885 62
8 4886 3
8 4887 58
8 4888 66
8 4889 66
8 4890 68
8 4891 54
8 4892 69
8 4893 173
8 4894 86
8 4895 63
8 4896 62
8 4897 63
8 4898 108
8 4900 53
8 4901 193
8 4902 76
8 4903 56
8 4904 50
8 4905 296
8 4906 62
8 4907 74
8 4908 50
8 4909 69
8 4910 76
8 4911 43
8 4912 59
8 4913 107
8 4914 98
8 4915 60
8 4916 55
8 4917 134
8 4918 124
8 4919 108
8 4920 54
8 4921 129
8 4922 61
8 4923 45
8 4924 55
8 4925 55
8 4926 33
8 4927 80
8 4928 42
8 4929 68
8 4930 152
8 4931 1198
8 4932 116
8 4933 56
8 4934 55
8 4935 64
8 4936 51
8 4937 47
8 4939 52
8 4940 70
8 4941 134
8 4942 66
8 4943 51
8 4944 394
8 4945 67
8 4946 58
8 4947 44
8 4948 1
8 4949 39
8 4950 53
8 4951 46
8 4952 79
8 4954 66
8 4955 57
8 4956 120
8 4957 64
8 4958 56
8 4959 76
8 4960 92
8 4961 609
8 4962 75
8 4963 81
8 4964 83
8 4965 77
8 4966 50
8 4967 54
8 4968 51
8 4969 54
8 4970 68
8 4971 45
8 4972 67
8 4973 52
8 4974 160
8 4975 73
8 4976 55
8 4977 55
8 4978 62
8 4979 66
8 4980 542
8 4981 67
8 4982 64
8 4984 89
8 4985 712
8 4986 69
8 4987 51
8 4989 80
8 4990 68
8 4991 61
8 4992 58
8 4993 71
8 4996 139
8 4997 322
8 4998 77
8 4999 40
8 5000 65
8 5001 383
8 5002 94
8 5003 65
8 5004 783
8 5005 43
8 5006 354
8 5007 70
8 5008 332
8 5009 48
8 5010 49
8 5011 58
8 5012 75
8 5013 104
8 5014 311
8 5015 54
8 5016 46
8 5017 41
8 5018 60
8 5019 183
8 5020 74
8 5021 45
8 5022 120
8 5023 44
8 5024 64
8 5025 40
8 5026 70
8 5027 151
8 5028 61
8 5029 797
8 5030 63
8 5031 144
8 5032 63
8 5033 93
8 5034 92
8 5035 19
8 5036 54
8 5037 53
8 5038 65
8 5039 55
8 5040 50
8 5041 4
8 5042 88
8 5043 63
8 5044 150
8 5045 57
8 5046 65
8 5047 1
8 5048 66
8 5049 95
8 5050 69
8 5051 72
8 5052 412
8 5053 81
8 5054 41
8 5055 22
8 5056 56
8 5057 56
8 5058 64
8 5059 57
8 5060 55
8 5061 137
8 5062 48
8 5063 60
8 5064 64
8 5065 60
8 5066 38
8 5067 59
8 5068 80
8 5069 30
8 5070 4
8 5071 1
8 5072 97
8 5073 52
8 5074 736
8 5075 52
8 5076 185
8 5077 85
8 5078 81
8 5079 61
8 5080 446
8 5081 63
8 5082 2
8 5083 70
8 5084 96
8 5085 113
8 5086 101
8 5087 45
8 5088 72
8 5089 51
8 5090 45
8 5091 1
8 5092 209
8 5093 38
8 5094 73
8 5095 77
8 5097 68
8 5098 57
8 5099 97
8 5100 216
8 5101 619
8 5102 58
8 5103 151
8 5104 96
8 5105 53
8 5106 50
8 5107 61
8 5108 82
8 5109 54
8 5110 32
8 5111 50
8 5112 42
8 5113 60
8 5114 1
8 5115 60
8 5116 116
8 5117 77
8 5118 67
8 5119 116
8 5120 69
8 5121 54
8 5122 54
8 5123 346
8 5124 59
8 5125 340
8 5126 51
8 5127 59
8 5128 66
8 5129 106
8 5130 59
8 5131 163
8 5132 54
8 5133 51
8 5134 62
8 5135 60
8 5136 32
8 5137 11
8 5138 1
8 5139 77
8 5140 50
8 5141 41
8 5142 1
8 5143 52
8 5144 38
8 5145 186
8 5146 91
8 5147 26
8 5148 29
8 5149 73
8 5150 70
8 5151 1
8 5152 113
8 5153 39
8 5154 31
8 5156 33
8 5157 75
8 5158 31
8 5159 66
