%%MatrixMarket matrix coordinate integer general
%
3 14607 43142
1 1 11
1 2 3
1 3 12
1 4 2
1 5 32
1 6 4
1 7 13
1 8 7
1 9 6
1 10 8
1 11 6
1 12 10
1 13 3
1 14 2
1 15 3
1 16 5
1 17 5
1 18 11
1 19 14
1 20 21
1 21 5
1 22 1
1 23 21
1 24 540
1 25 18
1 26 7
1 27 11
1 28 7
1 29 17
1 30 1455
1 31 3
1 32 3
1 33 54
1 34 4
1 35 6
1 36 1
1 37 5
1 38 14
1 39 1
1 40 33
1 41 32
1 42 4
1 43 2
1 44 6
1 45 4
1 46 5
1 48 31
1 49 1
1 50 2
1 51 17
1 52 4
1 53 21
1 54 14
1 55 2
1 56 19
1 57 1
1 58 66
1 59 3
1 60 10
1 61 27
1 62 1
1 63 2
1 64 100
1 65 24
1 66 5
1 67 911
1 68 20
1 69 52
1 70 25
1 71 973
1 72 4
1 73 1
1 75 1
1 76 2
1 77 8
1 78 7
1 79 7
1 80 1
1 81 9
1 82 32
1 83 3
1 84 2
1 85 33
1 86 62
1 87 6
1 88 6
1 89 45
1 90 5
1 91 4
1 92 24
1 93 4
1 94 4
1 95 5
1 96 5
1 97 4
1 98 973
1 99 7
1 100 593
1 101 41
1 102 4
1 103 1
1 104 2
1 105 4
1 106 3
1 107 3
1 108 10
1 109 64
1 110 2
1 111 5
1 113 1
1 114 6
1 115 6
1 116 7
1 117 2
1 118 4
1 119 1
1 120 6
1 121 7
1 122 15
1 123 44
1 125 6
1 127 33
1 128 19
1 129 16
1 130 4
1 131 3
1 132 7
1 133 4
1 134 7
1 135 23
1 136 1
1 137 4
1 138 3
1 139 2
1 140 10
1 141 5
1 142 7
1 143 1
1 144 34
1 145 4
1 146 1
1 147 19
1 148 113
1 149 28
1 150 3
1 151 672
1 152 53
1 153 28
1 154 8
1 155 3
1 156 5
1 158 36
1 159 2
1 160 1
1 162 54
1 163 39
1 164 13
1 165 24
1 166 4
1 167 15
1 168 61
1 169 4
1 170 13
1 171 1
1 172 7
1 174 4
1 175 35
1 176 2
1 177 4
1 178 4
1 179 10
1 180 5
1 183 11
1 184 2
1 185 9
1 186 57
1 187 5
1 188 4
1 189 1
1 190 8
1 191 19
1 193 21
1 194 3
1 195 10
1 196 10
1 197 7
1 198 70
1 199 4
1 200 1
1 201 1
1 202 2
1 203 5
1 204 2
1 205 63
1 206 102
1 207 6
1 208 28
1 209 6
1 210 15
1 211 21
1 212 15
1 213 57
1 214 4
1 215 31
1 216 2
1 217 4
1 218 52
1 219 24
1 220 3
1 221 38
1 222 22
1 223 2
1 224 11
1 225 4
1 226 91
1 227 2
1 228 20
1 229 5
1 230 5
1 231 7
1 232 52
1 233 9
1 234 1
1 235 2
1 236 69
1 237 3
1 238 8
1 239 18
1 240 87
1 241 21
1 242 5
1 243 18
1 244 1
1 245 10
1 246 2
1 247 1
1 248 34
1 249 1
1 250 13
1 251 37
1 252 26
1 253 2
1 254 1
1 255 35
1 256 42
1 257 2
1 258 3
1 259 10
1 260 17
1 261 2
1 262 5
1 263 21
1 264 43
1 265 4
1 266 4
1 267 2
1 268 4
1 269 26
1 270 27
1 271 19
1 272 13
1 273 1
1 274 4
1 276 6
1 277 48
1 278 4
1 279 6
1 280 57
1 281 31
1 282 13
1 283 4
1 284 48
1 285 45
1 286 23
1 287 2
1 288 38
1 289 2
1 290 4
1 291 3
1 292 4
1 293 5
1 294 40
1 295 2
1 296 20
1 297 20
1 298 2
1 299 5
1 300 6
1 301 2
1 303 26
1 305 3
1 306 51
1 307 22
1 308 16
1 309 7
1 310 19
1 311 13
1 312 31
1 313 4
1 314 592
1 315 35
1 316 1
1 317 1
1 318 61
1 319 19
1 320 16
1 321 1
1 322 15
1 323 28
1 324 1
1 325 19
1 326 1
1 327 3
1 329 23
1 330 4
1 331 10
1 332 28
1 333 6
1 334 62
1 335 7
1 336 27
1 337 15
1 338 4
1 339 772
1 340 1
1 341 7
1 342 2
1 343 6
1 344 4
1 345 1
1 346 5
1 347 24
1 348 5
1 349 3
1 350 13
1 351 3
1 352 9
1 353 5
1 355 17
1 356 4
1 357 4
1 358 8
1 359 2
1 360 21
1 361 6
1 362 31
1 363 4
1 364 22
1 365 11
1 366 1027
1 367 26
1 368 14
1 369 3
1 370 9
1 371 17
1 372 46
1 373 5
1 374 6
1 376 1
1 377 3
1 378 23
1 379 6
1 380 10
1 381 2
1 382 4
1 383 44
1 385 1
1 386 3
1 387 32
1 388 1
1 389 11
1 390 73
1 391 21
1 392 3
1 394 14
1 396 28
1 397 12
1 398 22
1 399 6
1 400 2
1 401 5
1 402 3
1 403 25
1 404 43
1 405 84
1 406 9
1 407 105
1 408 1
1 409 24
1 410 2
1 411 3
1 412 6
1 413 81
1 414 19
1 415 5
1 416 4
1 417 18
1 418 21
1 419 9
1 420 21
1 421 20
1 422 3
1 423 3
1 424 36
1 425 2
1 426 3
1 427 23
1 428 3
1 429 1
1 430 36
1 431 4
1 432 4
1 433 3
1 434 18
1 435 1
1 436 24
1 437 21
1 438 14
1 439 2
1 440 26
1 441 2
1 442 7
1 443 3
1 444 1
1 445 54
1 446 1
1 447 2
1 448 3
1 449 38
1 450 6
1 451 1
1 452 20
1 453 4
1 454 3
1 455 36
1 456 6
1 457 14
1 458 19
1 459 7
1 460 4
1 461 3
1 462 2
1 463 1
1 464 6
1 465 20
1 466 8
1 467 3
1 468 1
1 469 5
1 470 4
1 471 1
1 472 19
1 473 104
1 474 890
1 475 4
1 476 29
1 477 3
1 479 2
1 480 11
1 481 3
1 482 4
1 483 5
1 484 7
1 485 5
1 486 3
1 487 38
1 488 10
1 489 9
1 490 2
1 491 7
1 492 461
1 493 2
1 494 13
1 495 31
1 497 45
1 498 172
1 499 23
1 500 7
1 501 35
1 502 1182
1 503 24
1 504 6
1 505 4
1 506 17
1 507 19
1 508 1
1 509 18
1 510 27
1 511 12
1 512 2
1 513 15
1 514 3
1 515 2
1 516 2
1 517 1064
1 518 43
1 519 1
1 520 3
1 521 703
1 522 5
1 523 28
1 524 7
1 525 11
1 526 11
1 527 5
1 528 2
1 529 6
1 530 466
1 531 16
1 532 6
1 533 14
1 534 1
1 535 30
1 536 45
1 537 29
1 538 6
1 539 1
1 541 9
1 542 3
1 543 2
1 544 2
1 545 3
1 547 1
1 548 19
1 549 1077
1 550 23
1 551 5
1 552 15
1 553 30
1 556 5
1 557 4
1 558 27
1 559 2
1 560 2
1 561 84
1 563 2
1 564 57
1 565 5
1 566 23
1 567 3
1 568 5
1 569 3
1 570 3
1 571 10
1 572 6
1 573 5
1 574 1
1 575 30
1 577 3
1 578 6
1 579 10
1 580 22
1 581 18
1 582 13
1 583 5
1 584 51
1 585 1
1 586 72
1 587 3
1 588 3
1 589 4
1 590 1
1 591 4
1 592 4
1 593 39
1 594 11
1 595 4
1 596 1
1 597 1
1 598 2
1 599 13
1 600 9
1 601 37
1 602 1
1 603 3
1 604 17
1 605 302
1 606 25
1 608 4
1 609 16
1 610 5
1 611 2
1 612 15
1 614 3
1 615 2
1 616 3
1 617 5
1 618 29
1 619 5
1 620 2
1 621 30
1 622 4
1 623 5
1 625 4
1 626 2
1 627 4
1 628 27
1 629 31
1 630 4
1 631 26
1 632 11
1 633 2
1 634 3
1 635 1
1 636 28
1 637 5
1 639 15
1 640 9
1 641 11
1 642 2
1 643 2
1 644 46
1 645 6
1 646 5
1 647 6
1 648 4
1 649 10
1 650 426
1 651 26
1 652 3
1 653 12
1 654 4
1 655 5
1 656 6
1 657 12
1 658 59
1 659 6
1 660 73
1 661 5
1 662 1
1 663 4
1 664 4
1 665 2
1 666 17
1 667 2
1 668 40
1 669 28
1 670 1
1 671 4
1 672 19
1 673 2
1 674 1
1 675 7
1 676 7
1 677 13
1 678 42
1 679 4
1 680 6
1 681 16
1 682 7
1 683 18
1 684 23
1 685 43
1 686 18
1 687 1
1 688 3
1 689 3
1 690 7
1 691 4
1 692 29
1 693 56
1 694 3
1 695 20
1 696 1
1 697 1
1 698 3
1 699 9
1 701 2
1 703 3
1 704 14
1 705 14
1 706 27
1 707 4
1 708 15
1 709 4
1 710 4
1 711 4
1 712 17
1 713 38
1 714 2
1 715 12
1 716 5
1 717 3
1 718 5
1 719 11
1 720 5
1 721 41
1 722 8
1 723 13
1 724 3
1 725 4
1 726 16
1 727 3
1 728 4
1 729 2
1 730 13
1 731 11
1 732 1
1 733 210
1 734 10
1 735 2
1 736 4
1 737 40
1 738 46
1 740 5
1 741 4
1 742 3
1 743 24
1 745 13
1 746 4
1 747 17
1 748 5
1 749 1
1 750 5
1 751 2
1 752 6
1 753 2
1 754 8
1 755 1
1 756 2
1 757 3
1 758 9
1 759 7
1 760 3
1 761 8
1 762 3
1 763 6
1 764 53
1 765 3
1 766 1
1 767 18
1 768 22
1 769 3
1 770 37
1 771 18
1 772 133
1 773 2
1 774 2
1 775 5
1 776 4
1 777 18
1 778 31
1 779 7
1 780 16
1 781 3
1 782 1
1 783 6
1 784 25
1 785 4
1 786 1
1 787 20
1 788 37
1 789 36
1 790 21
1 791 34
1 792 9
1 793 5
1 794 2
1 795 2
1 796 9
1 797 3
1 798 10
1 799 11
1 800 13
1 801 36
1 802 1
1 803 21
1 804 94
1 805 6
1 806 16
1 807 1
1 808 18
1 809 68
1 810 77
1 811 24
1 812 17
1 813 23
1 814 7
1 815 1
1 816 2
1 817 1
1 818 5
1 819 6
1 820 16
1 821 15
1 822 5
1 823 1
1 824 59
1 825 19
1 826 1
1 827 10
1 828 2
1 829 1
1 830 11
1 831 1
1 832 25
1 833 56
1 834 45
1 835 3
1 836 8
1 837 19
1 838 1
1 840 2
1 841 3
1 842 56
1 843 32
1 844 38
1 845 10
1 846 4
1 847 3
1 848 60
1 849 82
1 850 6
1 851 19
1 852 14
1 853 9
1 854 6
1 855 18
1 856 6
1 857 49
1 858 3
1 859 5
1 860 8
1 861 368
1 862 22
1 863 4
1 864 3
1 865 14
1 866 2
1 867 1
1 868 3
1 869 3
1 870 6
1 871 5
1 872 6
1 873 1
1 875 26
1 876 3
1 877 3
1 878 2
1 879 6
1 880 36
1 881 67
1 882 27
1 883 1
1 884 7
1 885 1
1 886 2
1 887 13
1 888 62
1 889 5
1 890 18
1 891 7
1 892 12
1 893 1
1 894 1
1 895 14
1 896 3
1 897 2
1 898 62
1 899 19
1 900 2
1 901 9
1 903 23
1 904 9
1 905 6
1 906 6
1 907 6
1 908 2
1 909 28
1 910 32
1 911 19
1 912 6
1 913 1
1 914 2
1 915 2
1 916 9
1 917 5
1 919 4
1 920 1
1 921 6
1 922 4
1 924 2
1 925 2
1 926 13
1 927 23
1 928 11
1 929 49
1 930 6
1 931 10
1 932 4
1 933 24
1 934 17
1 935 14
1 936 3
1 937 631
1 939 5
1 940 13
1 941 21
1 942 17
1 943 3
1 944 4
1 945 6
1 946 8
1 947 38
1 948 35
1 949 22
1 950 8
1 951 45
1 952 42
1 953 9
1 954 7
1 955 5
1 956 3
1 957 14
1 958 2
1 959 23
1 960 2
1 961 7
1 962 7
1 963 6
1 964 2
1 965 4
1 966 6
1 967 27
1 968 22
1 969 8
1 970 10
1 971 4
1 972 3
1 973 23
1 974 18
1 975 2
1 976 12
1 977 44
1 978 30
1 979 3
1 980 1
1 981 10
1 982 2
1 983 5
1 984 56
1 985 16
1 986 3
1 987 4
1 988 2
1 989 3
1 990 3
1 991 23
1 992 3
1 993 6
1 994 3
1 995 22
1 996 2
1 997 4
1 998 9
1 999 705
1 1000 5
1 1001 9
1 1002 17
1 1003 5
1 1004 21
1 1005 7
1 1006 1
1 1007 38
1 1008 72
1 1009 3
1 1010 2
1 1011 1147
1 1012 6
1 1013 3
1 1014 37
1 1015 5
1 1016 3
1 1017 3
1 1018 12
1 1019 2
1 1020 5
1 1021 10
1 1022 2
1 1023 1
1 1024 5
1 1025 5
1 1026 15
1 1027 208
1 1028 4
1 1029 3
1 1030 34
1 1031 38
1 1032 25
1 1033 1
1 1034 29
1 1035 13
1 1036 3
1 1037 1
1 1038 54
1 1040 8
1 1041 48
1 1042 1
1 1043 3
1 1044 65
1 1045 3
1 1046 32
1 1047 2
1 1049 4
1 1050 26
1 1051 32
1 1052 6
1 1053 5
1 1054 25
1 1055 1
1 1056 26
1 1057 4
1 1059 2
1 1060 47
1 1061 38
1 1062 33
1 1063 10
1 1065 2
1 1066 19
1 1067 14
1 1068 19
1 1069 16
1 1070 23
1 1071 4
1 1072 3
1 1073 19
1 1074 3
1 1075 5
1 1076 22
1 1077 74
1 1078 4
1 1079 1
1 1080 5
1 1081 909
1 1082 5
1 1083 13
1 1084 2
1 1085 1
1 1086 19
1 1087 4
1 1088 2
1 1089 28
1 1090 12
1 1091 24
1 1092 8
1 1094 20
1 1095 4
1 1096 19
1 1097 16
1 1098 3
1 1099 9
1 1100 4
1 1101 2
1 1102 28
1 1103 3
1 1104 4
1 1105 1390
1 1106 7
1 1107 91
1 1108 10
1 1109 21
1 1110 3
1 1112 3
1 1113 13
1 1114 20
1 1115 17
1 1116 3
1 1117 34
1 1118 25
1 1119 1
1 1120 3
1 1121 21
1 1122 12
1 1123 1
1 1124 24
1 1125 24
1 1126 24
1 1127 27
1 1128 57
1 1129 2
1 1130 11
1 1132 45
1 1133 222
1 1134 1
1 1135 3
1 1136 2
1 1137 2
1 1138 11
1 1139 1
1 1140 4
1 1141 20
1 1142 8
1 1143 5
1 1144 6
1 1145 14
1 1146 31
1 1147 13
1 1149 1
1 1150 1
1 1151 1
1 1152 3
1 1153 7
1 1154 6
1 1155 3
1 1156 2
1 1157 34
1 1158 3
1 1159 46
1 1160 14
1 1161 1
1 1162 3
1 1163 11
1 1164 19
1 1165 1
1 1166 23
1 1167 43
1 1168 6
1 1169 1
1 1170 7
1 1171 8
1 1172 348
1 1173 19
1 1174 2
1 1175 3
1 1176 22
1 1177 8
1 1178 2
1 1179 22
1 1180 1
1 1181 5
1 1182 15
1 1183 1323
1 1184 6
1 1185 4
1 1186 3
1 1187 40
1 1188 19
1 1189 6
1 1190 50
1 1191 1
1 1192 20
1 1193 31
1 1194 3
1 1195 18
1 1196 9
1 1197 4
1 1198 2
1 1199 4
1 1200 16
1 1201 4
1 1202 7
1 1203 3
1 1204 32
1 1205 18
1 1206 1
1 1207 57
1 1208 3
1 1210 21
1 1211 1
1 1212 2
1 1213 1
1 1214 4
1 1215 3
1 1216 17
1 1217 40
1 1218 8
1 1219 3
1 1221 2
1 1222 1
1 1223 4
1 1224 15
1 1225 1
1 1226 3
1 1227 25
1 1228 31
1 1229 20
1 1230 5
1 1231 3
1 1232 52
1 1233 37
1 1234 1238
1 1235 24
1 1236 2
1 1237 5
1 1238 33
1 1239 4
1 1240 3
1 1241 1
1 1242 2
1 1243 39
1 1244 3
1 1245 3
1 1246 13
1 1247 24
1 1249 51
1 1250 6
1 1251 3
1 1252 2
1 1253 56
1 1255 1
1 1256 30
1 1257 7
1 1258 543
1 1259 4
1 1260 26
1 1261 29
1 1262 7
1 1263 2
1 1264 1
1 1265 4
1 1266 13
1 1267 24
1 1268 46
1 1269 1
1 1270 98
1 1271 20
1 1272 16
1 1273 37
1 1274 4
1 1275 7
1 1276 7
1 1277 103
1 1278 466
1 1279 8
1 1280 12
1 1281 2
1 1282 3
1 1283 3
1 1284 8
1 1285 5
1 1286 12
1 1287 21
1 1288 1
1 1289 12
1 1290 4
1 1291 1
1 1292 3
1 1293 3
1 1294 19
1 1295 1
1 1296 6
1 1297 5
1 1298 2
1 1299 5
1 1300 43
1 1301 13
1 1302 41
1 1303 5
1 1304 2
1 1305 53
1 1306 9
1 1307 34
1 1308 3
1 1309 5
1 1310 4
1 1311 17
1 1312 2
1 1313 7
1 1314 7
1 1315 3
1 1316 5
1 1317 23
1 1318 5
1 1319 5
1 1320 24
1 1321 655
1 1322 4
1 1323 11
1 1324 8
1 1325 4
1 1326 47
1 1327 2
1 1328 1
1 1329 2
1 1330 4
1 1331 50
1 1332 7
1 1333 2
1 1334 22
1 1335 29
1 1336 1
1 1337 2
1 1338 2
1 1339 5
1 1340 11
1 1341 39
1 1342 6
1 1343 20
1 1344 14
1 1345 3
1 1346 22
1 1347 3
1 1348 5
1 1349 4
1 1350 23
1 1351 4
1 1352 3
1 1353 2
1 1354 2
1 1355 20
1 1356 9
1 1357 3
1 1358 215
1 1359 24
1 1360 1
1 1361 5
1 1362 6
1 1363 12
1 1364 16
1 1365 49
1 1366 66
1 1367 1
1 1368 3
1 1369 399
1 1370 2
1 1371 3
1 1372 22
1 1373 221
1 1374 3
1 1375 3
1 1376 3
1 1377 3
1 1378 2
1 1379 1
1 1380 7
1 1381 14
1 1382 1
1 1383 2
1 1384 2
1 1385 28
1 1386 83
1 1388 3
1 1389 13
1 1390 1
1 1391 5
1 1392 52
1 1394 26
1 1395 11
1 1396 12
1 1397 23
1 1398 20
1 1399 7
1 1400 8
1 1401 4
1 1402 4
1 1403 952
1 1404 7
1 1405 26
1 1406 5
1 1407 11
1 1408 5
1 1409 34
1 1410 9
1 1411 2
1 1412 35
1 1413 6
1 1414 14
1 1415 6
1 1416 50
1 1417 30
1 1418 15
1 1419 1
1 1420 7
1 1422 31
1 1423 4
1 1424 20
1 1425 6
1 1426 35
1 1427 2
1 1428 2
1 1429 24
1 1430 2
1 1431 9
1 1432 4
1 1433 40
1 1435 3
1 1436 2
1 1437 72
1 1438 13
1 1439 59
1 1440 1
1 1441 24
1 1442 7
1 1443 2
1 1444 79
1 1445 8
1 1446 67
1 1447 1
1 1448 6
1 1449 1
1 1450 4
1 1451 4
1 1452 2
1 1453 8
1 1454 33
1 1455 63
1 1456 2
1 1457 5
1 1458 38
1 1459 72
1 1460 5
1 1461 58
1 1462 3
1 1463 3
1 1464 26
1 1465 22
1 1466 1
1 1467 2
1 1468 36
1 1469 32
1 1470 13
1 1471 4
1 1472 18
1 1473 125
1 1474 18
1 1475 6
1 1476 36
1 1477 3
1 1478 4
1 1479 14
1 1481 35
1 1482 1
1 1483 42
1 1484 13
1 1485 4
1 1486 7
1 1487 1899
1 1488 38
1 1489 10
1 1490 5
1 1491 18
1 1492 3
1 1493 33
1 1494 2
1 1495 17
1 1496 6
1 1497 3
1 1498 5
1 1499 1
1 1500 63
1 1502 13
1 1503 26
1 1504 4
1 1505 18
1 1506 17
1 1507 3
1 1508 2
1 1509 23
1 1510 6
1 1511 26
1 1512 41
1 1513 36
1 1514 6
1 1515 6
1 1516 4
1 1517 6
1 1518 20
1 1519 2
1 1520 8
1 1521 18
1 1522 47
1 1523 8
1 1524 2
1 1525 15
1 1526 3
1 1527 31
1 1528 23
1 1529 7
1 1530 4
1 1531 1
1 1532 9
1 1533 1
1 1534 3
1 1535 20
1 1537 25
1 1538 1
1 1539 2
1 1540 143
1 1541 17
1 1542 5
1 1543 3
1 1544 1
1 1545 2
1 1546 2
1 1547 26
1 1548 42
1 1549 3
1 1550 11
1 1551 4
1 1552 2
1 1553 5
1 1554 6
1 1555 4
1 1556 26
1 1557 13
1 1558 72
1 1559 2
1 1560 32
1 1561 3
1 1562 10
1 1563 9
1 1564 1
1 1565 5
1 1566 71
1 1567 4
1 1569 1
1 1570 3
1 1571 27
1 1572 896
1 1573 2
1 1574 10
1 1575 11
1 1576 2
1 1577 12
1 1578 3
1 1579 5
1 1580 1
1 1581 3
1 1582 21
1 1583 3
1 1584 2
1 1585 48
1 1586 4
1 1587 4
1 1588 7
1 1589 1
1 1590 7
1 1591 1325
1 1592 19
1 1593 5
1 1594 14
1 1595 67
1 1596 7
1 1597 7
1 1598 3
1 1599 111
1 1600 43
1 1601 2
1 1602 48
1 1603 1
1 1604 11
1 1605 4
1 1606 1355
1 1607 5
1 1608 4
1 1609 44
1 1610 3
1 1612 3
1 1613 4
1 1614 2
1 1615 1
1 1616 2
1 1617 4
1 1618 1
1 1619 23
1 1620 3
1 1621 3
1 1622 2
1 1623 6
1 1624 24
1 1625 13
1 1626 4
1 1627 4
1 1628 5
1 1629 6
1 1630 17
1 1631 15
1 1632 1
1 1633 2
1 1634 17
1 1635 37
1 1636 3
1 1637 1
1 1638 2
1 1640 19
1 1641 2
1 1642 18
1 1643 10
1 1644 41
1 1645 3
1 1647 9
1 1648 24
1 1649 1
1 1650 17
1 1651 3
1 1652 24
1 1653 5
1 1654 4
1 1655 10
1 1656 7
1 1657 2
1 1658 3
1 1659 7
1 1660 4
1 1661 3
1 1662 2
1 1663 1096
1 1664 882
1 1665 16
1 1666 1
1 1667 6
1 1668 1
1 1669 2
1 1670 6
1 1671 14
1 1672 2
1 1673 16
1 1674 9
1 1675 1
1 1676 5
1 1677 1
1 1679 8
1 1680 6
1 1681 5
1 1682 14
1 1683 27
1 1684 12
1 1685 49
1 1686 2
1 1687 4
1 1688 2
1 1689 6
1 1690 3
1 1691 17
1 1692 6
1 1693 42
1 1694 3
1 1695 4
1 1696 37
1 1697 1
1 1698 8
1 1699 64
1 1700 4
1 1701 16
1 1702 10
1 1704 4
1 1705 2
1 1707 31
1 1708 4
1 1709 1
1 1710 674
1 1711 681
1 1712 4
1 1713 3
1 1714 1
1 1715 2
1 1716 7
1 1717 2
1 1718 11
1 1719 1
1 1720 69
1 1721 23
1 1722 8
1 1723 4
1 1724 4
1 1725 4
1 1726 7
1 1727 7
1 1728 4
1 1729 28
1 1730 30
1 1731 2
1 1732 453
1 1733 2
1 1734 57
1 1735 20
1 1736 3
1 1737 2
1 1738 1
1 1739 20
1 1740 4
1 1741 15
1 1742 59
1 1743 5
1 1744 7
1 1745 18
1 1746 28
1 1747 3
1 1748 2
1 1749 4
1 1750 6
1 1751 17
1 1752 4
1 1753 3
1 1754 1
1 1755 9
1 1756 25
1 1757 4
1 1758 5
1 1759 1
1 1760 17
1 1761 4
1 1762 3
1 1763 26
1 1764 1
1 1765 1
1 1766 14
1 1767 7
1 1768 7
1 1769 1
1 1770 2
1 1771 4
1 1772 5
1 1773 3
1 1774 2
1 1775 4
1 1776 136
1 1777 5
1 1778 1
1 1779 16
1 1780 73
1 1781 21
1 1782 6
1 1783 12
1 1784 4
1 1785 56
1 1786 32
1 1787 4
1 1788 19
1 1789 2
1 1790 1
1 1791 22
1 1792 3
1 1793 28
1 1794 11
1 1795 4
1 1796 2
1 1797 3
1 1798 4
1 1799 4
1 1800 1
1 1801 42
1 1802 6
1 1803 9
1 1804 4
1 1805 2
1 1806 15
1 1807 18
1 1808 1
1 1809 1
1 1810 12
1 1811 1
1 1812 33
1 1813 1
1 1814 32
1 1815 25
1 1816 3
1 1817 5
1 1818 29
1 1820 4
1 1821 4
1 1822 7
1 1823 2
1 1824 4
1 1825 7
1 1826 5
1 1827 4
1 1828 14
1 1829 17
1 1830 7
1 1831 1
1 1832 1
1 1833 4
1 1834 6
1 1835 10
1 1836 32
1 1837 76
1 1838 1
1 1839 21
1 1840 12
1 1841 27
1 1842 19
1 1843 12
1 1844 4
1 1845 7
1 1846 3
1 1847 532
1 1848 1
1 1849 4
1 1850 11
1 1851 6
1 1852 4
1 1853 9
1 1854 3
1 1855 23
1 1856 2
1 1857 7
1 1858 26
1 1859 543
1 1860 22
1 1861 6
1 1862 35
1 1863 5
1 1864 3
1 1865 18
1 1866 2
1 1867 2
1 1868 1
1 1869 35
1 1870 14
1 1871 4
1 1872 4
1 1873 3
1 1874 1
1 1875 69
1 1876 19
1 1877 48
1 1878 13
1 1879 1
1 1880 21
1 1881 16
1 1882 13
1 1883 8
1 1884 2
1 1885 4
1 1886 13
1 1888 1118
1 1889 6
1 1890 18
1 1891 5
1 1892 27
1 1893 4
1 1894 4
1 1895 17
1 1896 29
1 1898 20
1 1899 29
1 1900 8
1 1901 3
1 1902 1
1 1903 5
1 1904 2
1 1905 3
1 1906 3
1 1907 5
1 1908 33
1 1909 6
1 1910 10
1 1911 1
1 1912 3
1 1913 40
1 1914 8
1 1915 16
1 1916 29
1 1917 18
1 1918 3
1 1919 8
1 1920 13
1 1921 3
1 1922 1
1 1923 51
1 1924 2
1 1925 6
1 1926 3
1 1927 32
1 1928 2
1 1929 32
1 1930 2
1 1931 3
1 1932 2
1 1933 26
1 1934 29
1 1935 6
1 1936 17
1 1937 5
1 1938 16
1 1939 8
1 1940 6
1 1941 6
1 1942 4
1 1943 1170
1 1944 4
1 1945 35
1 1946 59
1 1947 11
1 1948 19
1 1949 1
1 1950 2
1 1951 4
1 1952 1
1 1953 16
1 1954 2
1 1955 4
1 1956 2
1 1957 8
1 1958 43
1 1959 27
1 1960 13
1 1961 19
1 1962 32
1 1965 12
1 1966 7
1 1967 12
1 1968 8
1 1969 34
1 1970 33
1 1972 39
1 1973 8
1 1974 16
1 1975 2
1 1976 2
1 1977 1
1 1978 2
1 1979 3
1 1980 50
1 1981 2
1 1982 47
1 1983 19
1 1984 11
1 1985 4
1 1986 20
1 1987 2
1 1988 1
1 1989 3
1 1990 17
1 1991 4
1 1992 13
1 1993 6
1 1994 1
1 1995 1
1 1996 17
1 1997 43
1 1998 19
1 1999 21
1 2000 4
1 2001 1
1 2002 1
1 2003 3
1 2004 2
1 2005 3
1 2006 1
1 2007 11
1 2008 1
1 2009 12
1 2013 1
1 2014 1
1 2015 6
1 2016 8
1 2017 2
1 2018 18
1 2019 3
1 2020 17
1 2022 3
1 2023 8
1 2024 2
1 2025 2
1 2026 6
1 2027 2
1 2028 3
1 2029 32
1 2030 6
1 2031 6
1 2032 19
1 2033 3
1 2034 5
1 2035 8
1 2036 16
1 2037 22
1 2038 1
1 2040 5
1 2041 2
1 2042 5
1 2043 30
1 2044 9
1 2045 3
1 2046 1
1 2047 7
1 2048 4
1 2049 3
1 2050 7
1 2051 39
1 2052 39
1 2053 23
1 2054 4
1 2055 3
1 2056 26
1 2057 1
1 2058 6
1 2059 2
1 2060 3
1 2061 42
1 2062 2
1 2063 11
1 2064 2
1 2065 2
1 2066 2
1 2067 20
1 2068 2
1 2069 33
1 2070 13
1 2071 8
1 2072 2
1 2073 16
1 2074 71
1 2075 1
1 2076 1
1 2077 3
1 2078 44
1 2080 3
1 2081 5
1 2082 1
1 2083 3
1 2084 4
1 2085 12
1 2086 17
1 2087 6
1 2088 3
1 2089 11
1 2090 1
1 2091 4
1 2092 18
1 2093 2
1 2094 6
1 2095 2
1 2096 3
1 2097 29
1 2098 25
1 2099 8
1 2100 21
1 2101 5
1 2102 2
1 2103 9
1 2104 9
1 2105 2
1 2107 1
1 2108 57
1 2109 19
1 2110 2
1 2111 3
1 2112 24
1 2113 34
1 2114 4
1 2115 3
1 2116 2
1 2117 34
1 2118 5
1 2119 5
1 2120 2
1 2121 4
1 2122 5
1 2123 4
1 2124 4
1 2125 2
1 2126 67
1 2127 4
1 2129 1
1 2130 33
1 2131 2
1 2132 19
1 2133 955
1 2134 4
1 2135 2
1 2136 6
1 2137 9
1 2138 8
1 2139 22
1 2140 19
1 2141 22
1 2142 2
1 2143 2
1 2144 4
1 2145 17
1 2146 7
1 2147 2
1 2148 4
1 2149 22
1 2150 51
1 2151 33
1 2152 26
1 2153 15
1 2154 1
1 2155 2
1 2156 11
1 2157 5
1 2158 7
1 2159 21
1 2160 4
1 2161 5
1 2162 2
1 2163 30
1 2164 1
1 2166 6
1 2167 1
1 2168 3
1 2169 9
1 2170 8
1 2171 22
1 2172 2
1 2173 14
1 2174 8
1 2175 4
1 2176 17
1 2177 3
1 2178 18
1 2179 7
1 2180 2
1 2181 3
1 2182 36
1 2183 2
1 2184 1106
1 2185 5
1 2186 11
1 2188 3
1 2189 4
1 2190 14
1 2191 2
1 2192 1
1 2193 5
1 2194 3
1 2195 6
1 2196 1
1 2197 1
1 2198 5
1 2199 11
1 2200 4
1 2201 37
1 2202 4
1 2203 2
1 2204 1416
1 2205 6
1 2206 16
1 2207 2
1 2208 93
1 2209 5
1 2210 3
1 2211 32
1 2212 6
1 2213 1
1 2214 2
1 2215 3
1 2216 13
1 2217 2
1 2218 2
1 2219 6
1 2220 5
1 2221 4
1 2222 9
1 2223 29
1 2224 3
1 2225 3
1 2226 14
1 2227 2
1 2228 7
1 2230 2
1 2231 13
1 2232 2
1 2233 1
1 2234 14
1 2235 4
1 2236 4
1 2237 35
1 2238 634
1 2239 3
1 2240 20
1 2241 34
1 2242 15
1 2243 27
1 2244 60
1 2245 4
1 2246 3
1 2247 13
1 2248 43
1 2249 2
1 2250 4
1 2251 1
1 2252 31
1 2253 2
1 2254 2
1 2255 11
1 2256 25
1 2257 13
1 2258 4
1 2260 3
1 2261 19
1 2262 5
1 2263 1
1 2264 1
1 2265 2
1 2266 1
1 2267 3
1 2268 3
1 2269 5
1 2270 1027
1 2272 15
1 2273 1
1 2274 6
1 2275 5
1 2276 33
1 2277 26
1 2278 15
1 2279 6
1 2280 80
1 2281 3
1 2282 2
1 2284 3
1 2285 3
1 2286 20
1 2287 51
1 2288 2
1 2289 8
1 2290 4
1 2291 22
1 2292 6
1 2293 10
1 2294 24
1 2295 1323
1 2296 3
1 2297 2
1 2298 297
1 2299 34
1 2300 4
1 2301 13
1 2302 7
1 2303 2
1 2304 2
1 2305 12
1 2306 18
1 2307 9
1 2308 7
1 2309 16
1 2310 15
1 2311 6
1 2312 5
1 2313 9
1 2314 31
1 2315 31
1 2316 37
1 2317 8
1 2318 1
1 2320 12
1 2321 12
1 2322 1
1 2323 3
1 2324 26
1 2325 2
1 2326 23
1 2327 1
1 2328 3
1 2329 3
1 2330 9
1 2331 2
1 2332 5
1 2333 19
1 2334 7
1 2335 4
1 2336 23
1 2337 2
1 2338 6
1 2339 30
1 2340 42
1 2341 1099
1 2342 14
1 2343 13
1 2344 21
1 2345 2
1 2346 47
1 2347 2
1 2348 20
1 2349 2
1 2350 24
1 2351 5
1 2352 6
1 2353 2
1 2354 1
1 2355 10
1 2356 1
1 2357 16
1 2358 40
1 2359 4
1 2360 4
1 2361 19
1 2362 2
1 2363 660
1 2364 1
1 2365 3
1 2366 9
1 2367 9
1 2368 20
1 2369 1
1 2370 6
1 2371 3
1 2372 1
1 2373 1
1 2374 1
1 2375 136
1 2376 35
1 2377 2
1 2378 15
1 2379 1
1 2380 2
1 2381 15
1 2382 33
1 2383 1
1 2384 42
1 2385 33
1 2386 1319
1 2387 6
1 2388 615
1 2389 11
1 2390 4
1 2391 3
1 2392 24
1 2393 21
1 2394 4
1 2395 1
1 2396 2
1 2397 212
1 2398 18
1 2399 3
1 2400 13
1 2401 32
1 2402 20
1 2403 41
1 2404 26
1 2405 4
1 2406 11
1 2407 4
1 2408 4
1 2409 20
1 2410 3
1 2412 16
1 2413 19
1 2414 1130
1 2415 13
1 2416 37
1 2417 11
1 2418 14
1 2419 1
1 2420 6
1 2421 426
1 2422 51
1 2423 152
1 2424 50
1 2425 19
1 2426 12
1 2427 1
1 2428 6
1 2429 43
1 2430 1
1 2431 41
1 2432 25
1 2433 14
1 2434 3
1 2435 3
1 2436 39
1 2437 4
1 2438 2
1 2439 19
1 2440 308
1 2441 9
1 2442 19
1 2443 3
1 2444 1
1 2445 9
1 2446 22
1 2447 9
1 2448 27
1 2449 73
1 2450 4
1 2451 5
1 2452 15
1 2453 42
1 2454 4
1 2455 1301
1 2456 39
1 2457 1
1 2458 3
1 2459 2
1 2460 4
1 2461 18
1 2462 3
1 2463 60
1 2464 10
1 2465 119
1 2466 13
1 2467 3
1 2468 2
1 2469 2
1 2470 2
1 2471 257
1 2472 20
1 2473 5
1 2474 4
1 2475 3
1 2477 3
1 2478 4
1 2479 16
1 2480 5
1 2481 24
1 2482 27
1 2484 1
1 2485 7
1 2486 4
1 2487 5
1 2488 3
1 2489 2
1 2491 1
1 2492 1
1 2493 2
1 2494 5
1 2495 2
1 2496 4
1 2497 94
1 2498 2
1 2499 6
1 2500 48
1 2501 6
1 2502 4
1 2503 26
1 2504 5
1 2505 14
1 2506 17
1 2507 8
1 2508 4
1 2509 1
1 2510 6
1 2511 38
1 2512 2
1 2513 6
1 2514 30
1 2515 49
1 2516 4
1 2517 14
1 2518 3
1 2519 3
1 2520 18
1 2521 56
1 2522 27
1 2523 13
1 2524 5
1 2525 5
1 2526 8
1 2527 4
1 2528 30
1 2529 1
1 2530 4
1 2531 3
1 2532 4
1 2533 10
1 2534 15
1 2535 37
1 2536 1
1 2537 23
1 2538 1
1 2539 5
1 2540 419
1 2541 24
1 2543 15
1 2544 26
1 2545 1
1 2546 18
1 2547 3
1 2548 13
1 2549 26
1 2550 4
1 2551 1
1 2552 15
1 2553 13
1 2554 3
1 2555 6
1 2557 7
1 2558 6
1 2559 6
1 2560 30
1 2561 3
1 2562 21
1 2563 1
1 2564 27
1 2565 6
1 2566 1
1 2568 8
1 2569 20
1 2570 12
1 2571 3
1 2572 4
1 2573 8
1 2574 15
1 2575 3
1 2576 2
1 2577 14
1 2578 7
1 2579 3
1 2580 5
1 2581 1
1 2582 13
1 2583 70
1 2584 15
1 2585 16
1 2586 20
1 2587 1
1 2588 3
1 2589 38
1 2590 1
1 2591 33
1 2592 2
1 2593 32
1 2594 2
1 2595 3
1 2596 54
1 2597 31
1 2598 8
1 2599 2
1 2600 2
1 2601 1
1 2602 32
1 2603 2
1 2604 4
1 2605 25
1 2606 1
1 2607 17
1 2608 47
1 2609 103
1 2610 7
1 2611 21
1 2612 3
1 2613 3
1 2614 53
1 2615 7
1 2616 5
1 2617 1
1 2618 1
1 2619 13
1 2620 3
1 2621 9
1 2622 11
1 2624 5
1 2625 8
1 2626 1
1 2627 2
1 2628 1
1 2629 10
1 2630 14
1 2631 12
1 2632 5
1 2633 3
1 2634 9
1 2635 5
1 2636 6
1 2637 20
1 2638 20
1 2639 14
1 2640 19
1 2641 6
1 2642 2
1 2643 18
1 2644 17
1 2645 3
1 2646 11
1 2647 7
1 2649 5
1 2650 26
1 2651 1
1 2652 37
1 2653 1
1 2654 3
1 2655 17
1 2656 3
1 2657 6
1 2658 3
1 2659 2
1 2660 4
1 2661 1
1 2662 6
1 2663 33
1 2664 44
1 2665 8
1 2666 16
1 2667 17
1 2668 4
1 2669 4
1 2670 21
1 2671 38
1 2672 24
1 2673 21
1 2674 4
1 2675 6
1 2676 1
1 2677 3
1 2678 2
1 2679 17
1 2680 5
1 2681 27
1 2683 3
1 2684 1
1 2685 4
1 2686 58
1 2687 2
1 2688 13
1 2689 8
1 2690 4
1 2691 4
1 2692 20
1 2693 2
1 2694 5
1 2695 10
1 2696 18
1 2697 37
1 2698 1
1 2699 9
1 2700 11
1 2701 14
1 2703 20
1 2704 4
1 2705 28
1 2706 1
1 2707 50
1 2708 3
1 2709 2
1 2710 7
1 2711 5
1 2712 24
1 2713 25
1 2714 14
1 2715 6
1 2716 36
1 2717 16
1 2718 4
1 2719 37
1 2720 3
1 2721 19
1 2722 9
1 2723 29
1 2724 5
1 2725 11
1 2726 42
1 2727 3
1 2728 28
1 2729 6
1 2730 3
1 2731 3
1 2732 9
1 2733 4
1 2734 4
1 2735 3
1 2736 1
1 2737 19
1 2738 4
1 2739 869
1 2740 4
1 2741 16
1 2742 441
1 2743 4
1 2744 16
1 2745 24
1 2746 3
1 2747 11
1 2748 1
1 2749 29
1 2750 12
1 2751 38
1 2752 1
1 2753 28
1 2754 4
1 2755 1
1 2756 7
1 2757 2
1 2758 62
1 2759 15
1 2760 36
1 2761 24
1 2762 18
1 2763 8
1 2764 11
1 2765 6
1 2766 23
1 2767 1
1 2768 18
1 2769 959
1 2770 1
1 2771 15
1 2772 3
1 2773 3
1 2774 1
1 2775 4
1 2776 3
1 2777 6
1 2778 14
1 2779 13
1 2780 1
1 2781 2
1 2782 3
1 2783 9
1 2784 21
1 2785 6
1 2786 2
1 2787 4
1 2788 3
1 2789 35
1 2790 5
1 2791 3
1 2792 10
1 2793 19
1 2794 24
1 2795 3
1 2796 2
1 2797 1
1 2798 1
1 2799 13
1 2800 4
1 2801 5
1 2802 2
1 2803 2
1 2804 7
1 2805 4
1 2806 11
1 2807 20
1 2808 4
1 2810 24
1 2811 4
1 2812 13
1 2813 3
1 2814 1225
1 2815 3
1 2816 5
1 2817 2
1 2818 18
1 2819 1
1 2820 2
1 2822 3
1 2823 25
1 2824 32
1 2825 4
1 2826 21
1 2827 2
1 2828 23
1 2829 5
1 2830 7
1 2831 36
1 2832 4
1 2833 3
1 2834 2
1 2835 3
1 2836 2
1 2837 83
1 2838 3
1 2839 6
1 2841 4
1 2842 55
1 2843 17
1 2844 19
1 2845 3
1 2846 2
1 2847 7
1 2848 43
1 2849 2
1 2850 2
1 2851 35
1 2852 7
1 2853 2
1 2854 5
1 2855 10
1 2856 4
1 2857 27
1 2858 3
1 2859 11
1 2860 5
1 2861 6
1 2862 11
1 2863 31
1 2864 6
1 2865 1
1 2866 2
1 2867 7
1 2868 16
1 2869 10
1 2870 5
1 2871 2
1 2872 27
1 2873 38
1 2874 12
1 2875 21
1 2876 20
1 2877 1252
1 2878 33
1 2879 58
1 2880 2
1 2881 33
1 2882 3
1 2883 1
1 2884 2
1 2885 17
1 2886 8
1 2887 9
1 2888 28
1 2889 4
1 2890 13
1 2892 1
1 2893 2
1 2894 6
1 2895 7
1 2896 7
1 2897 7
1 2898 20
1 2900 18
1 2901 2
1 2902 22
1 2903 18
1 2904 2
1 2905 2
1 2906 3
1 2907 12
1 2908 15
1 2909 12
1 2910 5
1 2912 25
1 2913 14
1 2915 3
1 2916 1
1 2917 2
1 2918 16
1 2919 15
1 2920 1
1 2921 38
1 2922 77
1 2923 37
1 2924 2
1 2925 1
1 2926 3
1 2927 5
1 2928 20
1 2929 4
1 2930 3
1 2931 54
1 2932 5
1 2933 23
1 2934 72
1 2935 7
1 2936 5
1 2937 35
1 2938 15
1 2939 46
1 2940 3
1 2941 4
1 2942 2
1 2943 4
1 2944 45
1 2945 23
1 2946 2
1 2947 51
1 2948 4
1 2949 3
1 2950 27
1 2951 13
1 2952 6
1 2953 2
1 2954 4
1 2955 3
1 2956 11
1 2957 4
1 2959 14
1 2960 1
1 2961 26
1 2962 18
1 2963 17
1 2964 172
1 2965 2
1 2966 56
1 2967 3
1 2968 3
1 2969 5
1 2970 42
1 2971 8
1 2972 90
1 2973 7
1 2974 30
1 2975 2
1 2976 5
1 2977 10
1 2978 3
1 2979 10
1 2980 17
1 2982 2
1 2983 2
1 2984 21
1 2985 24
1 2986 2
1 2987 2
1 2989 3
1 2990 25
1 2991 3
1 2992 45
1 2994 17
1 2995 4
1 2996 7
1 2998 38
1 2999 12
1 3000 5
1 3001 22
1 3002 15
1 3003 28
1 3004 1
1 3005 47
1 3006 19
1 3007 56
1 3008 5
1 3010 3
1 3011 1
1 3012 4
1 3013 1
1 3014 1
1 3015 2
1 3016 2
1 3017 37
1 3018 622
1 3019 27
1 3020 21
1 3021 3
1 3022 33
1 3023 1
1 3024 5
1 3025 31
1 3026 5
1 3027 4
1 3028 3
1 3029 7
1 3030 47
1 3031 25
1 3032 3
1 3033 4
1 3034 29
1 3035 2
1 3036 69
1 3037 10
1 3038 13
1 3039 3
1 3040 1339
1 3041 1
1 3042 4
1 3043 6
1 3044 4
1 3045 51
1 3046 2
1 3047 9
1 3048 18
1 3049 4
1 3050 24
1 3051 7
1 3052 2
1 3053 2
1 3054 2
1 3055 26
1 3056 2
1 3057 10
1 3058 5
1 3059 5
1 3060 2
1 3061 4
1 3062 16
1 3063 6
1 3064 15
1 3066 1
1 3067 1
1 3068 2
1 3069 3
1 3070 28
1 3071 16
1 3072 5
1 3073 5
1 3074 2
1 3075 32
1 3076 24
1 3077 1
1 3078 16
1 3080 12
1 3081 1
1 3082 3
1 3083 3
1 3084 394
1 3085 4
1 3086 29
1 3087 7
1 3088 7
1 3089 22
1 3090 7
1 3091 1
1 3092 12
1 3093 4
1 3094 4
1 3095 30
1 3096 38
1 3097 3
1 3098 5
1 3099 3
1 3100 2
1 3101 6
1 3102 19
1 3103 21
1 3104 75
1 3105 1
1 3106 511
1 3107 4
1 3108 3
1 3109 2
1 3110 6
1 3111 2
1 3112 1
1 3113 4
1 3114 8
1 3115 20
1 3116 2
1 3117 15
1 3118 8
1 3119 11
1 3120 2
1 3121 4
1 3122 1
1 3123 9
1 3124 5
1 3125 1
1 3126 1
1 3127 9
1 3128 13
1 3129 5
1 3130 13
1 3131 2
1 3132 46
1 3134 3
1 3135 2
1 3136 46
1 3137 13
1 3138 7
1 3139 3
1 3140 5
1 3141 4
1 3142 2
1 3143 21
1 3144 3
1 3145 4
1 3146 4
1 3148 3
1 3149 4
1 3150 3
1 3151 3
1 3152 68
1 3154 9
1 3155 41
1 3156 5
1 3157 36
1 3158 25
1 3159 2
1 3160 14
1 3161 1438
1 3162 18
1 3163 20
1 3164 116
1 3165 3
1 3166 1
1 3167 2
1 3168 5
1 3169 2
1 3170 2
1 3171 47
1 3172 4
1 3173 5
1 3174 24
1 3176 2
1 3177 3
1 3178 2
1 3179 2
1 3180 1
1 3181 5
1 3182 2
1 3183 3
1 3184 2
1 3185 1
1 3186 24
1 3187 3
1 3188 3
1 3189 1
1 3190 3
1 3191 70
1 3192 1
1 3193 8
1 3194 22
1 3195 24
1 3196 6
1 3197 6
1 3198 3
1 3199 3
1 3201 27
1 3202 11
1 3203 4
1 3204 3
1 3205 9
1 3206 3
1 3207 2
1 3208 4
1 3209 1
1 3210 3
1 3211 9
1 3212 29
1 3213 4
1 3214 4
1 3215 15
1 3216 29
1 3218 13
1 3219 4
1 3220 1
1 3221 4
1 3222 2
1 3223 4
1 3224 49
1 3225 19
1 3226 37
1 3227 18
1 3228 12
1 3229 31
1 3230 3
1 3231 3
1 3232 4
1 3233 4
1 3234 5
1 3235 16
1 3236 2
1 3237 6
1 3238 4
1 3239 10
1 3240 3
1 3241 636
1 3242 4
1 3243 3
1 3244 13
1 3245 1
1 3246 5
1 3247 30
1 3249 21
1 3250 5
1 3251 4
1 3252 2
1 3253 1
1 3254 546
1 3255 2
1 3256 14
1 3257 1
1 3258 20
1 3259 4
1 3260 14
1 3261 28
1 3262 2
1 3263 30
1 3264 5
1 3265 44
1 3266 6
1 3267 7
1 3268 27
1 3269 2
1 3271 2
1 3272 23
1 3273 3
1 3274 3
1 3275 5
1 3276 4
1 3277 6
1 3278 3
1 3279 2
1 3280 10
1 3281 2
1 3282 77
1 3283 3
1 3284 2
1 3285 1
1 3286 52
1 3287 5
1 3289 32
1 3290 5
1 3291 18
1 3292 4
1 3293 1
1 3295 42
1 3296 22
1 3297 5
1 3298 3
1 3299 2
1 3300 34
1 3301 36
1 3302 20
1 3303 2
1 3304 42
1 3305 14
1 3306 48
1 3307 22
1 3308 6
1 3309 22
1 3310 1
1 3311 2
1 3312 5
1 3313 57
1 3314 14
1 3315 3
1 3316 3
1 3317 2
1 3318 8
1 3319 8
1 3320 5
1 3321 20
1 3322 15
1 3323 18
1 3324 4
1 3325 394
1 3326 3
1 3327 4
1 3328 1
1 3329 19
1 3330 9
1 3331 2
1 3332 3
1 3333 4
1 3334 3
1 3335 5
1 3336 80
1 3337 13
1 3338 15
1 3339 7
1 3340 1007
1 3341 40
1 3342 2
1 3343 13
1 3344 13
1 3345 18
1 3346 3
1 3347 1
1 3348 4
1 3349 3
1 3350 6
1 3351 5
1 3352 4
1 3353 38
1 3354 17
1 3355 26
1 3356 561
1 3357 6
1 3358 2
1 3359 5
1 3360 2
1 3361 28
1 3362 19
1 3363 15
1 3364 11
1 3365 50
1 3366 34
1 3367 1
1 3368 1
1 3369 2
1 3371 4
1 3374 2
1 3375 8
1 3376 21
1 3377 2
1 3378 46
1 3379 4
1 3380 4
1 3381 9
1 3382 2
1 3383 9
1 3384 1
1 3385 4
1 3386 44
1 3387 6
1 3388 16
1 3389 1
1 3390 16
1 3391 14
1 3393 12
1 3394 30
1 3395 7
1 3396 26
1 3397 4
1 3398 1
1 3399 2
1 3400 2
1 3401 8
1 3402 4
1 3403 27
1 3404 4
1 3405 2
1 3406 24
1 3407 9
1 3408 3
1 3409 4
1 3410 1
1 3411 2
1 3412 1
1 3413 4
1 3414 9
1 3415 5
1 3416 3
1 3417 31
1 3418 2
1 3419 2
1 3420 12
1 3421 47
1 3422 13
1 3423 3
1 3424 2
1 3425 6
1 3426 7
1 3427 5
1 3428 1
1 3429 17
1 3430 9
1 3431 8
1 3432 12
1 3433 4
1 3434 5
1 3435 4
1 3436 16
1 3437 16
1 3438 14
1 3439 3
1 3440 7
1 3441 5
1 3442 628
1 3443 6
1 3444 20
1 3445 12
1 3446 54
1 3447 1
1 3448 4
1 3449 2
1 3450 3
1 3451 5
1 3452 39
1 3453 3
1 3454 1
1 3455 3
1 3456 1
1 3457 1
1 3458 26
1 3459 2
1 3460 14
1 3461 33
1 3462 23
1 3463 3
1 3464 6
1 3465 1
1 3466 8
1 3467 4
1 3468 18
1 3469 1
1 3470 12
1 3471 2
1 3472 44
1 3473 6
1 3474 17
1 3475 10
1 3476 21
1 3477 28
1 3478 9
1 3479 2
1 3480 7
1 3483 37
1 3484 5
1 3485 10
1 3486 2
1 3487 13
1 3488 23
1 3489 1
1 3490 2
1 3491 2
1 3492 4
1 3493 2
1 3494 5
1 3495 7
1 3496 9
1 3497 1
1 3498 9
1 3499 6
1 3500 6
1 3501 7
1 3502 7
1 3503 4
1 3504 1
1 3505 2
1 3506 8
1 3507 15
1 3508 5
1 3509 58
1 3510 18
1 3511 4
1 3512 3
1 3513 1
1 3514 2
1 3515 819
1 3516 8
1 3517 2
1 3518 5
1 3519 12
1 3520 1
1 3521 2
1 3522 18
1 3523 22
1 3524 13
1 3525 86
1 3526 3
1 3527 746
1 3528 199
1 3529 29
1 3530 1
1 3531 59
1 3532 3
1 3533 1
1 3534 32
1 3535 2
1 3536 3
1 3537 8
1 3538 5
1 3539 30
1 3540 1
1 3541 3
1 3542 2
1 3543 3
1 3544 3
1 3545 31
1 3547 18
1 3548 25
1 3549 3
1 3550 1
1 3551 12
1 3552 3
1 3553 2
1 3554 26
1 3555 12
1 3556 4
1 3557 2
1 3558 12
1 3559 28
1 3560 4
1 3561 30
1 3562 8
1 3563 22
1 3564 3
1 3565 16
1 3566 26
1 3567 9
1 3568 12
1 3569 71
1 3570 25
1 3571 16
1 3572 475
1 3574 4
1 3575 2
1 3576 1
1 3577 917
1 3578 14
1 3579 7
1 3580 36
1 3581 5
1 3582 18
1 3583 1
1 3584 14
1 3585 1
1 3586 4
1 3587 28
1 3588 28
1 3589 6
1 3590 29
1 3591 11
1 3592 2
1 3593 5
1 3594 1079
1 3595 17
1 3596 3
1 3597 16
1 3598 20
1 3599 29
1 3600 44
1 3601 4
1 3602 4
1 3603 32
1 3604 65
1 3605 18
1 3606 24
1 3607 4
1 3608 3
1 3609 3
1 3610 1
1 3611 2
1 3612 4
1 3613 7
1 3614 8
1 3615 2
1 3616 1
1 3617 1
1 3618 10
1 3619 9
1 3620 3
1 3621 2
1 3622 1
1 3623 1
1 3624 21
1 3625 1
1 3626 3
1 3627 2
1 3628 17
1 3629 4
1 3630 25
1 3631 68
1 3632 2
1 3633 24
1 3634 4
1 3635 3
1 3636 31
1 3637 6
1 3638 12
1 3639 19
1 3640 8
1 3641 5
1 3642 2
1 3643 5
1 3644 3
1 3645 41
1 3646 2
1 3647 29
1 3648 3
1 3649 26
1 3650 1232
1 3651 17
1 3652 2
1 3653 4
1 3654 3
1 3655 1
1 3656 4
1 3657 54
1 3658 4
1 3659 6
1 3660 14
1 3661 10
1 3662 12
1 3663 2
1 3664 4
1 3665 22
1 3666 5
1 3667 15
1 3668 400
1 3669 6
1 3670 3
1 3671 23
1 3672 18
1 3673 28
1 3674 6
1 3675 8
1 3676 23
1 3677 1
1 3678 35
1 3679 2
1 3680 3
1 3681 3
1 3682 19
1 3683 5
1 3684 1093
1 3685 3
1 3686 5
1 3687 5
1 3688 2
1 3689 4
1 3690 3
1 3691 2
1 3692 5
1 3693 19
1 3694 3
1 3695 22
1 3696 37
1 3697 34
1 3698 5
1 3700 22
1 3701 5
1 3702 1
1 3703 61
1 3704 19
1 3705 4
1 3706 8
1 3707 5
1 3708 1
1 3709 27
1 3710 4
1 3711 4
1 3712 5
1 3713 7
1 3714 5
1 3715 6
1 3716 27
1 3717 16
1 3718 8
1 3719 22
1 3720 1
1 3721 17
1 3722 3
1 3723 3
1 3724 5
1 3725 1
1 3726 19
1 3727 29
1 3728 16
1 3729 38
1 3730 13
1 3731 36
1 3732 22
1 3733 8
1 3734 32
1 3735 2
1 3736 70
1 3737 7
1 3738 2
1 3739 45
1 3740 4
1 3741 8
1 3742 3
1 3743 2
1 3744 11
1 3745 1
1 3746 2
1 3747 1
1 3748 5
1 3749 18
1 3750 1
1 3751 38
1 3752 32
1 3753 29
1 3754 33
1 3755 4
1 3756 11
1 3757 6
1 3758 17
1 3759 13
1 3760 3
1 3761 3
1 3762 22
1 3763 15
1 3764 1
1 3765 12
1 3766 2
1 3767 5
1 3768 2
1 3769 2
1 3770 7
1 3771 45
1 3772 2
1 3773 4
1 3774 25
1 3775 829
1 3776 1
1 3777 18
1 3778 37
1 3779 30
1 3780 4
1 3781 4
1 3782 11
1 3783 1
1 3784 14
1 3785 26
1 3786 25
1 3787 3
1 3788 36
1 3789 5
1 3790 8
1 3791 2
1 3792 3
1 3793 23
1 3794 68
1 3795 18
1 3796 16
1 3797 34
1 3798 4
1 3799 5
1 3800 46
1 3801 101
1 3802 23
1 3803 36
1 3804 61
1 3805 13
1 3806 23
1 3807 51
1 3808 6
1 3809 7
1 3810 2
1 3811 59
1 3812 10
1 3813 10
1 3814 5
1 3815 18
1 3816 2
1 3817 7
1 3818 1
1 3819 4
1 3820 10
1 3821 8
1 3822 5
1 3823 14
1 3824 5
1 3825 13
1 3826 2
1 3827 18
1 3828 33
1 3829 88
1 3830 2
1 3831 1
1 3832 3
1 3834 4
1 3835 5
1 3836 30
1 3837 6
1 3838 10
1 3839 6
1 3840 34
1 3841 1
1 3842 1
1 3843 22
1 3844 7
1 3845 3
1 3846 3
1 3847 54
1 3848 34
1 3849 3
1 3850 4
1 3851 40
1 3852 23
1 3853 12
1 3854 17
1 3855 4
1 3856 8
1 3857 40
1 3858 5
1 3859 34
1 3860 24
1 3861 6
1 3862 37
1 3863 4
1 3864 32
1 3865 1
1 3866 2
1 3867 2
1 3868 9
1 3869 24
1 3870 114
1 3871 21
1 3872 4
1 3873 6
1 3874 49
1 3875 2
1 3876 4
1 3879 4
1 3880 7
1 3881 27
1 3882 1
1 3883 24
1 3885 44
1 3886 7
1 3887 3
1 3888 21
1 3889 2
1 3890 3
1 3891 2
1 3892 4
1 3893 4
1 3894 100
1 3895 5
1 3896 1
1 3897 2
1 3898 71
1 3899 42
1 3900 3
1 3901 1330
1 3902 31
1 3903 10
1 3904 2
1 3905 3
1 3906 3
1 3907 1
1 3908 9
1 3909 8
1 3910 25
1 3911 16
1 3912 900
1 3913 20
1 3914 1
1 3915 2
1 3916 2
1 3917 19
1 3918 24
1 3919 3
1 3920 14
1 3921 5
1 3922 34
1 3923 47
1 3924 17
1 3925 4
1 3927 2
1 3928 4
1 3929 2
1 3930 10
1 3931 1
1 3933 2
1 3934 6
1 3935 18
1 3936 4
1 3937 4
1 3938 24
1 3939 8
1 3940 7
1 3941 47
1 3942 2
1 3943 37
1 3944 2
1 3945 20
1 3946 4
1 3947 57
1 3948 802
1 3949 3
1 3950 4
1 3951 81
1 3952 23
1 3953 12
1 3954 7
1 3955 5
1 3956 1
1 3957 31
1 3958 3
1 3959 3
1 3960 5
1 3961 3
1 3962 2
1 3963 2
1 3964 37
1 3965 12
1 3966 2
1 3967 32
1 3968 21
1 3969 2
1 3970 3
1 3971 25
1 3972 12
1 3973 1
1 3974 3
1 3976 1
1 3977 2
1 3978 16
1 3979 33
1 3980 1
1 3981 4
1 3982 3
1 3983 50
1 3984 20
1 3985 21
1 3986 45
1 3987 2
1 3988 2
1 3989 1
1 3991 41
1 3992 20
1 3993 4
1 3994 25
1 3995 21
1 3996 38
1 3997 3
1 3998 13
1 3999 12
1 4000 3
1 4001 4
1 4002 5
1 4003 34
1 4004 30
1 4005 17
1 4006 2
1 4007 25
1 4008 33
1 4009 5
1 4010 3
1 4011 29
1 4012 32
1 4013 7
1 4014 7
1 4015 25
1 4016 3
1 4017 5
1 4018 4
1 4019 20
1 4020 4
1 4021 51
1 4022 9
1 4023 6
1 4024 5
1 4025 1
1 4026 34
1 4027 11
1 4028 317
1 4029 2
1 4030 11
1 4031 81
1 4032 1009
1 4033 3
1 4034 1
1 4035 5
1 4036 3
1 4037 10
1 4038 2
1 4039 3
1 4040 2
1 4041 24
1 4042 18
1 4043 14
1 4044 7
1 4045 1
1 4046 44
1 4047 7
1 4048 49
1 4049 19
1 4050 39
1 4051 3
1 4052 2
1 4053 4
1 4054 3
1 4055 3
1 4056 2
1 4057 13
1 4058 1
1 4059 32
1 4060 1
1 4061 1
1 4062 15
1 4063 26
1 4064 613
1 4065 8
1 4066 6
1 4068 6
1 4069 12
1 4070 4
1 4071 4
1 4072 2
1 4073 18
1 4074 21
1 4075 18
1 4076 62
1 4077 4
1 4079 2
1 4080 4
1 4081 20
1 4082 18
1 4083 5
1 4084 3
1 4085 9
1 4086 2
1 4087 2
1 4088 3
1 4089 18
1 4090 3
1 4091 1
1 4092 2
1 4093 7
1 4094 3
1 4095 5
1 4096 4
1 4097 3
1 4098 24
1 4099 4
1 4100 34
1 4101 4
1 4102 3
1 4103 6
1 4104 26
1 4105 1
1 4106 3
1 4107 11
1 4108 4
1 4109 31
1 4110 23
1 4111 3
1 4112 14
1 4113 20
1 4114 24
1 4115 2
1 4116 2
1 4117 19
1 4118 15
1 4119 42
1 4120 6
1 4121 19
1 4123 1
1 4124 5
1 4125 5
1 4126 3
1 4127 5
1 4128 47
1 4129 1
1 4130 29
1 4131 14
1 4132 29
1 4133 8
1 4134 28
1 4135 6
1 4136 492
1 4137 1
1 4138 12
1 4139 4
1 4140 28
1 4141 1
1 4142 3
1 4143 7
1 4144 13
1 4145 3
1 4146 5
1 4147 3
1 4148 5
1 4149 2
1 4150 4
1 4151 4
1 4152 4
1 4153 1
1 4154 6
1 4156 68
1 4157 4
1 4158 2
1 4159 4
1 4160 3
1 4161 5
1 4162 26
1 4163 40
1 4164 3
1 4165 3
1 4166 5
1 4167 17
1 4168 4
1 4169 1
1 4170 15
1 4171 3
1 4172 1372
1 4173 17
1 4174 2
1 4175 6
1 4176 40
1 4177 43
1 4178 5
1 4179 147
1 4180 7
1 4181 1
1 4182 2
1 4183 8
1 4184 3
1 4185 129
1 4186 5
1 4187 7
1 4188 16
1 4189 55
1 4190 22
1 4192 975
1 4193 29
1 4194 16
1 4195 17
1 4196 54
1 4197 37
1 4198 32
1 4199 3
1 4200 4
1 4201 3
1 4202 66
1 4203 1
1 4204 272
1 4205 4
1 4206 28
1 4207 22
1 4208 15
1 4209 40
1 4210 66
1 4211 29
1 4212 24
1 4213 10
1 4215 22
1 4216 2
1 4217 22
1 4218 2
1 4219 4
1 4220 4
1 4221 32
1 4222 39
1 4223 2
1 4224 17
1 4225 1
1 4226 13
1 4227 1
1 4228 15
1 4229 1
1 4230 2
1 4231 1
1 4232 17
1 4233 1
1 4234 1
1 4236 8
1 4237 29
1 4238 23
1 4239 13
1 4240 24
1 4241 3
1 4242 1
1 4243 17
1 4244 4
1 4245 33
1 4246 7
1 4247 20
1 4248 9
1 4249 2
1 4250 2
1 4251 4
1 4252 22
1 4253 1
1 4254 20
1 4255 3
1 4256 1
1 4257 2
1 4258 7
1 4259 2
1 4260 2
1 4261 69
1 4262 13
1 4263 25
1 4264 19
1 4265 60
1 4266 2
1 4267 6
1 4268 6
1 4269 9
1 4270 7
1 4271 5
1 4272 6
1 4274 6
1 4275 14
1 4276 1
1 4277 3
1 4278 4
1 4279 2
1 4280 5
1 4281 25
1 4282 7
1 4283 13
1 4284 330
1 4286 26
1 4287 44
1 4288 66
1 4289 6
1 4290 4
1 4291 44
1 4292 27
1 4293 1
1 4294 21
1 4295 41
1 4296 3
1 4297 6
1 4298 2
1 4299 1
1 4300 41
1 4301 39
1 4302 24
1 4303 20
1 4304 12
1 4305 2
1 4306 48
1 4307 2
1 4308 20
1 4309 5
1 4310 14
1 4311 5
1 4312 22
1 4313 22
1 4314 5
1 4315 26
1 4316 4
1 4317 28
1 4318 2
1 4319 12
1 4320 8
1 4321 2
1 4322 3
1 4323 33
1 4324 5
1 4325 4
1 4326 17
1 4327 1
1 4328 27
1 4329 30
1 4330 4
1 4331 12
1 4332 6
1 4333 22
1 4334 1
1 4335 6
1 4336 111
1 4337 2
1 4338 3
1 4339 4
1 4340 15
1 4341 13
1 4342 18
1 4343 5
1 4344 51
1 4345 16
1 4346 1079
1 4347 4
1 4348 22
1 4349 7
1 4351 41
1 4352 2
1 4353 25
1 4354 3
1 4355 43
1 4356 6
1 4358 1025
1 4359 34
1 4360 24
1 4362 8
1 4363 3
1 4364 25
1 4365 7
1 4366 1
1 4367 1
1 4368 23
1 4369 56
1 4370 33
1 4371 2
1 4372 21
1 4373 3
1 4374 10
1 4375 2
1 4376 4
1 4377 41
1 4379 2
1 4380 1
1 4381 17
1 4382 3
1 4383 4
1 4384 40
1 4385 1
1 4387 10
1 4388 13
1 4389 28
1 4390 28
1 4392 8
1 4393 8
1 4395 13
1 4396 5
1 4397 6
1 4398 31
1 4399 9
1 4400 3
1 4401 14
1 4402 3
1 4404 5
1 4406 5
1 4407 3
1 4408 1
1 4409 13
1 4410 1
1 4411 37
1 4412 5
1 4413 10
1 4415 24
1 4416 1
1 4417 16
1 4418 2
1 4419 1
1 4420 12
1 4421 7
1 4422 7
1 4423 2
1 4424 38
1 4425 24
1 4426 1
1 4427 18
1 4428 14
1 4429 45
1 4430 3
1 4431 4
1 4432 7
1 4433 44
1 4434 4
1 4435 3
1 4436 42
1 4437 1
1 4438 23
1 4439 53
1 4440 1
1 4442 1
1 4443 9
1 4444 16
1 4445 1
1 4446 2
1 4447 19
1 4448 2
1 4449 10
1 4450 33
1 4451 4
1 4452 17
1 4453 1
1 4454 1
1 4456 24
1 4457 2
1 4458 3
1 4459 4
1 4460 4
1 4461 456
1 4462 1
1 4463 3
1 4464 40
1 4465 16
1 4466 2
1 4467 14
1 4468 2
1 4469 16
1 4470 3
1 4471 1441
1 4472 17
1 4473 4
1 4474 4
1 4475 1
1 4476 11
1 4477 39
1 4478 3
1 4479 1
1 4481 3
1 4482 1
1 4483 12
1 4484 2
1 4485 781
1 4486 5
1 4487 35
1 4488 5
1 4489 1
1 4490 4
1 4491 61
1 4493 6
1 4494 5
1 4495 4
1 4496 4
1 4497 13
1 4498 1
1 4499 23
1 4500 11
1 4501 1
1 4502 5
1 4503 3
1 4504 5
1 4505 17
1 4506 14
1 4507 5
1 4508 6
1 4509 3
1 4510 4
1 4511 2
1 4512 3
1 4513 864
1 4514 1317
1 4515 14
1 4516 10
1 4517 9
1 4518 23
1 4519 77
1 4520 37
1 4521 1115
1 4523 21
1 4525 5
1 4526 17
1 4527 2
1 4528 50
1 4529 30
1 4530 4
1 4531 2
1 4532 12
1 4533 13
1 4534 3
1 4535 1
1 4536 4
1 4537 24
1 4538 44
1 4539 2
1 4540 2
1 4541 894
1 4542 6
1 4543 4
1 4544 1215
1 4545 2
1 4546 2
1 4547 21
1 4548 14
1 4549 36
1 4550 2
1 4551 4
1 4552 19
1 4553 3
1 4554 4
1 4555 7
1 4556 1
1 4557 1
1 4558 26
1 4559 7
1 4560 3
1 4561 18
1 4562 18
1 4563 12
1 4564 8
1 4565 2
1 4566 6
1 4567 20
1 4568 1
1 4569 5
1 4570 32
1 4572 16
1 4573 13
1 4574 1
1 4575 6
1 4576 27
1 4577 19
1 4578 21
1 4579 4
1 4580 3
1 4581 11
1 4582 2
1 4583 1
1 4584 1
1 4585 3
1 4586 10
1 4588 30
1 4589 9
1 4590 15
1 4591 5
1 4592 16
1 4593 4
1 4594 17
1 4595 4
1 4596 11
1 4597 6
1 4598 6
1 4599 2
1 4600 2
1 4601 9
1 4602 3
1 4603 108
1 4605 3
1 4606 10
1 4607 10
1 4608 2
1 4609 22
1 4610 2
1 4611 18
1 4612 27
1 4613 5
1 4614 1
1 4615 7
1 4616 18
1 4617 11
1 4618 24
1 4619 6
1 4620 2
1 4621 1
1 4622 4
1 4623 1
1 4624 28
1 4625 2
1 4626 4
1 4627 3
1 4628 19
1 4629 44
1 4630 7
1 4631 4
1 4632 4
1 4633 1
1 4634 5
1 4635 4
1 4636 2
1 4637 2
1 4638 2
1 4639 22
1 4640 233
1 4641 4
1 4642 3
1 4643 5
1 4644 3
1 4645 18
1 4646 60
1 4647 5
1 4648 4
1 4649 1
1 4650 20
1 4651 1
1 4652 1
1 4653 1
1 4654 30
1 4655 4
1 4657 1
1 4658 5
1 4660 3
1 4661 6
1 4662 3
1 4663 2
1 4664 15
1 4665 54
1 4666 2
1 4667 10
1 4668 27
1 4669 14
1 4670 5
1 4671 35
1 4672 3
1 4673 39
1 4674 25
1 4675 24
1 4676 15
1 4677 47
1 4678 1
1 4679 4
1 4680 2
1 4681 2
1 4682 18
1 4683 8
1 4684 8
1 4685 4
1 4686 1359
1 4687 37
1 4688 16
1 4689 27
1 4690 17
1 4691 11
1 4692 2
1 4693 4
1 4694 3
1 4695 23
1 4696 3
1 4697 1
1 4698 2
1 4699 13
1 4700 1
1 4701 23
1 4702 9
1 4703 13
1 4704 26
1 4705 8
1 4706 1
1 4707 1
1 4708 48
1 4709 10
1 4710 9
1 4711 18
1 4712 54
1 4713 3
1 4714 6
1 4715 13
1 4716 35
1 4717 3
1 4718 27
1 4719 6
1 4720 4
1 4721 5
1 4722 44
1 4723 31
1 4724 23
1 4725 15
1 4726 15
1 4727 63
1 4728 6
1 4729 4
1 4730 4
1 4731 36
1 4732 28
1 4733 24
1 4734 4
1 4735 13
1 4736 3
1 4737 3
1 4738 5
1 4739 5
1 4740 3
1 4741 3
1 4742 3
1 4743 31
1 4744 2
1 4745 3
1 4746 62
1 4747 1
1 4748 3
1 4749 18
1 4750 3
1 4751 5
1 4752 1180
1 4753 1
1 4754 7
1 4755 37
1 4756 11
1 4757 35
1 4758 2
1 4759 4
1 4760 1
1 4761 4
1 4762 21
1 4763 6
1 4764 1
1 4765 19
1 4766 6
1 4767 2
1 4768 3
1 4769 4
1 4770 3
1 4771 3
1 4772 21
1 4773 10
1 4774 2
1 4775 6
1 4776 6
1 4777 2
1 4779 70
1 4780 2
1 4781 5
1 4782 35
1 4783 8
1 4785 2
1 4786 1
1 4787 1
1 4788 46
1 4789 1
1 4790 2
1 4791 4
1 4792 9
1 4793 70
1 4794 25
1 4795 9
1 4796 1
1 4797 1
1 4798 1
1 4799 2
1 4800 2
1 4801 12
1 4802 1
1 4803 94
1 4804 32
1 4805 2
1 4806 2
1 4807 55
1 4808 48
1 4809 1
1 4810 14
1 4811 15
1 4813 1
1 4814 12
1 4815 24
1 4816 24
1 4817 24
1 4818 23
1 4819 3
1 4820 16
1 4821 3
1 4822 1201
1 4823 1
1 4824 7
1 4825 12
1 4826 71
1 4827 23
1 4828 33
1 4829 29
1 4830 35
1 4831 3
1 4832 4
1 4833 4
1 4834 4
1 4835 3
1 4836 2
1 4837 18
1 4838 3
1 4839 3
1 4840 39
1 4841 4
1 4842 2
1 4843 21
1 4844 2
1 4845 12
1 4846 4
1 4847 2
1 4848 1
1 4849 28
1 4850 7
1 4851 16
1 4852 11
1 4853 11
1 4854 57
1 4855 3
1 4856 2
1 4857 20
1 4858 3
1 4859 37
1 4860 5
1 4861 6
1 4862 18
1 4863 28
1 4864 2
1 4865 30
1 4866 6
1 4867 16
1 4868 29
1 4869 9
1 4870 4
1 4871 5
1 4872 1177
1 4873 1
1 4874 2
1 4875 965
1 4876 38
1 4877 1058
1 4878 12
1 4879 3
1 4880 2
1 4881 3
1 4882 27
1 4883 2
1 4884 7
1 4885 3
1 4886 30
1 4887 1
1 4888 29
1 4889 2
1 4890 11
1 4891 14
1 4892 3
1 4893 31
1 4894 6
1 4895 5
1 4896 5
1 4897 59
1 4898 3
1 4899 1
1 4900 17
1 4901 1
1 4902 3
1 4903 1
1 4904 2
1 4905 2
1 4906 11
1 4907 40
1 4908 16
1 4909 2
1 4910 5
1 4911 47
1 4912 48
1 4913 4
1 4914 3
1 4915 21
1 4916 1
1 4917 5
1 4918 24
1 4919 3
1 4920 16
1 4921 7
1 4922 23
1 4923 3
1 4924 3
1 4925 16
1 4926 12
1 4927 23
1 4928 4
1 4929 34
1 4930 6
1 4931 2
1 4932 3
1 4933 1
1 4934 4
1 4935 1126
1 4936 19
1 4937 11
1 4938 24
1 4939 8
1 4940 479
1 4941 22
1 4942 27
1 4943 43
1 4944 3
1 4945 4
1 4946 2
1 4947 24
1 4948 4
1 4949 4
1 4950 3
1 4951 6
1 4952 3
1 4953 70
1 4954 10
1 4955 18
1 4957 68
1 4959 4
1 4960 4
1 4961 2
1 4962 24
1 4963 2
1 4964 2
1 4965 1
1 4966 441
1 4967 33
1 4968 1
1 4969 7
1 4970 2
1 4971 36
1 4972 3
1 4973 1
1 4974 2
1 4975 1
1 4976 4
1 4977 2
1 4978 8
1 4979 22
1 4980 54
1 4981 3
1 4982 3
1 4983 13
1 4984 4
1 4985 1
1 4986 9
1 4987 1
1 4988 29
1 4989 2
1 4990 1
1 4991 4
1 4992 23
1 4993 3
1 4994 4
1 4995 3
1 4996 1
1 4997 2
1 4998 27
1 4999 3
1 5000 33
1 5001 3
1 5002 14
1 5003 31
1 5004 6
1 5005 6
1 5006 36
1 5007 1
1 5008 3
1 5009 3
1 5010 40
1 5011 22
1 5012 4
1 5013 3
1 5015 3
1 5016 2
1 5017 7
1 5018 28
1 5019 4
1 5020 2
1 5021 55
1 5022 3
1 5023 29
1 5024 5
1 5025 2
1 5026 7
1 5027 3
1 5028 52
1 5029 3
1 5030 30
1 5031 30
1 5032 5
1 5033 3
1 5034 2
1 5035 1
1 5036 1
1 5037 1
1 5038 15
1 5039 24
1 5040 19
1 5041 1034
1 5042 3
1 5043 19
1 5044 6
1 5045 17
1 5046 9
1 5047 35
1 5048 23
1 5049 18
1 5051 2
1 5052 4
1 5053 12
1 5054 25
1 5055 8
1 5056 22
1 5057 3
1 5058 20
1 5059 24
1 5060 16
1 5062 1
1 5063 13
1 5064 14
1 5065 8
1 5066 27
1 5067 3
1 5068 5
1 5069 67
1 5070 2
1 5071 4
1 5072 15
1 5073 2
1 5074 1
1 5075 1
1 5076 3
1 5077 4
1 5078 5
1 5079 27
1 5080 4
1 5081 2
1 5082 19
1 5083 2
1 5084 3
1 5085 1
1 5086 14
1 5087 16
1 5088 3
1 5089 19
1 5090 3
1 5091 9
1 5092 5
1 5093 26
1 5094 19
1 5095 1
1 5096 14
1 5097 46
1 5098 3
1 5099 20
1 5101 3
1 5102 1
1 5103 37
1 5104 1
1 5105 61
1 5106 62
1 5107 5
1 5108 1
1 5109 3
1 5110 1
1 5111 1261
1 5114 8
1 5115 2
1 5116 30
1 5117 16
1 5118 28
1 5119 15
1 5120 20
1 5121 9
1 5122 2
1 5123 3
1 5124 13
1 5125 6
1 5126 5
1 5127 29
1 5128 19
1 5129 1
1 5130 57
1 5131 3
1 5132 27
1 5133 3
1 5134 2
1 5135 17
1 5136 5
1 5137 11
1 5138 18
1 5139 27
1 5140 2
1 5141 44
1 5143 2
1 5144 8
1 5145 24
1 5146 31
1 5147 1
1 5148 1
1 5149 1
1 5150 45
1 5151 1
1 5152 2
1 5153 4
1 5154 9
1 5155 4
1 5156 21
1 5157 3
1 5158 11
1 5159 18
1 5160 14
1 5161 89
1 5162 5
1 5163 14
1 5164 3
1 5165 29
1 5166 23
1 5167 15
1 5168 38
1 5169 3
1 5170 2
1 5171 1
1 5172 14
1 5174 10
1 5175 57
1 5176 27
1 5177 2
1 5178 3
1 5179 33
1 5180 17
1 5181 6
1 5182 6
1 5183 4
1 5184 10
1 5185 4
1 5186 32
1 5187 5
1 5188 4
1 5189 2
1 5190 8
1 5191 37
1 5192 13
1 5193 7
1 5194 25
1 5195 48
1 5196 15
1 5197 6
1 5198 4
1 5199 6
1 5200 5
1 5201 28
1 5202 2
1 5203 38
1 5204 2
1 5205 15
1 5206 60
1 5207 4
1 5209 25
1 5210 7
1 5211 5
1 5212 4
1 5213 14
1 5214 25
1 5215 24
1 5216 3
1 5217 6
1 5218 71
1 5219 4
1 5220 3
1 5221 5
1 5222 79
1 5223 42
1 5224 2
1 5225 16
1 5226 4
1 5227 42
1 5228 2
1 5229 12
1 5230 1
1 5231 2
1 5232 39
1 5233 69
1 5234 4
1 5235 1
1 5236 12
1 5237 4
1 5238 1
1 5239 25
1 5240 10
1 5241 692
1 5242 5
1 5243 30
1 5244 2
1 5246 2
1 5247 2
1 5248 6
1 5249 37
1 5250 4
1 5251 6
1 5252 53
1 5253 2
1 5254 23
1 5255 31
1 5256 1
1 5257 41
1 5258 50
1 5260 2
1 5261 2
1 5263 25
1 5264 30
1 5265 583
1 5266 1
1 5267 1
1 5269 7
1 5270 12
1 5271 7
1 5272 2
1 5273 3
1 5274 24
1 5275 5
1 5276 12
1 5277 2
1 5278 18
1 5279 2
1 5281 21
1 5282 3
1 5283 81
1 5284 11
1 5285 1204
1 5286 1
1 5287 4
1 5288 43
1 5289 1
1 5290 2
1 5291 3
1 5292 10
1 5293 19
1 5294 4
1 5295 32
1 5296 15
1 5297 1
1 5298 3
1 5299 6
1 5300 27
1 5301 3
1 5302 2
1 5303 7
1 5304 31
1 5305 13
1 5306 1
1 5307 4
1 5308 3
1 5309 4
1 5310 1
1 5311 14
1 5312 3
1 5313 22
1 5314 1
1 5315 2
1 5316 21
1 5317 6
1 5318 2
1 5319 14
1 5320 13
1 5321 21
1 5323 35
1 5324 1
1 5325 22
1 5326 18
1 5327 3
1 5328 1
1 5329 2
1 5330 3
1 5331 11
1 5332 4
1 5333 4
1 5334 1
1 5335 5
1 5336 25
1 5337 3
1 5338 2
1 5339 3
1 5340 27
1 5341 5
1 5342 6
1 5343 2
1 5344 5
1 5345 1
1 5346 5
1 5347 1
1 5348 18
1 5349 43
1 5350 4
1 5351 15
1 5352 4
1 5353 3
1 5354 3
1 5355 6
1 5356 2
1 5357 2
1 5358 3
1 5359 1
1 5360 12
1 5361 11
1 5362 35
1 5363 3
1 5364 11
1 5365 1
1 5367 1
1 5368 4
1 5369 3
1 5370 8
1 5371 23
1 5372 7
1 5373 9
1 5374 12
1 5375 8
1 5376 5
1 5377 750
1 5378 10
1 5379 1
1 5380 3
1 5381 9
1 5382 2
1 5383 2
1 5384 1
1 5385 4
1 5386 4
1 5387 8
1 5388 4
1 5389 9
1 5391 5
1 5392 2
1 5393 10
1 5394 1413
1 5395 30
1 5396 1
1 5397 27
1 5398 2
1 5399 35
1 5400 8
1 5401 23
1 5402 4
1 5403 3
1 5404 4
1 5405 6
1 5406 4
1 5407 10
1 5408 1
1 5409 1
1 5410 5
1 5411 2
1 5412 1
1 5413 186
1 5414 13
1 5415 4
1 5416 72
1 5417 2
1 5418 3
1 5419 1
1 5420 22
1 5421 37
1 5422 11
1 5423 2
1 5424 3
1 5425 3
1 5426 3
1 5427 3
1 5429 4
1 5430 4
1 5431 27
1 5432 2
1 5433 4
1 5434 70
1 5435 33
1 5436 25
1 5437 1
1 5438 1
1 5439 8
1 5440 1
1 5441 60
1 5442 3
1 5443 91
1 5444 6
1 5446 34
1 5447 3
1 5448 1
1 5450 16
1 5451 26
1 5452 59
1 5453 7
1 5454 12
1 5455 3
1 5456 3
1 5457 6
1 5458 18
1 5459 4
1 5460 9
1 5461 4
1 5462 3
1 5463 624
1 5464 20
1 5465 44
1 5466 54
1 5467 49
1 5468 15
1 5469 555
1 5470 1
1 5471 2
1 5472 9
1 5473 3
1 5474 3
1 5475 15
1 5476 22
1 5477 1
1 5478 2
1 5479 10
1 5480 3
1 5481 19
1 5482 6
1 5483 3
1 5484 2
1 5485 4
1 5486 1
1 5487 19
1 5488 74
1 5489 2
1 5490 2
1 5491 19
1 5492 1
1 5493 3
1 5494 24
1 5495 3
1 5496 3
1 5497 6
1 5498 1
1 5499 2
1 5500 10
1 5501 21
1 5502 7
1 5503 12
1 5504 11
1 5505 5
1 5506 5
1 5507 2
1 5508 30
1 5509 1
1 5510 5
1 5511 8
1 5512 1278
1 5513 23
1 5514 4
1 5515 1
1 5516 21
1 5517 135
1 5518 58
1 5519 37
1 5520 3
1 5521 9
1 5522 4
1 5523 21
1 5524 4
1 5525 7
1 5526 9
1 5527 3
1 5529 18
1 5530 27
1 5532 18
1 5533 24
1 5534 3
1 5535 9
1 5536 1
1 5537 1
1 5538 2
1 5539 7
1 5540 2
1 5541 21
1 5542 24
1 5543 14
1 5544 3
1 5545 9
1 5546 9
1 5547 24
1 5548 5
1 5549 5
1 5550 1
1 5551 4
1 5552 38
1 5553 2
1 5554 1
1 5555 1
1 5556 2
1 5557 1
1 5558 3
1 5559 1241
1 5560 1
1 5561 2
1 5562 15
1 5563 3
1 5564 1
1 5565 3
1 5566 12
1 5567 17
1 5569 34
1 5570 5
1 5571 66
1 5572 1
1 5573 27
1 5574 6
1 5575 4
1 5576 22
1 5577 278
1 5578 3
1 5579 4
1 5580 5
1 5581 45
1 5582 19
1 5583 11
1 5584 2
1 5585 7
1 5586 13
1 5587 7
1 5588 76
1 5589 6
1 5590 1
1 5591 5
1 5592 4
1 5593 1
1 5594 3
1 5595 2
1 5596 9
1 5597 2
1 5598 33
1 5599 19
1 5600 7
1 5601 122
1 5602 5
1 5603 13
1 5604 4
1 5605 4
1 5606 3
1 5607 3
1 5608 7
1 5609 6
1 5611 2
1 5613 4
1 5614 11
1 5615 1
1 5616 54
1 5617 2
1 5618 4
1 5619 1
1 5620 23
1 5621 7
1 5622 6
1 5623 24
1 5624 2
1 5625 52
1 5626 14
1 5627 11
1 5628 9
1 5629 2
1 5630 19
1 5631 74
1 5632 4
1 5633 4
1 5634 5
1 5635 5
1 5636 31
1 5637 26
1 5638 20
1 5639 3
1 5640 6
1 5641 7
1 5642 22
1 5643 40
1 5644 3
1 5645 12
1 5646 3
1 5647 2
1 5648 2
1 5649 1
1 5650 3
1 5651 13
1 5652 3
1 5653 5
1 5654 7
1 5655 24
1 5657 19
1 5659 2
1 5660 16
1 5661 5
1 5662 23
1 5663 2
1 5664 19
1 5665 2
1 5666 52
1 5667 3
1 5668 1
1 5669 4
1 5670 6
1 5671 24
1 5672 4
1 5673 2
1 5674 1
1 5675 7
1 5676 9
1 5677 28
1 5678 29
1 5679 3
1 5680 4
1 5681 3
1 5682 17
1 5683 18
1 5684 2
1 5685 71
1 5686 18
1 5687 53
1 5688 35
1 5689 3
1 5691 6
1 5692 1
1 5693 2
1 5694 26
1 5695 2
1 5696 4
1 5697 14
1 5698 2
1 5699 19
1 5700 3
1 5701 5
1 5702 5
1 5703 52
1 5704 24
1 5705 8
1 5706 4
1 5707 14
1 5708 1
1 5709 8
1 5710 1
1 5711 2
1 5712 3
1 5713 3
1 5714 11
1 5715 4
1 5716 8
1 5717 2
1 5718 1
1 5719 3
1 5720 24
1 5721 1
1 5722 18
1 5723 6
1 5724 14
1 5725 27
1 5726 1
1 5727 2
1 5728 3
1 5729 22
1 5730 34
1 5731 23
1 5732 24
1 5733 6
1 5734 37
1 5735 4
1 5736 3
1 5737 17
1 5738 4
1 5739 3
1 5741 2
1 5742 10
1 5743 1209
1 5744 13
1 5745 19
1 5746 4
1 5747 2
1 5748 1
1 5750 10
1 5751 22
1 5752 10
1 5753 1
1 5754 287
1 5755 4
1 5756 5
1 5757 16
1 5758 11
1 5759 3
1 5760 7
1 5761 17
1 5762 1
1 5763 3
1 5764 4
1 5765 2
1 5766 18
1 5767 5
1 5768 1
1 5769 13
1 5770 3
1 5771 3
1 5772 2
1 5773 2
1 5774 6
1 5775 2
1 5776 2
1 5777 45
1 5778 2
1 5779 40
1 5780 1
1 5781 1
1 5782 4
1 5783 4
1 5784 6
1 5785 4
1 5786 17
1 5787 8
1 5788 1
1 5789 7
1 5790 2
1 5791 6
1 5792 1
1 5793 248
1 5794 38
1 5795 4
1 5796 32
1 5797 6
1 5798 3
1 5799 497
1 5800 2
1 5801 4
1 5803 2
1 5804 26
1 5805 1
1 5806 4
1 5807 21
1 5808 2
1 5810 4
1 5811 1
1 5812 6
1 5815 2
1 5816 13
1 5817 3
1 5818 3
1 5819 2
1 5820 10
1 5821 5
1 5822 3
1 5823 15
1 5824 13
1 5825 33
1 5826 2
1 5827 20
1 5829 3
1 5830 3
1 5831 473
1 5832 1095
1 5833 19
1 5834 6
1 5835 3
1 5836 16
1 5837 23
1 5838 5
1 5839 4
1 5840 15
1 5841 39
1 5842 23
1 5843 23
1 5844 3
1 5845 7
1 5846 19
1 5847 3
1 5848 1
1 5849 2
1 5850 3
1 5851 5
1 5852 4
1 5853 25
1 5854 29
1 5855 46
1 5856 9
1 5857 2
1 5858 4
1 5859 4
1 5860 17
1 5861 3
1 5862 5
1 5863 1
1 5864 1
1 5865 13
1 5866 5
1 5867 1
1 5868 5
1 5869 4
1 5870 24
1 5871 40
1 5872 889
1 5873 1
1 5874 2
1 5875 15
1 5876 2
1 5877 22
1 5878 17
1 5879 5
1 5880 3
1 5881 1302
1 5882 1
1 5883 5
1 5884 5
1 5885 10
1 5886 2
1 5887 3
1 5888 21
1 5889 2
1 5890 46
1 5891 6
1 5892 1348
1 5893 2
1 5894 190
1 5895 10
1 5896 3
1 5897 4
1 5898 28
1 5899 2
1 5901 29
1 5902 23
1 5904 1
1 5905 47
1 5906 53
1 5907 4
1 5908 16
1 5909 6
1 5910 16
1 5911 1
1 5912 22
1 5913 2
1 5914 7
1 5915 3
1 5916 576
1 5918 3
1 5919 6
1 5920 3
1 5921 1
1 5922 31
1 5923 14
1 5924 36
1 5925 15
1 5926 13
1 5927 3
1 5928 30
1 5929 20
1 5930 1
1 5931 3
1 5932 1
1 5933 4
1 5934 14
1 5935 5
1 5936 1
1 5938 1
1 5939 4
1 5940 12
1 5941 3
1 5942 45
1 5943 38
1 5944 3
1 5945 5
1 5946 1
1 5947 4
1 5948 29
1 5949 16
1 5950 1058
1 5951 11
1 5952 3
1 5953 2
1 5954 1
1 5956 11
1 5957 51
1 5958 31
1 5959 18
1 5960 2
1 5961 48
1 5962 4
1 5963 2
1 5964 218
1 5965 9
1 5966 1
1 5967 113
1 5968 2
1 5969 4
1 5970 25
1 5971 40
1 5972 3
1 5973 17
1 5974 15
1 5975 1060
1 5976 2
1 5977 27
1 5978 10
1 5979 11
1 5980 1
1 5981 2
1 5982 21
1 5983 8
1 5984 2
1 5985 3
1 5986 17
1 5987 3
1 5988 2
1 5989 3
1 5990 5
1 5991 4
1 5992 2
1 5993 28
1 5994 5
1 5995 1
1 5996 2
1 5997 6
1 5998 5
1 5999 22
1 6000 49
1 6001 3
1 6002 20
1 6004 4
1 6005 2
1 6006 5
1 6007 2
1 6008 5
1 6009 25
1 6010 9
1 6011 12
1 6012 2
1 6013 2
1 6014 1
1 6015 6
1 6016 1
1 6017 18
1 6018 2
1 6020 5
1 6021 3
1 6022 1
1 6023 4
1 6024 3
1 6025 4
1 6026 2
1 6027 4
1 6028 116
1 6030 1
1 6031 40
1 6032 12
1 6033 41
1 6034 14
1 6035 20
1 6036 26
1 6038 12
1 6039 1
1 6040 3
1 6041 11
1 6042 3
1 6043 2
1 6046 2
1 6047 5
1 6048 5
1 6049 2
1 6050 5
1 6051 17
1 6052 24
1 6053 2
1 6054 37
1 6055 3
1 6056 2
1 6057 15
1 6058 1
1 6059 4
1 6060 12
1 6061 65
1 6062 66
1 6063 15
1 6064 2
1 6065 25
1 6066 3
1 6067 15
1 6068 18
1 6069 14
1 6070 2
1 6071 46
1 6072 5
1 6073 19
1 6074 2
1 6075 1
1 6076 5
1 6077 28
1 6078 3
1 6079 5
1 6080 9
1 6081 1
1 6082 21
1 6083 2
1 6084 3
1 6085 14
1 6086 18
1 6087 13
1 6088 20
1 6089 32
1 6090 188
1 6091 9
1 6092 27
1 6093 3
1 6094 2
1 6095 2
1 6096 1
1 6097 5
1 6098 3
1 6099 4
1 6100 6
1 6101 10
1 6102 1
1 6103 13
1 6104 2
1 6105 26
1 6106 28
1 6107 10
1 6108 14
1 6109 22
1 6110 21
1 6111 4
1 6112 13
1 6113 6
1 6114 9
1 6115 7
1 6116 3
1 6117 9
1 6118 12
1 6119 5
1 6120 2
1 6121 2
1 6122 1
1 6123 2
1 6124 2
1 6126 21
1 6127 7
1 6128 3
1 6129 2
1 6130 26
1 6131 4
1 6132 2
1 6133 1
1 6134 3
1 6135 4
1 6136 1
1 6138 1
1 6139 15
1 6140 2
1 6141 1030
1 6142 22
1 6143 2
1 6144 47
1 6145 14
1 6146 1
1 6147 1
1 6148 62
1 6149 3
1 6150 15
1 6151 3
1 6152 16
1 6153 13
1 6154 3
1 6155 8
1 6156 16
1 6157 15
1 6160 13
1 6161 2
1 6162 9
1 6163 3
1 6164 14
1 6165 23
1 6166 3
1 6167 3
1 6168 18
1 6169 17
1 6170 5
1 6171 4
1 6172 40
1 6173 3
1 6174 3
1 6175 1
1 6176 30
1 6177 22
1 6178 5
1 6179 6
1 6180 33
1 6182 9
1 6183 5
1 6184 4
1 6185 29
1 6186 1
1 6187 4
1 6188 5
1 6189 82
1 6191 21
1 6192 3
1 6193 2
1 6194 19
1 6195 949
1 6196 2
1 6197 8
1 6198 1352
1 6199 6
1 6200 21
1 6201 4
1 6202 1
1 6203 11
1 6204 24
1 6205 33
1 6206 26
1 6207 3
1 6208 2
1 6209 3
1 6210 18
1 6211 49
1 6212 10
1 6213 10
1 6214 7
1 6215 26
1 6216 1
1 6217 2
1 6218 33
1 6219 21
1 6220 10
1 6221 18
1 6222 1
1 6224 5
1 6225 3
1 6226 46
1 6227 55
1 6228 26
1 6229 1
1 6230 3
1 6231 3
1 6232 7
1 6233 3
1 6234 12
1 6235 6
1 6236 1
1 6237 450
1 6238 29
1 6239 2
1 6240 56
1 6241 3
1 6242 48
1 6243 17
1 6244 1
1 6245 9
1 6246 2
1 6247 2
1 6248 6
1 6249 18
1 6250 6
1 6251 2
1 6252 5
1 6253 4
1 6254 18
1 6255 11
1 6256 43
1 6257 44
1 6258 5
1 6259 721
1 6261 26
1 6262 1
1 6263 32
1 6264 13
1 6265 1
1 6266 32
1 6267 2
1 6268 18
1 6269 33
1 6270 10
1 6271 33
1 6272 1
1 6273 20
1 6274 3
1 6275 44
1 6276 7
1 6277 6
1 6278 1
1 6279 10
1 6280 24
1 6281 6
1 6283 29
1 6284 12
1 6285 11
1 6286 4
1 6287 2
1 6289 3
1 6290 1
1 6291 7
1 6292 3
1 6293 1
1 6294 2
1 6295 3
1 6296 5
1 6297 27
1 6299 1
1 6300 14
1 6301 16
1 6302 1
1 6303 9
1 6304 4
1 6305 47
1 6306 1
1 6307 3
1 6310 7
1 6311 9
1 6312 6
1 6313 2
1 6314 7
1 6315 7
1 6316 10
1 6317 5
1 6318 5
1 6319 6
1 6320 52
1 6321 1255
1 6322 19
1 6323 32
1 6324 1
1 6325 29
1 6326 32
1 6327 6
1 6328 3
1 6329 11
1 6330 16
1 6331 677
1 6332 37
1 6333 6
1 6334 1
1 6335 3
1 6336 20
1 6337 1
1 6338 1
1 6339 2
1 6340 72
1 6342 1102
1 6344 25
1 6345 672
1 6346 2
1 6347 4
1 6349 4
1 6350 6
1 6351 9
1 6352 1
1 6353 2
1 6354 3
1 6355 2
1 6356 10
1 6357 18
1 6358 13
1 6359 8
1 6360 11
1 6361 849
1 6362 5
1 6363 5
1 6364 4
1 6365 4
1 6366 10
1 6367 2
1 6368 4
1 6369 17
1 6370 9
1 6371 10
1 6372 1
1 6373 305
1 6374 1
1 6375 3
1 6376 6
1 6377 23
1 6378 9
1 6379 19
1 6380 4
1 6381 25
1 6382 3
1 6383 146
1 6385 2
1 6386 15
1 6387 9
1 6388 2
1 6389 11
1 6390 11
1 6391 1
1 6392 16
1 6393 6
1 6394 4
1 6395 18
1 6396 4
1 6397 3
1 6398 11
1 6399 39
1 6400 11
1 6401 471
1 6402 2
1 6403 16
1 6404 26
1 6405 3
1 6406 13
1 6407 4
1 6408 6
1 6409 2
1 6410 6
1 6411 62
1 6412 5
1 6413 23
1 6414 4
1 6415 36
1 6416 1
1 6417 3
1 6418 9
1 6419 14
1 6420 29
1 6421 32
1 6422 2
1 6423 5
1 6424 4
1 6425 8
1 6426 2
1 6427 31
1 6428 2
1 6429 30
1 6430 5
1 6431 1
1 6432 12
1 6433 16
1 6434 21
1 6435 20
1 6436 20
1 6437 36
1 6438 5
1 6439 6
1 6440 1
1 6441 6
1 6442 18
1 6443 10
1 6444 4
1 6445 5
1 6446 24
1 6447 22
1 6448 9
1 6449 3
1 6450 3
1 6452 47
1 6453 45
1 6454 8
1 6455 1
1 6456 53
1 6457 16
1 6458 1
1 6459 8
1 6460 20
1 6461 1
1 6462 19
1 6463 4
1 6464 53
1 6465 29
1 6466 16
1 6467 14
1 6468 29
1 6469 23
1 6470 26
1 6471 37
1 6472 11
1 6473 3
1 6474 6
1 6475 10
1 6476 4
1 6477 2
1 6479 4
1 6480 1
1 6481 20
1 6482 3
1 6484 5
1 6485 36
1 6486 18
1 6487 1
1 6488 1
1 6489 1
1 6490 27
1 6491 14
1 6492 32
1 6493 20
1 6494 44
1 6495 9
1 6496 2
1 6497 56
1 6498 5
1 6499 3
1 6500 1
1 6501 38
1 6502 47
1 6503 1
1 6504 13
1 6505 6
1 6506 1
1 6507 3
1 6508 16
1 6509 5
1 6510 8
1 6511 2
1 6512 4
1 6513 18
1 6514 2
1 6515 15
1 6516 1
1 6517 10
1 6518 495
1 6519 3
1 6520 1351
1 6521 1
1 6522 6
1 6524 5
1 6525 8
1 6526 12
1 6527 5
1 6528 944
1 6529 34
1 6530 4
1 6531 16
1 6532 12
1 6534 7
1 6535 1
1 6536 4
1 6537 24
1 6538 3
1 6539 6
1 6540 5
1 6541 3
1 6542 13
1 6543 2
1 6544 2
1 6545 16
1 6546 43
1 6547 8
1 6548 71
1 6549 19
1 6550 12
1 6551 50
1 6552 6
1 6553 6
1 6554 4
1 6555 15
1 6556 11
1 6557 9
1 6558 18
1 6559 32
1 6560 4
1 6562 14
1 6563 1412
1 6564 3
1 6565 1
1 6566 1094
1 6567 26
1 6568 11
1 6569 2
1 6570 66
1 6571 55
1 6572 10
1 6573 8
1 6574 3
1 6575 109
1 6576 3
1 6577 4
1 6578 7
1 6579 39
1 6580 1
1 6581 3
1 6582 4
1 6583 25
1 6584 476
1 6585 8
1 6586 14
1 6587 6
1 6588 5
1 6589 33
1 6590 11
1 6591 26
1 6592 6
1 6593 22
1 6594 4
1 6595 37
1 6596 5
1 6597 5
1 6598 4
1 6599 2
1 6600 35
1 6601 8
1 6602 10
1 6603 3
1 6604 3
1 6605 5
1 6606 21
1 6607 1
1 6609 14
1 6610 718
1 6611 201
1 6612 13
1 6613 31
1 6614 16
1 6615 11
1 6616 19
1 6617 26
1 6618 23
1 6619 1
1 6620 2
1 6621 15
1 6622 3
1 6623 719
1 6624 1
1 6625 2
1 6626 1
1 6627 34
1 6628 7
1 6629 4
1 6630 24
1 6631 11
1 6632 3
1 6633 2
1 6634 1
1 6635 30
1 6636 4
1 6637 1
1 6638 7
1 6639 1006
1 6640 14
1 6641 3
1 6642 1
1 6643 61
1 6644 43
1 6645 3
1 6647 15
1 6649 5
1 6650 4
1 6651 54
1 6652 6
1 6653 18
1 6654 2
1 6655 17
1 6656 4
1 6657 6
1 6658 1
1 6659 2
1 6660 4
1 6661 31
1 6662 3
1 6664 4
1 6665 4
1 6666 2
1 6667 33
1 6668 200
1 6669 59
1 6670 2
1 6671 65
1 6672 30
1 6673 3
1 6674 25
1 6675 2
1 6676 2
1 6677 1
1 6678 38
1 6679 6
1 6680 3
1 6681 53
1 6682 2
1 6683 5
1 6684 14
1 6685 18
1 6686 21
1 6687 2
1 6688 24
1 6689 4
1 6690 679
1 6691 33
1 6692 6
1 6693 25
1 6694 3
1 6695 1
1 6696 6
1 6697 4
1 6698 4
1 6699 1
1 6700 804
1 6701 8
1 6702 2
1 6703 2
1 6704 38
1 6705 5
1 6706 7
1 6708 3
1 6709 9
1 6710 7
1 6711 1
1 6712 1
1 6713 2
1 6714 36
1 6715 164
1 6716 2
1 6717 2
1 6718 4
1 6719 9
1 6720 5
1 6721 4
1 6722 3
1 6723 4
1 6725 51
1 6726 4
1 6727 5
1 6728 1
1 6729 25
1 6730 2
1 6731 4
1 6732 2
1 6733 7
1 6734 2
1 6735 27
1 6736 17
1 6737 3
1 6738 64
1 6739 4
1 6740 16
1 6741 2
1 6742 2
1 6743 92
1 6744 38
1 6745 2
1 6746 3
1 6747 5
1 6748 3
1 6749 4
1 6750 30
1 6751 5
1 6752 4
1 6753 19
1 6754 24
1 6755 41
1 6756 5
1 6757 1
1 6758 5
1 6759 5
1 6760 20
1 6761 3
1 6762 2
1 6763 22
1 6764 3
1 6765 5
1 6766 35
1 6767 4
1 6768 6
1 6769 13
1 6770 3
1 6771 1
1 6772 1
1 6773 22
1 6774 3
1 6775 10
1 6776 4
1 6777 21
1 6778 3
1 6779 44
1 6780 2
1 6782 3
1 6783 1077
1 6784 33
1 6785 14
1 6786 18
1 6787 3
1 6788 2
1 6789 16
1 6791 6
1 6792 3
1 6794 1
1 6796 57
1 6797 1
1 6798 1
1 6799 1
1 6800 1
1 6801 7
1 6802 2
1 6803 1
1 6804 2
1 6805 3
1 6806 16
1 6807 44
1 6808 18
1 6809 4
1 6811 4
1 6812 1237
1 6813 2
1 6814 22
1 6815 1
1 6816 6
1 6817 4
1 6818 7
1 6819 5
1 6820 1
1 6821 32
1 6822 3
1 6823 14
1 6824 6
1 6825 19
1 6826 30
1 6827 3
1 6828 97
1 6829 28
1 6830 33
1 6831 2
1 6832 74
1 6833 4
1 6834 3
1 6835 4
1 6836 2
1 6838 3
1 6839 4
1 6840 22
1 6841 2
1 6842 303
1 6843 21
1 6844 3
1 6845 2
1 6846 17
1 6847 3
1 6848 34
1 6849 29
1 6850 9
1 6851 34
1 6852 9
1 6853 37
1 6854 1
1 6855 6
1 6856 1051
1 6857 1
1 6858 5
1 6859 37
1 6860 15
1 6861 2
1 6862 4
1 6863 2
1 6864 21
1 6865 4
1 6866 2
1 6867 3
1 6868 1
1 6870 2
1 6871 4
1 6872 23
1 6873 6
1 6874 11
1 6875 2
1 6876 23
1 6877 2
1 6878 15
1 6879 1
1 6880 1
1 6882 3
1 6883 2
1 6884 65
1 6885 4
1 6886 5
1 6887 10
1 6888 20
1 6889 1
1 6890 5
1 6891 2
1 6892 35
1 6893 45
1 6894 2
1 6895 9
1 6896 31
1 6897 1
1 6898 12
1 6899 1
1 6900 8
1 6901 13
1 6902 4
1 6903 28
1 6904 3
1 6905 2
1 6906 49
1 6907 5
1 6908 24
1 6909 3
1 6910 21
1 6911 4
1 6912 12
1 6913 49
1 6914 3
1 6915 1
1 6916 5
1 6917 2
1 6918 5
1 6919 6
1 6920 15
1 6921 20
1 6922 14
1 6923 261
1 6924 8
1 6925 16
1 6926 22
1 6928 9
1 6929 4
1 6930 7
1 6931 2
1 6932 101
1 6933 2
1 6934 4
1 6935 25
1 6936 2
1 6937 19
1 6938 2
1 6939 7
1 6940 13
1 6941 821
1 6942 3
1 6944 8
1 6945 4
1 6946 13
1 6947 3
1 6948 16
1 6949 22
1 6950 4
1 6951 17
1 6952 26
1 6953 12
1 6954 5
1 6955 16
1 6956 4
1 6957 6
1 6958 20
1 6960 5
1 6961 4
1 6962 2
1 6963 1
1 6964 21
1 6965 7
1 6966 1
1 6967 54
1 6968 12
1 6969 5
1 6970 9
1 6971 7
1 6972 16
1 6973 3
1 6974 1
1 6975 4
1 6976 3
1 6977 23
1 6978 4
1 6979 2
1 6980 1
1 6981 45
1 6982 4
1 6983 38
1 6984 23
1 6985 1
1 6986 9
1 6987 5
1 6988 54
1 6989 3
1 6990 18
1 6991 4
1 6992 7
1 6993 3
1 6994 34
1 6996 5
1 6997 7
1 6998 5
1 6999 1
1 7000 1138
1 7001 4
1 7002 5
1 7003 21
1 7004 27
1 7005 4
1 7006 7
1 7007 3
1 7008 23
1 7009 3
1 7010 19
1 7011 1
1 7012 6
1 7013 7
1 7014 5
1 7015 13
1 7016 1
1 7017 37
1 7018 1
1 7019 28
1 7020 30
1 7021 2
1 7022 3
1 7023 2
1 7024 32
1 7025 29
1 7026 8
1 7027 3
1 7028 10
1 7029 804
1 7030 3
1 7031 4
1 7032 14
1 7033 23
1 7034 64
1 7035 4
1 7036 1
1 7037 6
1 7038 4
1 7039 2
1 7040 3
1 7041 1159
1 7042 3
1 7043 2
1 7044 8
1 7045 2
1 7046 29
1 7047 14
1 7048 21
1 7049 6
1 7050 3
1 7051 3
1 7052 8
1 7053 14
1 7054 272
1 7055 26
1 7056 3
1 7057 23
1 7058 2
1 7059 1
1 7060 19
1 7061 2
1 7062 1
1 7063 25
1 7064 44
1 7065 15
1 7066 13
1 7067 4
1 7069 2
1 7070 17
1 7071 1
1 7072 4
1 7073 6
1 7074 7
1 7075 5
1 7076 3
1 7077 11
1 7078 1
1 7079 1
1 7080 3
1 7081 21
1 7082 8
1 7083 31
1 7084 5
1 7085 40
1 7086 16
1 7087 25
1 7088 2
1 7089 1410
1 7090 2
1 7091 15
1 7092 8
1 7093 1
1 7094 2
1 7095 13
1 7096 11
1 7097 2
1 7098 16
1 7099 3
1 7100 4
1 7101 1
1 7102 21
1 7104 3
1 7105 2
1 7106 14
1 7107 4
1 7108 2
1 7109 2
1 7110 9
1 7111 32
1 7112 2
1 7113 19
1 7114 4
1 7115 1
1 7116 30
1 7117 9
1 7118 1
1 7119 855
1 7120 22
1 7121 35
1 7122 4
1 7123 18
1 7124 1152
1 7125 1
1 7126 34
1 7127 41
1 7128 2
1 7129 1
1 7130 2
1 7131 3
1 7132 17
1 7133 13
1 7134 4
1 7135 34
1 7137 4
1 7138 2
1 7139 3
1 7140 33
1 7141 32
1 7142 20
1 7143 14
1 7144 6
1 7145 4
1 7146 11
1 7147 25
1 7148 3
1 7149 5
1 7150 6
1 7151 91
1 7152 5
1 7153 38
1 7154 7
1 7155 2
1 7156 4
1 7157 16
1 7158 7
1 7159 13
1 7160 3
1 7161 10
1 7162 22
1 7163 4
1 7164 50
1 7165 29
1 7166 3
1 7167 2
1 7168 3
1 7169 21
1 7170 14
1 7171 14
1 7172 31
1 7173 1
1 7174 2
1 7175 2
1 7176 4
1 7177 1
1 7178 1
1 7179 65
1 7180 10
1 7181 6
1 7182 3
1 7183 9
1 7184 39
1 7185 19
1 7186 3
1 7187 1
1 7188 4
1 7189 40
1 7190 1
1 7191 36
1 7192 3
1 7193 17
1 7194 6
1 7195 30
1 7196 36
1 7197 1
1 7198 2
1 7199 1
1 7200 3
1 7201 27
1 7202 3
1 7203 5
1 7204 8
1 7205 5
1 7206 4
1 7207 83
1 7208 2
1 7209 1
1 7210 7
1 7211 1
1 7212 7
1 7213 24
1 7214 19
1 7215 9
1 7216 4
1 7217 4
1 7218 1
1 7219 2
1 7220 5
1 7221 2
1 7222 2
1 7223 38
1 7224 50
1 7225 2
1 7226 6
1 7227 18
1 7228 43
1 7229 8
1 7230 11
1 7231 2
1 7232 17
1 7233 12
1 7235 5
1 7236 9
1 7237 45
1 7238 24
1 7239 15
1 7240 10
1 7241 3
1 7242 4
1 7243 13
1 7244 5
1 7245 690
1 7246 7
1 7247 17
1 7248 6
1 7249 7
1 7250 22
1 7251 3
1 7252 4
1 7253 13
1 7254 2
1 7255 4
1 7256 2
1 7257 6
1 7258 2
1 7259 7
1 7260 38
1 7261 47
1 7263 5
1 7264 7
1 7265 1
1 7266 12
1 7267 21
1 7268 4
1 7269 12
1 7270 3
1 7271 80
1 7272 2
1 7273 6
1 7274 18
1 7276 8
1 7277 5
1 7278 6
1 7279 10
1 7280 32
1 7281 1
1 7282 8
1 7283 3
1 7284 1
1 7285 3
1 7286 19
1 7287 2
1 7288 32
1 7289 9
1 7290 5
1 7291 28
1 7292 18
1 7293 77
1 7294 3
1 7295 14
1 7296 5
1 7297 2
1 7298 18
1 7299 17
1 7300 17
1 7301 3
1 7302 59
1 7303 5
1 7304 9
1 7305 591
1 7306 13
1 7307 2
1 7308 2
1 7309 2
1 7310 6
1 7311 22
1 7312 7
1 7313 3
1 7316 2
1 7317 12
1 7318 2
1 7319 56
1 7320 21
1 7321 25
1 7322 2
1 7323 24
1 7324 7
1 7325 35
1 7326 21
1 7327 1
1 7328 24
1 7329 3
1 7330 21
1 7331 2
1 7332 4
1 7333 3
1 7334 1
1 7335 1
1 7337 12
1 7338 4
1 7339 1
1 7340 42
1 7341 1
1 7342 24
1 7343 2
1 7344 2
1 7346 882
1 7347 15
1 7348 155
1 7349 9
1 7350 5
1 7351 4
1 7352 12
1 7353 62
1 7354 6
1 7355 40
1 7356 14
1 7357 1324
1 7358 3
1 7359 27
1 7360 36
1 7361 2
1 7362 16
1 7363 6
1 7364 30
1 7365 6
1 7366 4
1 7367 3
1 7368 14
1 7369 41
1 7370 1
1 7371 3
1 7372 15
1 7373 29
1 7374 2
1 7375 4
1 7376 4
1 7377 3
1 7378 2
1 7379 19
1 7380 27
1 7381 3
1 7382 31
1 7383 135
1 7384 11
1 7385 2
1 7386 32
1 7387 6
1 7388 7
1 7389 48
1 7390 2
1 7391 13
1 7392 23
1 7393 21
1 7394 6
1 7395 5
1 7396 3
1 7397 1
1 7398 4
1 7399 4
1 7400 935
1 7401 21
1 7402 2
1 7403 20
1 7404 10
1 7405 740
1 7406 27
1 7407 27
1 7408 17
1 7409 31
1 7410 6
1 7411 3
1 7412 42
1 7413 5
1 7414 1
1 7415 6
1 7416 39
1 7417 53
1 7418 183
1 7419 2
1 7420 9
1 7421 2
1 7422 2
1 7423 1
1 7424 2
1 7425 19
1 7427 7
1 7428 3
1 7429 5
1 7430 23
1 7431 4
1 7432 11
1 7434 188
1 7435 5
1 7436 11
1 7437 2
1 7438 2
1 7439 5
1 7440 32
1 7441 4
1 7442 11
1 7443 2
1 7444 4
1 7445 3
1 7446 6
1 7447 2
1 7448 13
1 7450 12
1 7451 2
1 7452 3
1 7453 34
1 7454 14
1 7455 2
1 7456 13
1 7457 1
1 7458 5
1 7459 49
1 7460 18
1 7461 19
1 7462 34
1 7463 8
1 7464 17
1 7465 1211
1 7466 2
1 7467 63
1 7468 37
1 7469 1
1 7470 18
1 7471 4
1 7472 1
1 7473 8
1 7474 23
1 7475 2
1 7476 35
1 7477 14
1 7478 4
1 7479 7
1 7480 5
1 7482 58
1 7483 56
1 7484 1
1 7485 19
1 7486 30
1 7487 19
1 7488 468
1 7491 2
1 7492 4
1 7493 3
1 7494 4
1 7495 142
1 7496 45
1 7497 4
1 7498 5
1 7499 23
1 7500 5
1 7501 2
1 7502 12
1 7503 2
1 7504 4
1 7505 1
1 7506 14
1 7507 2
1 7508 21
1 7509 19
1 7510 32
1 7511 6
1 7512 39
1 7513 1
1 7514 1066
1 7515 6
1 7516 5
1 7517 23
1 7518 24
1 7519 1
1 7520 8
1 7521 5
1 7523 5
1 7524 1
1 7525 4
1 7526 28
1 7527 926
1 7528 249
1 7530 2
1 7531 3
1 7532 3
1 7533 14
1 7534 709
1 7535 5
1 7536 1
1 7537 3
1 7538 2
1 7539 4
1 7540 4
1 7541 4
1 7542 41
1 7543 4
1 7544 11
1 7546 40
1 7547 16
1 7548 26
1 7549 20
1 7550 21
1 7551 21
1 7552 47
1 7553 19
1 7554 5
1 7555 3
1 7556 1
1 7557 2
1 7558 38
1 7559 1
1 7560 5
1 7561 3
1 7562 14
1 7563 2
1 7564 3
1 7565 4
1 7569 4
1 7571 4
1 7572 5
1 7573 63
1 7574 1
1 7575 8
1 7576 3
1 7577 3
1 7578 26
1 7579 14
1 7580 1
1 7582 3
1 7583 35
1 7584 13
1 7585 2
1 7587 2
1 7588 19
1 7589 15
1 7590 4
1 7591 2
1 7592 4
1 7593 10
1 7594 27
1 7595 5
1 7596 1
1 7597 23
1 7598 10
1 7599 2
1 7600 1
1 7601 3
1 7602 7
1 7603 12
1 7604 5
1 7605 3
1 7606 3
1 7607 1
1 7608 29
1 7609 1
1 7610 4
1 7611 17
1 7612 2
1 7613 1
1 7614 4
1 7615 42
1 7616 2
1 7617 2
1 7618 3
1 7619 6
1 7620 20
1 7621 7
1 7622 41
1 7623 383
1 7624 25
1 7625 1
1 7626 9
1 7627 22
1 7628 39
1 7629 26
1 7630 23
1 7631 7
1 7632 3
1 7633 5
1 7634 4
1 7635 29
1 7636 8
1 7637 29
1 7638 30
1 7639 42
1 7641 53
1 7642 7
1 7643 24
1 7644 9
1 7645 31
1 7646 2
1 7647 3
1 7648 27
1 7649 4
1 7650 25
1 7651 5
1 7652 50
1 7653 6
1 7655 4
1 7656 8
1 7657 33
1 7658 1
1 7659 1
1 7660 19
1 7661 6
1 7662 5
1 7663 13
1 7664 25
1 7665 27
1 7666 10
1 7667 2
1 7668 6
1 7669 1
1 7670 121
1 7671 18
1 7673 19
1 7674 7
1 7675 14
1 7676 2
1 7677 21
1 7678 50
1 7679 5
1 7680 34
1 7681 17
1 7682 3
1 7683 31
1 7684 9
1 7685 2
1 7686 3
1 7687 2
1 7688 50
1 7689 21
1 7690 3
1 7691 5
1 7692 3
1 7693 3
1 7694 14
1 7695 5
1 7696 4
1 7697 3
1 7698 42
1 7699 4
1 7700 28
1 7701 5
1 7702 5
1 7703 4
1 7704 3
1 7705 6
1 7706 3
1 7707 15
1 7708 15
1 7709 40
1 7710 20
1 7711 5
1 7712 4
1 7713 3
1 7714 3
1 7715 38
1 7716 1
1 7717 4
1 7718 33
1 7719 33
1 7720 4
1 7721 22
1 7722 3
1 7723 7
1 7724 22
1 7725 12
1 7726 21
1 7727 16
1 7728 2
1 7729 2
1 7730 10
1 7731 34
1 7732 3
1 7733 2
1 7734 3
1 7735 14
1 7736 19
1 7737 60
1 7738 2
1 7739 7
1 7740 8
1 7741 6
1 7742 4
1 7743 5
1 7744 1
1 7745 25
1 7746 7
1 7747 17
1 7748 6
1 7749 5
1 7750 20
1 7751 23
1 7752 4
1 7753 409
1 7754 1
1 7755 28
1 7756 1
1 7757 9
1 7758 5
1 7759 2
1 7760 17
1 7761 3
1 7762 4
1 7763 3
1 7764 28
1 7765 32
1 7766 2
1 7767 3
1 7768 65
1 7769 2
1 7770 31
1 7771 44
1 7772 8
1 7773 4
1 7774 22
1 7775 5
1 7776 11
1 7777 17
1 7778 7
1 7779 1
1 7780 4
1 7781 25
1 7782 3
1 7783 2
1 7784 24
1 7785 23
1 7786 6
1 7787 2
1 7788 4
1 7790 3
1 7791 20
1 7792 3
1 7793 37
1 7794 3
1 7795 76
1 7796 1
1 7797 4
1 7798 1
1 7799 21
1 7800 36
1 7801 4
1 7802 2
1 7803 25
1 7804 53
1 7805 75
1 7806 3
1 7807 2
1 7808 1
1 7809 2
1 7810 402
1 7811 7
1 7812 5
1 7814 16
1 7815 41
1 7817 25
1 7818 13
1 7819 15
1 7820 6
1 7821 4
1 7823 642
1 7824 6
1 7825 2
1 7826 10
1 7827 4
1 7828 16
1 7829 4
1 7830 850
1 7831 3
1 7832 5
1 7834 573
1 7835 29
1 7836 4
1 7837 6
1 7838 5
1 7839 2
1 7840 7
1 7841 1
1 7842 3
1 7843 28
1 7844 5
1 7845 17
1 7846 41
1 7847 50
1 7848 9
1 7849 4
1 7850 56
1 7851 5
1 7852 4
1 7853 6
1 7854 4
1 7855 11
1 7856 9
1 7857 10
1 7858 3
1 7859 12
1 7860 3
1 7861 5
1 7862 41
1 7863 27
1 7864 4
1 7865 24
1 7866 69
1 7867 2
1 7868 7
1 7869 792
1 7870 3
1 7871 33
1 7872 35
1 7873 28
1 7874 5
1 7875 6
1 7876 5
1 7877 10
1 7878 6
1 7879 51
1 7880 2
1 7881 14
1 7882 19
1 7883 2
1 7884 46
1 7885 2
1 7886 5
1 7887 3
1 7888 28
1 7889 11
1 7890 2
1 7891 2
1 7892 4
1 7893 7
1 7894 17
1 7895 2
1 7896 12
1 7897 5
1 7898 5
1 7899 2
1 7900 24
1 7901 23
1 7902 5
1 7903 3
1 7904 3
1 7905 45
1 7906 1
1 7907 91
1 7908 19
1 7909 1
1 7910 16
1 7911 22
1 7912 27
1 7913 5
1 7914 1
1 7915 18
1 7916 3
1 7917 5
1 7918 25
1 7919 27
1 7920 10
1 7921 40
1 7922 15
1 7923 1
1 7924 21
1 7925 52
1 7926 10
1 7927 19
1 7928 49
1 7929 7
1 7930 3
1 7931 2
1 7932 4
1 7933 7
1 7934 2
1 7935 4
1 7936 19
1 7937 20
1 7938 12
1 7939 18
1 7940 22
1 7941 4
1 7942 3
1 7943 73
1 7944 7
1 7945 27
1 7946 12
1 7947 60
1 7948 3
1 7949 8
1 7950 37
1 7951 2
1 7952 12
1 7953 6
1 7954 5
1 7955 11
1 7956 4
1 7957 2
1 7958 38
1 7959 13
1 7960 81
1 7961 58
1 7962 33
1 7963 41
1 7964 9
1 7965 5
1 7966 29
1 7967 2
1 7968 5
1 7969 7
1 7970 1
1 7971 1
1 7972 22
1 7973 16
1 7974 229
1 7975 14
1 7976 3
1 7977 10
1 7979 13
1 7981 6
1 7982 5
1 7983 34
1 7984 16
1 7985 53
1 7986 3
1 7987 13
1 7988 14
1 7989 24
1 7990 18
1 7991 8
1 7992 23
1 7993 2
1 7994 1
1 7995 74
1 7996 4
1 7997 2
1 7998 66
1 7999 13
1 8000 1
1 8001 3
1 8002 1
1 8003 4
1 8004 2
1 8006 4
1 8007 11
1 8008 2
1 8009 8
1 8010 5
1 8011 2
1 8012 28
1 8013 44
1 8014 4
1 8015 16
1 8016 14
1 8017 15
1 8018 4
1 8019 7
1 8020 3
1 8021 42
1 8022 1
1 8023 3
1 8024 3
1 8025 12
1 8026 28
1 8027 3
1 8028 25
1 8029 4
1 8030 1
1 8031 2
1 8032 3
1 8033 3
1 8034 5
1 8035 19
1 8036 28
1 8037 4
1 8038 4
1 8039 6
1 8040 3
1 8041 25
1 8042 2
1 8043 2
1 8044 2
1 8045 15
1 8046 5
1 8047 2
1 8048 15
1 8049 1284
1 8050 3
1 8051 2
1 8052 3
1 8053 186
1 8054 3
1 8055 23
1 8056 16
1 8057 1
1 8058 5
1 8059 1
1 8060 6
1 8061 15
1 8062 29
1 8063 1
1 8064 3
1 8065 2
1 8066 2
1 8067 11
1 8068 25
1 8069 2
1 8070 3
1 8071 3
1 8072 17
1 8073 5
1 8074 1
1 8075 9
1 8076 1
1 8077 4
1 8078 8
1 8079 2
1 8080 18
1 8081 2
1 8082 26
1 8083 4
1 8084 3
1 8085 2
1 8086 5
1 8087 6
1 8088 6
1 8089 46
1 8090 28
1 8091 68
1 8093 22
1 8094 1
1 8095 69
1 8097 9
1 8098 9
1 8099 3
1 8100 3
1 8101 7
1 8102 1
1 8103 23
1 8104 15
1 8105 37
1 8106 19
1 8107 3
1 8108 14
1 8109 71
1 8110 15
1 8111 4
1 8112 5
1 8113 37
1 8114 7
1 8115 2
1 8116 2
1 8117 2
1 8118 15
1 8119 1
1 8120 2
1 8121 30
1 8123 72
1 8125 3
1 8126 24
1 8127 3
1 8128 35
1 8129 25
1 8130 639
1 8131 2
1 8132 2
1 8133 7
1 8134 32
1 8135 13
1 8136 11
1 8137 68
1 8138 2
1 8139 39
1 8140 1
1 8141 2
1 8142 10
1 8143 15
1 8144 28
1 8145 18
1 8146 44
1 8147 28
1 8148 3
1 8149 1
1 8151 4
1 8152 11
1 8153 8
1 8154 66
1 8155 3
1 8156 4
1 8157 5
1 8158 1
1 8159 16
1 8160 1
1 8161 16
1 8162 2
1 8163 33
1 8164 3
1 8165 3
1 8166 15
1 8167 2
1 8168 3
1 8169 2
1 8170 3
1 8171 45
1 8172 54
1 8173 119
1 8174 3
1 8175 13
1 8176 3
1 8177 20
1 8178 5
1 8179 4
1 8180 4
1 8181 2
1 8182 4
1 8183 7
1 8184 1
1 8185 26
1 8186 3
1 8187 2
1 8188 23
1 8189 2
1 8190 7
1 8191 5
1 8192 2
1 8193 5
1 8194 7
1 8195 30
1 8196 3
1 8197 4
1 8198 9
1 8199 6
1 8200 1
1 8201 4
1 8202 33
1 8203 68
1 8204 7
1 8205 15
1 8206 3
1 8207 6
1 8208 41
1 8209 20
1 8210 37
1 8211 5
1 8212 3
1 8213 12
1 8214 3
1 8215 7
1 8216 24
1 8217 5
1 8218 55
1 8219 26
1 8220 2
1 8221 3
1 8222 3
1 8223 195
1 8224 17
1 8225 25
1 8226 3
1 8228 8
1 8229 1
1 8231 3
1 8232 3
1 8234 1
1 8235 57
1 8236 3
1 8237 1
1 8238 6
1 8239 4
1 8242 4
1 8243 18
1 8244 39
1 8246 2
1 8247 4
1 8248 7
1 8249 1
1 8250 7
1 8251 12
1 8252 4
1 8253 4
1 8255 2
1 8256 404
1 8257 1258
1 8258 21
1 8259 8
1 8260 3
1 8261 5
1 8262 7
1 8263 17
1 8264 15
1 8265 2
1 8266 28
1 8267 37
1 8268 31
1 8269 13
1 8270 2
1 8271 19
1 8272 1
1 8273 1
1 8274 5
1 8275 3
1 8276 22
1 8277 2
1 8278 33
1 8279 40
1 8280 2
1 8281 17
1 8282 40
1 8283 1
1 8284 2
1 8285 2
1 8286 1
1 8287 1
1 8288 5
1 8289 1
1 8291 6
1 8292 2
1 8293 28
1 8295 1
1 8296 55
1 8297 1
1 8298 4
1 8299 8
1 8300 25
1 8301 1
1 8302 2
1 8303 2
1 8304 52
1 8305 4
1 8306 2
1 8307 1
1 8309 3
1 8310 1
1 8311 10
1 8312 5
1 8313 26
1 8314 5
1 8315 1
1 8316 4
1 8317 2
1 8318 27
1 8319 12
1 8320 6
1 8321 7
1 8322 24
1 8323 37
1 8324 2
1 8325 5
1 8326 17
1 8327 4
1 8328 12
1 8329 26
1 8330 25
1 8331 2
1 8332 49
1 8333 7
1 8334 1
1 8335 38
1 8336 4
1 8337 6
1 8339 1
1 8340 31
1 8341 3
1 8342 33
1 8343 1
1 8344 3
1 8345 53
1 8346 6
1 8347 4
1 8348 2
1 8349 2
1 8350 10
1 8351 10
1 8352 30
1 8353 2
1 8354 31
1 8355 16
1 8356 10
1 8357 1
1 8358 1363
1 8359 3
1 8360 4
1 8361 26
1 8362 8
1 8363 20
1 8364 19
1 8365 23
1 8366 45
1 8367 26
1 8368 54
1 8369 4
1 8370 3
1 8371 25
1 8372 8
1 8373 2
1 8374 26
1 8375 48
1 8376 3
1 8377 2
1 8378 141
1 8379 5
1 8380 24
1 8381 2
1 8382 30
1 8383 27
1 8384 2
1 8385 1
1 8386 52
1 8387 4
1 8388 5
1 8389 19
1 8390 5
1 8391 3
1 8392 12
1 8393 2
1 8394 9
1 8395 44
1 8396 39
1 8397 27
1 8398 3
1 8399 30
1 8400 7
1 8401 10
1 8402 4
1 8403 5
1 8404 2
1 8405 68
1 8406 3
1 8407 2
1 8408 9
1 8409 19
1 8411 6
1 8412 3
1 8413 1
1 8414 2
1 8415 21
1 8416 1
1 8418 42
1 8419 5
1 8420 24
1 8421 8
1 8422 17
1 8423 60
1 8424 72
1 8425 2
1 8426 7
1 8427 11
1 8428 4
1 8429 5
1 8430 3
1 8431 8
1 8432 58
1 8433 2
1 8434 5
1 8435 18
1 8436 4
1 8437 25
1 8438 10
1 8439 3
1 8440 11
1 8441 14
1 8442 8
1 8443 9
1 8444 1
1 8445 4
1 8446 3
1 8447 1
1 8448 4
1 8449 29
1 8451 1
1 8452 1
1 8453 4
1 8454 1
1 8455 725
1 8456 3
1 8457 10
1 8458 21
1 8459 8
1 8460 1
1 8461 4
1 8462 18
1 8463 2
1 8465 4
1 8466 22
1 8467 2
1 8468 3
1 8469 4
1 8470 8
1 8471 4
1 8472 15
1 8473 22
1 8474 4
1 8475 7
1 8476 6
1 8477 182
1 8478 1
1 8479 5
1 8480 1
1 8482 2
1 8483 38
1 8484 12
1 8485 4
1 8486 32
1 8487 2
1 8488 20
1 8489 3
1 8490 1
1 8491 2
1 8492 2
1 8493 2
1 8494 3
1 8495 23
1 8496 3
1 8497 21
1 8498 2
1 8499 1
1 8500 1
1 8501 13
1 8502 20
1 8503 12
1 8504 3
1 8505 2
1 8506 27
1 8507 16
1 8508 17
1 8509 4
1 8510 4
1 8511 48
1 8512 1
1 8513 15
1 8514 4
1 8516 28
1 8517 32
1 8518 2
1 8519 4
1 8521 2
1 8522 1
1 8523 3
1 8524 8
1 8525 3
1 8526 4
1 8527 1
1 8528 25
1 8529 12
1 8530 7
1 8531 2
1 8533 14
1 8534 14
1 8535 14
1 8536 23
1 8537 34
1 8538 5
1 8539 20
1 8541 3
1 8542 23
1 8543 11
1 8544 3
1 8545 11
1 8546 1
1 8547 11
1 8548 6
1 8549 3
1 8550 3
1 8551 3
1 8552 28
1 8553 19
1 8555 3
1 8557 72
1 8558 4
1 8559 31
1 8560 20
1 8561 4
1 8562 4
1 8563 8
1 8564 21
1 8565 5
1 8566 18
1 8567 20
1 8569 4
1 8570 5
1 8571 14
1 8572 4
1 8573 2
1 8574 19
1 8575 2
1 8576 4
1 8577 984
1 8578 3
1 8579 2
1 8580 77
1 8581 1
1 8582 30
1 8583 10
1 8584 16
1 8585 1
1 8586 4
1 8587 22
1 8588 2
1 8589 3
1 8590 1
1 8591 19
1 8592 32
1 8594 4
1 8595 31
1 8596 3
1 8597 2
1 8598 3
1 8599 2
1 8600 3
1 8601 3
1 8602 6
1 8603 6
1 8604 56
1 8605 6
1 8607 3
1 8608 9
1 8609 3
1 8610 20
1 8611 38
1 8612 12
1 8613 82
1 8614 1
1 8615 10
1 8616 12
1 8617 2
1 8618 1
1 8619 24
1 8620 3
1 8621 3
1 8622 2
1 8623 27
1 8624 15
1 8625 1
1 8626 2
1 8627 22
1 8628 3
1 8629 22
1 8630 7
1 8631 13
1 8632 11
1 8634 2
1 8635 9
1 8637 20
1 8638 3
1 8639 12
1 8640 1050
1 8641 4
1 8642 85
1 8643 5
1 8644 3
1 8645 5
1 8646 97
1 8647 17
1 8648 2
1 8649 5
1 8650 3
1 8651 15
1 8652 4
1 8653 40
1 8654 3
1 8655 3
1 8656 8
1 8657 7
1 8659 19
1 8660 143
1 8661 15
1 8662 2
1 8663 2
1 8664 7
1 8665 3
1 8666 30
1 8667 10
1 8668 1
1 8669 1
1 8670 3
1 8671 55
1 8672 2
1 8673 3
1 8674 10
1 8675 27
1 8676 1
1 8677 3
1 8678 8
1 8679 14
1 8680 10
1 8681 2
1 8682 6
1 8683 13
1 8684 5
1 8685 3
1 8686 12
1 8687 28
1 8688 2
1 8689 1
1 8690 3
1 8691 1
1 8692 20
1 8693 5
1 8694 3
1 8695 24
1 8696 9
1 8697 15
1 8698 5
1 8699 1
1 8700 4
1 8701 10
1 8702 11
1 8703 383
1 8704 32
1 8705 3
1 8707 2
1 8709 20
1 8710 22
1 8711 1
1 8712 22
1 8714 4
1 8715 2
1 8716 1
1 8717 6
1 8718 1
1 8719 16
1 8720 2
1 8721 25
1 8722 5
1 8723 5
1 8724 1
1 8725 1
1 8726 4
1 8727 2
1 8728 10
1 8729 19
1 8730 49
1 8731 7
1 8732 62
1 8733 21
1 8734 19
1 8735 10
1 8736 5
1 8737 6
1 8738 4
1 8739 2
1 8740 2
1 8741 6
1 8742 2
1 8743 11
1 8744 8
1 8745 3
1 8746 3
1 8747 2
1 8748 4
1 8749 11
1 8750 1
1 8751 7
1 8752 2
1 8753 2
1 8754 1
1 8755 11
1 8756 2
1 8757 2
1 8758 21
1 8759 2
1 8760 13
1 8761 40
1 8762 13
1 8763 1
1 8764 3
1 8765 10
1 8766 50
1 8767 13
1 8768 7
1 8769 35
1 8770 53
1 8771 29
1 8773 13
1 8774 17
1 8775 33
1 8776 2
1 8777 15
1 8779 1
1 8780 71
1 8782 21
1 8783 1
1 8784 32
1 8785 4
1 8786 2
1 8787 9
1 8788 3
1 8789 3
1 8790 17
1 8791 1
1 8792 4
1 8793 11
1 8794 4
1 8795 4
1 8796 1
1 8797 27
1 8798 63
1 8799 3
1 8800 1
1 8801 6
1 8802 7
1 8803 17
1 8804 3
1 8805 1
1 8806 2
1 8807 1
1 8808 18
1 8809 4
1 8810 8
1 8811 1
1 8812 7
1 8813 3
1 8814 2
1 8815 8
1 8816 4
1 8817 3
1 8818 30
1 8819 1
1 8820 48
1 8822 459
1 8823 5
1 8824 2
1 8825 21
1 8826 5
1 8827 4
1 8828 1
1 8829 10
1 8830 2
1 8831 106
1 8832 1
1 8833 5
1 8834 54
1 8835 10
1 8836 24
1 8837 2
1 8838 4
1 8839 14
1 8840 1
1 8841 69
1 8842 2
1 8843 32
1 8845 25
1 8846 37
1 8847 30
1 8848 21
1 8849 19
1 8850 3
1 8851 6
1 8852 3
1 8853 21
1 8854 33
1 8855 5
1 8856 61
1 8857 56
1 8858 30
1 8859 7
1 8860 1
1 8861 2
1 8862 1
1 8863 5
1 8864 12
1 8865 11
1 8866 1
1 8867 1
1 8868 4
1 8869 2
1 8870 7
1 8871 12
1 8872 5
1 8873 7
1 8874 9
1 8875 4
1 8876 2
1 8877 25
1 8879 11
1 8880 8
1 8881 3
1 8882 13
1 8883 25
1 8884 3
1 8886 12
1 8887 10
1 8888 2
1 8889 3
1 8890 1
1 8891 22
1 8892 40
1 8893 1
1 8894 2
1 8895 5
1 8896 5
1 8897 25
1 8898 2
1 8899 7
1 8900 3
1 8901 6
1 8902 11
1 8903 2
1 8904 3
1 8906 1198
1 8908 6
1 8909 3
1 8910 8
1 8911 26
1 8912 7
1 8913 5
1 8914 3
1 8915 2
1 8916 21
1 8917 13
1 8918 2
1 8919 19
1 8920 2
1 8921 1
1 8922 1
1 8923 16
1 8924 8
1 8925 1
1 8926 2
1 8927 2
1 8928 26
1 8929 38
1 8931 39
1 8932 2
1 8933 12
1 8934 3
1 8935 13
1 8936 31
1 8937 13
1 8938 21
1 8939 1
1 8940 2
1 8941 1
1 8943 24
1 8944 15
1 8945 9
1 8946 5
1 8947 2
1 8948 3
1 8949 5
1 8950 13
1 8951 8
1 8952 112
1 8953 6
1 8954 2
1 8955 25
1 8956 5
1 8957 17
1 8958 4
1 8959 4
1 8960 28
1 8961 3
1 8962 3
1 8963 3
1 8964 1
1 8965 14
1 8967 4
1 8968 4
1 8969 4
1 8970 10
1 8971 14
1 8972 6
1 8973 2
1 8975 1
1 8976 23
1 8977 21
1 8979 2
1 8980 3
1 8981 1223
1 8983 2
1 8984 1
1 8985 21
1 8987 21
1 8988 33
1 8990 31
1 8991 46
1 8992 6
1 8993 4
1 8994 2
1 8995 2
1 8996 1
1 8997 3
1 8998 2
1 8999 1
1 9000 2
1 9001 1
1 9002 2
1 9003 48
1 9004 6
1 9006 3
1 9007 2
1 9008 1
1 9009 2
1 9010 3
1 9012 8
1 9013 1
1 9014 17
1 9015 85
1 9016 3
1 9017 11
1 9018 29
1 9019 4
1 9020 7
1 9021 34
1 9022 995
1 9023 29
1 9025 3
1 9026 1
1 9028 16
1 9029 4
1 9030 6
1 9031 2
1 9032 25
1 9034 2
1 9036 12
1 9037 1
1 9038 2
1 9039 2
1 9041 37
1 9042 6
1 9043 3
1 9044 712
1 9045 1
1 9047 32
1 9048 2
1 9049 3
1 9050 11
1 9051 2
1 9052 9
1 9053 1
1 9054 13
1 9055 19
1 9056 8
1 9057 3
1 9058 5
1 9059 18
1 9060 6
1 9061 17
1 9062 2
1 9063 2
1 9064 22
1 9065 22
1 9066 14
1 9067 12
1 9068 2
1 9069 1
1 9070 1
1 9071 19
1 9072 17
1 9073 11
1 9074 2
1 9075 2
1 9076 5
1 9077 23
1 9078 8
1 9079 2
1 9080 56
1 9081 1
1 9082 5
1 9083 1
1 9084 3
1 9085 3
1 9086 26
1 9088 2
1 9090 23
1 9091 1
1 9092 8
1 9093 3
1 9094 3
1 9095 3
1 9096 1
1 9097 17
1 9098 1237
1 9099 39
1 9100 2
1 9101 26
1 9102 1
1 9103 3
1 9104 66
1 9105 10
1 9106 18
1 9107 6
1 9108 3
1 9110 12
1 9111 10
1 9112 17
1 9114 2
1 9115 2
1 9116 40
1 9117 1085
1 9118 19
1 9119 2
1 9120 2
1 9121 11
1 9122 33
1 9123 2
1 9124 2
1 9125 2
1 9126 27
1 9127 13
1 9129 10
1 9130 6
1 9131 21
1 9132 28
1 9133 2
1 9134 4
1 9135 2
1 9136 783
1 9137 11
1 9138 15
1 9139 5
1 9140 4
1 9141 20
1 9142 14
1 9143 20
1 9145 45
1 9146 6
1 9147 3
1 9148 8
1 9149 5
1 9150 2
1 9151 5
1 9152 5
1 9153 1
1 9154 10
1 9155 1
1 9157 1
1 9158 1
1 9159 4
1 9160 3
1 9161 13
1 9162 7
1 9163 3
1 9164 1
1 9165 55
1 9166 5
1 9167 1008
1 9168 10
1 9169 2
1 9170 689
1 9171 13
1 9172 2
1 9173 1
1 9174 19
1 9175 3
1 9176 1
1 9177 2
1 9178 21
1 9179 9
1 9180 13
1 9181 4
1 9182 34
1 9183 3
1 9184 1
1 9185 105
1 9187 9
1 9188 3
1 9189 8
1 9191 4
1 9192 3
1 9193 6
1 9195 1
1 9196 23
1 9197 6
1 9198 42
1 9199 6
1 9201 22
1 9202 2
1 9203 14
1 9204 3
1 9205 91
1 9206 2
1 9207 1
1 9208 6
1 9209 3
1 9210 77
1 9211 22
1 9212 5
1 9213 1
1 9214 4
1 9215 5
1 9216 11
1 9217 24
1 9218 2
1 9219 3
1 9220 47
1 9221 29
1 9222 5
1 9223 4
1 9224 5
1 9225 1
1 9226 8
1 9227 1
1 9228 2
1 9229 4
1 9230 24
1 9231 6
1 9232 3
1 9233 2
1 9234 2
1 9235 2
1 9236 15
1 9237 22
1 9238 1336
1 9239 10
1 9240 2
1 9241 4
1 9242 16
1 9244 1
1 9245 22
1 9246 41
1 9247 24
1 9248 1
1 9249 9
1 9250 1
1 9251 22
1 9252 3
1 9253 2
1 9254 2
1 9255 4
1 9256 2
1 9257 11
1 9258 23
1 9259 24
1 9260 4
1 9261 20
1 9262 4
1 9263 2
1 9264 1
1 9265 57
1 9266 3
1 9267 9
1 9268 7
1 9269 24
1 9270 4
1 9271 3
1 9272 3
1 9273 19
1 9274 1
1 9275 31
1 9276 29
1 9277 1182
1 9278 6
1 9279 110
1 9280 7
1 9281 25
1 9282 4
1 9283 5
1 9284 18
1 9285 33
1 9286 12
1 9287 16
1 9288 5
1 9289 4
1 9290 1
1 9291 4
1 9292 88
1 9293 14
1 9294 3
1 9295 11
1 9296 1
1 9298 13
1 9299 3
1 9300 103
1 9301 15
1 9302 5
1 9303 13
1 9305 13
1 9306 227
1 9307 3
1 9308 3
1 9309 8
1 9310 32
1 9311 21
1 9312 5
1 9313 1
1 9314 18
1 9315 1
1 9316 10
1 9317 2
1 9318 6
1 9319 3
1 9320 2
1 9321 6
1 9322 3
1 9323 31
1 9324 3
1 9325 1
1 9326 6
1 9327 1
1 9328 28
1 9329 43
1 9330 47
1 9331 50
1 9332 45
1 9333 4
1 9334 14
1 9335 3
1 9336 72
1 9337 3
1 9338 3
1 9339 9
1 9340 3
1 9341 22
1 9342 5
1 9343 7
1 9344 37
1 9345 1
1 9346 5
1 9347 22
1 9348 14
1 9349 1
1 9350 70
1 9351 5
1 9352 3
1 9353 4
1 9354 4
1 9355 12
1 9356 3
1 9357 3
1 9358 2
1 9359 68
1 9360 5
1 9361 5
1 9362 3
1 9363 5
1 9364 8
1 9365 3
1 9366 7
1 9367 1
1 9368 1
1 9369 6
1 9370 2
1 9372 72
1 9373 17
1 9375 5
1 9376 3
1 9377 4
1 9378 5
1 9379 3
1 9380 20
1 9381 3
1 9382 22
1 9383 1
1 9384 41
1 9385 38
1 9386 2
1 9387 1
1 9388 18
1 9389 2
1 9390 1
1 9391 26
1 9392 10
1 9393 4
1 9394 933
1 9395 5
1 9396 21
1 9397 5
1 9398 10
1 9399 22
1 9400 24
1 9401 7
1 9402 3
1 9403 3
1 9404 5
1 9405 4
1 9406 2
1 9407 41
1 9408 20
1 9409 2
1 9410 6
1 9412 1
1 9413 1
1 9415 2
1 9416 20
1 9417 49
1 9418 2
1 9419 7
1 9420 68
1 9421 7
1 9422 11
1 9423 9
1 9424 5
1 9425 1
1 9426 3
1 9427 1
1 9428 4
1 9429 20
1 9430 1261
1 9431 8
1 9432 15
1 9433 21
1 9434 1
1 9435 42
1 9436 1
1 9437 1
1 9438 14
1 9439 2
1 9440 4
1 9441 1
1 9443 51
1 9444 31
1 9445 2
1 9446 16
1 9447 5
1 9448 21
1 9449 14
1 9450 14
1 9452 2
1 9453 34
1 9454 1
1 9455 16
1 9456 13
1 9459 3
1 9460 2
1 9461 5
1 9462 9
1 9463 12
1 9464 4
1 9465 2
1 9466 10
1 9467 6
1 9468 6
1 9469 41
1 9470 4
1 9471 3
1 9472 8
1 9473 2
1 9474 2
1 9475 3
1 9476 26
1 9477 3
1 9478 9
1 9479 12
1 9480 4
1 9481 62
1 9482 3
1 9483 3
1 9484 2
1 9485 2
1 9486 2
1 9487 9
1 9488 1
1 9489 77
1 9490 31
1 9491 47
1 9492 19
1 9493 4
1 9494 33
1 9495 1
1 9496 2
1 9497 1
1 9498 11
1 9499 3
1 9500 645
1 9501 1107
1 9502 3
1 9503 2
1 9504 2
1 9505 31
1 9506 48
1 9507 48
1 9508 16
1 9510 2
1 9511 2
1 9512 4
1 9513 3
1 9514 8
1 9515 17
1 9516 13
1 9517 15
1 9518 4
1 9519 23
1 9520 4
1 9521 1
1 9522 1
1 9523 2
1 9524 2
1 9525 24
1 9526 418
1 9527 87
1 9528 2
1 9529 13
1 9530 4
1 9531 5
1 9532 2
1 9533 2
1 9534 18
1 9535 5
1 9536 32
1 9537 5
1 9538 6
1 9539 25
1 9541 6
1 9542 24
1 9543 12
1 9544 8
1 9545 10
1 9546 11
1 9547 6
1 9548 3
1 9549 1
1 9550 4
1 9551 3
1 9552 6
1 9553 3
1 9554 43
1 9555 18
1 9556 36
1 9557 3
1 9558 1
1 9559 36
1 9560 37
1 9561 8
1 9562 59
1 9563 3
1 9564 16
1 9565 6
1 9566 4
1 9567 1
1 9568 33
1 9569 4
1 9570 1
1 9571 41
1 9572 10
1 9573 2
1 9574 3
1 9575 7
1 9576 9
1 9577 8
1 9578 3
1 9579 61
1 9580 5
1 9581 3
1 9582 5
1 9584 5
1 9585 5
1 9586 18
1 9587 2
1 9588 32
1 9589 5
1 9590 31
1 9591 16
1 9592 4
1 9593 1
1 9594 6
1 9595 6
1 9596 8
1 9597 23
1 9598 3
1 9599 2
1 9600 4
1 9601 8
1 9603 22
1 9605 2
1 9606 27
1 9607 6
1 9608 13
1 9609 112
1 9610 4
1 9611 29
1 9612 13
1 9613 23
1 9615 46
1 9616 2
1 9617 81
1 9618 24
1 9619 21
1 9620 7
1 9621 2
1 9622 584
1 9623 2
1 9624 13
1 9625 8
1 9626 23
1 9627 11
1 9628 4
1 9629 17
1 9631 3
1 9632 1
1 9633 34
1 9634 2
1 9635 4
1 9636 5
1 9637 23
1 9638 2
1 9640 4
1 9641 20
1 9642 7
1 9643 36
1 9644 18
1 9645 6
1 9646 25
1 9647 1
1 9648 23
1 9649 4
1 9650 3
1 9651 35
1 9652 58
1 9653 12
1 9654 11
1 9655 2
1 9656 21
1 9657 11
1 9658 9
1 9659 163
1 9660 2
1 9661 23
1 9662 1030
1 9663 8
1 9664 2
1 9665 4
1 9666 814
1 9667 8
1 9668 66
1 9670 2
1 9671 7
1 9672 2
1 9673 3
1 9674 23
1 9675 1
1 9676 4
1 9677 13
1 9678 9
1 9680 6
1 9682 3
1 9683 3
1 9684 18
1 9685 10
1 9686 4
1 9687 3
1 9688 2
1 9689 4
1 9690 36
1 9691 6
1 9692 3
1 9693 24
1 9694 61
1 9695 6
1 9696 4
1 9697 18
1 9698 3
1 9700 43
1 9701 1
1 9702 1
1 9703 11
1 9704 3
1 9705 2
1 9706 25
1 9707 6
1 9708 2
1 9709 5
1 9710 4
1 9711 5
1 9712 28
1 9713 12
1 9714 2
1 9715 14
1 9716 4
1 9717 35
1 9718 3
1 9719 3
1 9720 15
1 9721 17
1 9722 5
1 9723 22
1 9724 1
1 9725 18
1 9726 4
1 9727 36
1 9728 5
1 9729 1
1 9730 36
1 9731 25
1 9732 8
1 9733 3
1 9734 5
1 9735 1
1 9736 4
1 9737 1
1 9738 28
1 9740 39
1 9741 6
1 9742 13
1 9743 3
1 9744 19
1 9745 14
1 9746 5
1 9747 2
1 9748 6
1 9749 28
1 9750 39
1 9751 1
1 9752 11
1 9753 1
1 9754 25
1 9755 2
1 9756 50
1 9757 6
1 9758 5
1 9759 1
1 9760 17
1 9761 2
1 9762 3
1 9763 19
1 9764 3
1 9765 2
1 9766 2
1 9767 16
1 9768 3
1 9769 35
1 9770 2
1 9771 11
1 9772 2
1 9773 30
1 9774 5
1 9775 3
1 9776 69
1 9777 6
1 9778 6
1 9779 21
1 9780 5
1 9781 19
1 9782 4
1 9783 14
1 9784 10
1 9785 3
1 9786 11
1 9788 1
1 9789 20
1 9790 3
1 9791 3
1 9792 6
1 9793 70
1 9794 6
1 9795 3
1 9796 3
1 9797 4
1 9798 1
1 9799 4
1 9800 41
1 9801 4
1 9802 25
1 9803 18
1 9804 3
1 9805 3
1 9806 102
1 9807 13
1 9808 2
1 9809 3
1 9810 1
1 9811 37
1 9812 2
1 9813 3
1 9814 38
1 9815 1
1 9816 20
1 9817 5
1 9818 1
1 9819 24
1 9820 70
1 9821 16
1 9822 3
1 9823 3
1 9824 2
1 9825 5
1 9826 5
1 9827 26
1 9828 2
1 9829 2
1 9830 30
1 9831 24
1 9832 3
1 9833 17
1 9834 3
1 9835 8
1 9836 76
1 9837 23
1 9838 29
1 9839 15
1 9840 11
1 9841 2
1 9842 1021
1 9843 3
1 9844 16
1 9845 2
1 9846 4
1 9847 2
1 9848 3
1 9849 2
1 9850 8
1 9851 3
1 9852 5
1 9853 2
1 9854 50
1 9855 42
1 9856 36
1 9857 21
1 9858 8
1 9861 12
1 9862 1
1 9863 27
1 9864 43
1 9865 54
1 9866 17
1 9867 7
1 9868 2
1 9869 17
1 9870 16
1 9871 58
1 9872 27
1 9873 2
1 9874 2
1 9875 2
1 9876 10
1 9877 6
1 9878 18
1 9879 35
1 9880 24
1 9881 33
1 9882 4
1 9883 2
1 9884 19
1 9885 1
1 9886 5
1 9887 3
1 9888 3
1 9889 49
1 9890 42
1 9892 3
1 9893 22
1 9894 14
1 9895 15
1 9896 2
1 9897 2
1 9898 3
1 9899 1
1 9900 11
1 9901 4
1 9902 6
1 9903 1
1 9904 23
1 9905 10
1 9906 4
1 9907 45
1 9908 38
1 9909 7
1 9910 2
1 9911 2
1 9912 12
1 9913 1
1 9914 2
1 9915 1
1 9916 4
1 9917 3
1 9918 1
1 9919 2
1 9920 18
1 9921 2
1 9925 16
1 9927 23
1 9928 2
1 9929 1
1 9931 2
1 9932 6
1 9933 4
1 9934 15
1 9935 70
1 9936 26
1 9937 52
1 9938 21
1 9939 1
1 9940 1
1 9941 23
1 9942 29
1 9943 2
1 9944 1
1 9945 3
1 9946 4
1 9947 21
1 9948 9
1 9949 2
1 9950 106
1 9951 5
1 9952 5
1 9953 10
1 9954 33
1 9955 47
1 9956 2
1 9957 64
1 9958 1199
1 9959 7
1 9960 3
1 9961 7
1 9962 5
1 9963 6
1 9964 4
1 9965 21
1 9966 4
1 9967 28
1 9968 45
1 9969 6
1 9970 2
1 9971 26
1 9972 17
1 9973 3
1 9974 36
1 9975 2
1 9976 1
1 9977 15
1 9978 12
1 9979 7
1 9980 1
1 9981 3
1 9982 8
1 9983 5
1 9984 4
1 9985 10
1 9986 33
1 9987 5
1 9988 27
1 9989 1
1 9990 17
1 9991 3
1 9992 3
1 9994 5
1 9995 3
1 9996 4
1 9997 6
1 9998 3
1 9999 3
1 10000 8
1 10001 3
1 10002 2
1 10003 21
1 10004 1
1 10005 23
1 10006 1
1 10007 20
1 10008 8
1 10009 22
1 10010 2
1 10011 1378
1 10012 2
1 10013 39
1 10014 16
1 10015 4
1 10016 2
1 10017 2
1 10018 3
1 10019 3
1 10020 20
1 10021 1
1 10022 2
1 10023 1
1 10024 12
1 10025 16
1 10026 51
1 10028 2
1 10029 16
1 10031 24
1 10032 2
1 10033 1
1 10034 3
1 10035 2
1 10036 2
1 10037 44
1 10038 27
1 10039 42
1 10040 9
1 10041 1
1 10042 5
1 10043 30
1 10044 1
1 10045 12
1 10046 2
1 10047 28
1 10048 3
1 10049 5
1 10050 27
1 10051 14
1 10052 15
1 10053 10
1 10054 11
1 10055 3
1 10056 2
1 10057 46
1 10058 7
1 10059 7
1 10060 2
1 10061 17
1 10062 14
1 10063 3
1 10064 4
1 10065 23
1 10066 2
1 10067 24
1 10068 2
1 10069 3
1 10070 3
1 10071 2
1 10072 19
1 10073 2
1 10074 50
1 10075 65
1 10076 1158
1 10077 30
1 10078 15
1 10079 155
1 10080 8
1 10081 22
1 10082 7
1 10083 1
1 10084 15
1 10085 1
1 10086 4
1 10087 2
1 10088 3
1 10089 1
1 10090 11
1 10091 5
1 10092 3
1 10093 18
1 10094 2
1 10095 32
1 10096 2
1 10097 2
1 10098 2
1 10099 3
1 10100 6
1 10101 4
1 10102 3
1 10103 5
1 10104 4
1 10105 1
1 10106 2
1 10107 4
1 10108 41
1 10109 3
1 10110 45
1 10111 33
1 10112 5
1 10113 7
1 10114 29
1 10115 2
1 10116 22
1 10117 1
1 10118 2
1 10119 2
1 10120 1309
1 10121 66
1 10122 43
1 10123 1
1 10124 2
1 10126 4
1 10127 2
1 10128 11
1 10129 4
1 10130 13
1 10131 2
1 10132 42
1 10133 2
1 10134 46
1 10135 48
1 10136 20
1 10137 2
1 10138 11
1 10139 10
1 10140 1
1 10141 32
1 10142 3
1 10143 27
1 10144 3
1 10145 4
1 10146 3
1 10147 4
1 10148 3
1 10149 5
1 10150 4
1 10151 5
1 10152 4
1 10153 6
1 10154 3
1 10155 2
1 10156 25
1 10157 1022
1 10158 9
1 10159 5
1 10160 20
1 10161 3
1 10162 3
1 10163 10
1 10164 219
1 10165 27
1 10166 22
1 10167 5
1 10168 5
1 10169 18
1 10170 46
1 10171 4
1 10172 4
1 10173 1
1 10174 4
1 10175 12
1 10176 13
1 10177 5
1 10178 14
1 10179 2
1 10180 15
1 10181 7
1 10182 19
1 10183 3
1 10184 11
1 10185 9
1 10186 5
1 10187 2
1 10188 3
1 10189 4
1 10190 4
1 10191 1
1 10192 2
1 10193 4
1 10194 10
1 10195 17
1 10196 165
1 10197 16
1 10198 12
1 10199 22
1 10200 8
1 10201 20
1 10202 2
1 10203 3
1 10204 13
1 10205 5
1 10206 23
1 10207 25
1 10208 17
1 10209 16
1 10211 24
1 10212 25
1 10213 7
1 10214 5
1 10215 22
1 10216 26
1 10218 12
1 10219 3
1 10220 23
1 10221 1
1 10222 7
1 10223 3
1 10224 2
1 10225 26
1 10226 2
1 10227 1
1 10228 2
1 10229 3
1 10230 40
1 10231 66
1 10232 10
1 10233 8
1 10234 3
1 10235 1
1 10236 1
1 10237 2
1 10238 2
1 10239 2
1 10240 25
1 10241 4
1 10242 19
1 10243 9
1 10244 25
1 10245 45
1 10246 7
1 10247 1
1 10248 1
1 10249 1
1 10250 1314
1 10251 3
1 10252 2
1 10253 5
1 10255 47
1 10256 6
1 10257 4
1 10259 10
1 10261 11
1 10262 46
1 10263 25
1 10264 8
1 10265 6
1 10266 3
1 10267 4
1 10268 5
1 10269 12
1 10270 1
1 10271 2
1 10272 12
1 10273 3
1 10274 6
1 10275 2
1 10276 2
1 10277 4
1 10278 8
1 10279 1
1 10280 12
1 10281 5
1 10282 5
1 10283 98
1 10284 6
1 10285 16
1 10286 4
1 10287 35
1 10288 1
1 10289 9
1 10290 24
1 10291 1
1 10292 5
1 10293 3
1 10294 1047
1 10295 236
1 10296 4
1 10298 3
1 10299 3
1 10300 3
1 10301 2
1 10302 11
1 10303 2
1 10304 14
1 10305 9
1 10306 4
1 10307 4
1 10308 3
1 10309 3
1 10310 3
1 10311 10
1 10312 1
1 10313 2
1 10314 2
1 10315 11
1 10316 8
1 10317 2
1 10318 167
1 10319 99
1 10320 47
1 10321 3
1 10322 3
1 10323 5
1 10324 43
1 10325 1
1 10326 19
1 10327 3
1 10328 5
1 10329 8
1 10331 1
1 10332 32
1 10333 6
1 10334 3
1 10335 13
1 10336 6
1 10337 1
1 10338 3
1 10339 2
1 10340 3
1 10341 7
1 10342 3
1 10343 26
1 10344 33
1 10345 12
1 10346 3
1 10347 14
1 10348 15
1 10349 2
1 10350 36
1 10351 2
1 10352 21
1 10353 5
1 10354 37
1 10355 1039
1 10356 521
1 10357 35
1 10358 4
1 10359 60
1 10360 25
1 10361 4
1 10362 20
1 10363 23
1 10364 6
1 10365 96
1 10366 12
1 10367 5
1 10368 9
1 10369 6
1 10370 5
1 10371 3
1 10372 5
1 10373 4
1 10374 46
1 10375 1
1 10376 1
1 10377 9
1 10378 3
1 10379 2
1 10380 39
1 10381 8
1 10382 4
1 10383 13
1 10384 3
1 10385 5
1 10386 19
1 10387 11
1 10388 6
1 10389 3
1 10390 573
1 10391 1
1 10392 2
1 10393 21
1 10394 461
1 10395 22
1 10396 6
1 10397 4
1 10398 40
1 10399 2
1 10400 39
1 10401 3
1 10402 2
1 10403 5
1 10404 17
1 10405 1
1 10407 4
1 10408 1
1 10409 4
1 10410 9
1 10411 44
1 10412 5
1 10413 9
1 10414 26
1 10415 4
1 10416 3
1 10417 5
1 10418 4
1 10420 3
1 10421 1
1 10422 4
1 10423 3
1 10424 45
1 10425 11
1 10426 1
1 10427 23
1 10428 42
1 10429 1
1 10430 55
1 10431 14
1 10432 4
1 10433 5
1 10434 4
1 10435 34
1 10436 17
1 10437 49
1 10438 1
1 10439 23
1 10440 1
1 10441 48
1 10442 52
1 10443 12
1 10444 2
1 10445 4
1 10446 4
1 10447 5
1 10448 24
1 10449 19
1 10450 6
1 10451 4
1 10452 3
1 10453 3
1 10454 7
1 10455 6
1 10456 21
1 10457 5
1 10458 43
1 10459 24
1 10460 3
1 10461 3
1 10462 10
1 10463 38
1 10464 8
1 10465 2
1 10466 16
1 10467 1
1 10468 14
1 10469 46
1 10470 1185
1 10471 2
1 10472 4
1 10473 45
1 10474 17
1 10475 2
1 10476 37
1 10477 2
1 10478 1
1 10479 3
1 10480 4
1 10481 17
1 10482 3
1 10483 18
1 10484 27
1 10485 3
1 10486 32
1 10487 42
1 10488 4
1 10489 23
1 10490 35
1 10491 28
1 10492 28
1 10493 3
1 10494 2
1 10495 10
1 10496 19
1 10497 15
1 10498 40
1 10499 4
1 10500 14
1 10501 5
1 10502 22
1 10503 5
1 10504 17
1 10505 7
1 10506 1
1 10507 1
1 10508 1
1 10509 3
1 10510 1
1 10511 3
1 10512 1
1 10513 8
1 10514 1357
1 10515 6
1 10516 4
1 10517 8
1 10518 6
1 10519 33
1 10520 5
1 10521 37
1 10522 912
1 10523 2
1 10524 6
1 10525 5
1 10526 2
1 10527 2
1 10528 7
1 10529 29
1 10530 2
1 10531 15
1 10532 2
1 10533 2
1 10534 74
1 10535 7
1 10536 22
1 10537 2
1 10538 16
1 10539 4
1 10540 2
1 10541 3
1 10542 3
1 10543 25
1 10544 2
1 10545 1
1 10546 3
1 10547 3
1 10548 3
1 10549 23
1 10550 20
1 10551 2
1 10552 20
1 10553 6
1 10554 25
1 10555 1
1 10556 26
1 10557 3
1 10558 1
1 10559 30
1 10560 5
1 10561 2
1 10562 55
1 10564 27
1 10565 8
1 10566 3
1 10567 4
1 10568 2
1 10569 6
1 10570 2
1 10571 6
1 10572 5
1 10573 3
1 10574 3
1 10575 3
1 10576 2
1 10577 2
1 10578 17
1 10579 3
1 10580 4
1 10581 1
1 10582 19
1 10583 28
1 10584 17
1 10585 6
1 10586 4
1 10587 3
1 10588 13
1 10589 30
1 10590 2
1 10591 3
1 10592 4
1 10593 411
1 10594 5
1 10595 2
1 10596 15
1 10597 32
1 10598 3
1 10599 16
1 10600 4
1 10601 10
1 10602 2
1 10603 8
1 10604 3
1 10605 4
1 10606 4
1 10607 17
1 10608 6
1 10609 3
1 10610 41
1 10612 2
1 10613 2
1 10614 4
1 10615 10
1 10616 50
1 10617 2
1 10618 2
1 10619 3
1 10621 7
1 10622 4
1 10623 5
1 10624 11
1 10625 8
1 10627 3
1 10628 49
1 10629 31
1 10630 36
1 10631 30
1 10632 3
1 10633 40
1 10634 5
1 10635 4
1 10636 44
1 10637 1
1 10638 21
1 10639 2
1 10640 24
1 10641 58
1 10642 1
1 10643 13
1 10644 2
1 10645 4
1 10646 495
1 10647 4
1 10648 1179
1 10649 24
1 10650 3
1 10651 5
1 10652 5
1 10653 1
1 10654 11
1 10655 5
1 10656 1
1 10657 19
1 10658 1
1 10659 11
1 10660 1
1 10661 363
1 10662 4
1 10663 3
1 10664 4
1 10665 12
1 10666 178
1 10667 13
1 10668 3
1 10669 2
1 10671 24
1 10672 20
1 10673 2
1 10674 5
1 10675 2
1 10676 25
1 10677 5
1 10678 17
1 10679 4
1 10680 15
1 10681 3
1 10682 4
1 10683 23
1 10684 7
1 10685 26
1 10686 4
1 10688 35
1 10689 1323
1 10690 41
1 10691 9
1 10692 4
1 10693 4
1 10694 3
1 10695 3
1 10696 28
1 10697 24
1 10698 15
1 10699 4
1 10700 5
1 10701 3
1 10702 4
1 10703 2
1 10704 1
1 10705 3
1 10706 9
1 10707 23
1 10708 25
1 10709 10
1 10710 3
1 10711 18
1 10712 9
1 10713 1
1 10714 1249
1 10715 9
1 10716 6
1 10717 1
1 10718 9
1 10719 2
1 10720 6
1 10721 11
1 10722 1
1 10723 12
1 10724 2
1 10725 4
1 10726 12
1 10727 26
1 10728 3
1 10729 30
1 10730 6
1 10731 4
1 10732 5
1 10733 10
1 10734 32
1 10735 2
1 10736 6
1 10737 22
1 10738 8
1 10739 2
1 10740 1
1 10741 3
1 10742 52
1 10743 3
1 10744 65
1 10745 4
1 10746 51
1 10747 9
1 10748 41
1 10749 1486
1 10750 3
1 10752 5
1 10753 42
1 10754 3
1 10755 1
1 10756 5
1 10757 9
1 10758 13
1 10759 12
1 10760 2
1 10761 3
1 10762 3
1 10763 29
1 10764 19
1 10765 60
1 10766 63
1 10767 10
1 10768 31
1 10769 13
1 10770 19
1 10771 20
1 10772 10
1 10773 7
1 10774 2
1 10775 3
1 10776 18
1 10777 3
1 10778 5
1 10779 7
1 10780 3
1 10781 32
1 10782 4
1 10783 3
1 10784 4
1 10785 41
1 10786 4
1 10787 5
1 10788 5
1 10789 1
1 10790 4
1 10791 2
1 10792 6
1 10793 48
1 10795 58
1 10796 19
1 10797 7
1 10798 4
1 10799 2
1 10800 4
1 10801 6
1 10802 6
1 10803 3
1 10804 30
1 10805 3
1 10806 3
1 10807 55
1 10808 2
1 10810 6
1 10811 5
1 10812 6
1 10813 4
1 10814 2
1 10815 3
1 10816 1
1 10817 7
1 10818 1
1 10819 2
1 10820 1
1 10821 38
1 10822 4
1 10823 4
1 10824 6
1 10825 3
1 10826 3
1 10827 31
1 10828 3
1 10829 5
1 10830 4
1 10831 16
1 10832 2
1 10833 2
1 10834 3
1 10835 2
1 10836 42
1 10837 3
1 10838 84
1 10839 6
1 10840 38
1 10841 8
1 10842 11
1 10843 12
1 10844 3
1 10845 18
1 10846 2
1 10847 2
1 10848 17
1 10849 2
1 10850 8
1 10851 30
1 10852 21
1 10853 61
1 10854 7
1 10855 3
1 10856 2
1 10857 2
1 10858 4
1 10859 19
1 10860 4
1 10861 28
1 10862 11
1 10863 1
1 10864 3
1 10865 17
1 10866 4
1 10867 4
1 10868 23
1 10869 21
1 10870 6
1 10871 11
1 10872 4
1 10873 86
1 10874 2
1 10875 2
1 10876 1
1 10877 3
1 10878 5
1 10879 2
1 10880 42
1 10881 4
1 10882 7
1 10883 1
1 10884 4
1 10885 3
1 10886 20
1 10887 3
1 10888 30
1 10889 3
1 10890 1
1 10891 10
1 10892 3
1 10893 21
1 10894 1
1 10895 2
1 10896 8
1 10897 3
1 10898 16
1 10899 1
1 10900 1
1 10902 2
1 10903 1
1 10904 2
1 10905 10
1 10906 8
1 10907 2
1 10908 3
1 10909 1
1 10910 2
1 10911 6
1 10912 23
1 10913 22
1 10914 1
1 10915 4
1 10916 15
1 10917 1088
1 10918 31
1 10919 1
1 10920 35
1 10921 49
1 10922 3
1 10923 1
1 10924 23
1 10925 45
1 10926 2
1 10927 10
1 10928 1
1 10931 20
1 10932 3
1 10933 1
1 10934 19
1 10935 3
1 10936 6
1 10937 3
1 10938 7
1 10939 1
1 10940 21
1 10941 6
1 10942 57
1 10943 36
1 10944 23
1 10945 5
1 10946 3
1 10947 2
1 10948 4
1 10949 4
1 10950 6
1 10951 3
1 10952 3
1 10953 13
1 10954 41
1 10955 5
1 10956 2
1 10957 13
1 10958 4
1 10959 2
1 10960 1
1 10961 2
1 10962 3
1 10963 2
1 10964 3
1 10965 4
1 10966 1
1 10967 4
1 10968 7
1 10969 41
1 10970 62
1 10971 4
1 10972 32
1 10973 2
1 10974 5
1 10975 14
1 10976 6
1 10977 4
1 10978 2
1 10979 9
1 10980 3
1 10981 31
1 10982 610
1 10983 14
1 10984 75
1 10985 2
1 10986 9
1 10987 1
1 10988 3
1 10989 10
1 10990 38
1 10991 1
1 10992 21
1 10993 12
1 10994 2
1 10995 2
1 10996 272
1 10997 1
1 10998 3
1 10999 4
1 11000 17
1 11001 1
1 11002 2
1 11003 19
1 11004 17
1 11005 6
1 11006 2
1 11007 1
1 11008 23
1 11009 36
1 11010 10
1 11011 5
1 11012 3
1 11013 2
1 11014 5
1 11015 27
1 11016 3
1 11017 26
1 11018 2
1 11019 59
1 11020 33
1 11023 11
1 11024 3
1 11025 2
1 11026 10
1 11028 2
1 11029 2
1 11030 3
1 11031 11
1 11032 6
1 11033 6
1 11034 8
1 11035 4
1 11036 40
1 11037 2
1 11038 8
1 11039 4
1 11040 6
1 11042 4
1 11043 1
1 11044 773
1 11045 2
1 11046 23
1 11047 3
1 11048 2
1 11049 3
1 11050 158
1 11051 42
1 11052 2
1 11053 2
1 11054 20
1 11055 2
1 11056 5
1 11057 46
1 11058 2
1 11059 12
1 11060 16
1 11061 3
1 11062 16
1 11064 5
1 11065 3
1 11066 36
1 11067 4
1 11068 2
1 11069 20
1 11070 5
1 11071 1
1 11072 5
1 11073 17
1 11074 6
1 11075 61
1 11076 5
1 11077 2
1 11078 11
1 11079 7
1 11080 43
1 11081 32
1 11082 2
1 11083 15
1 11084 2
1 11085 12
1 11086 24
1 11087 7
1 11088 4
1 11089 15
1 11090 75
1 11091 10
1 11093 2
1 11094 3
1 11095 4
1 11096 19
1 11097 2
1 11098 2
1 11099 21
1 11100 3
1 11101 3
1 11102 1
1 11103 14
1 11104 24
1 11105 3
1 11106 8
1 11107 4
1 11108 8
1 11109 2
1 11110 19
1 11111 6
1 11112 4
1 11113 20
1 11114 3
1 11115 10
1 11116 6
1 11118 55
1 11119 31
1 11121 32
1 11122 1
1 11123 4
1 11124 2
1 11125 114
1 11126 5
1 11127 21
1 11128 4
1 11129 16
1 11130 9
1 11131 8
1 11132 20
1 11133 559
1 11134 2
1 11135 1
1 11136 5
1 11137 2
1 11138 6
1 11140 1
1 11141 15
1 11142 25
1 11143 2
1 11144 79
1 11145 4
1 11146 5
1 11147 22
1 11148 7
1 11149 2
1 11150 2
1 11151 2
1 11152 2
1 11153 5
1 11154 425
1 11155 5
1 11156 42
1 11157 5
1 11158 65
1 11159 3
1 11160 4
1 11161 8
1 11162 13
1 11163 4
1 11164 22
1 11166 27
1 11167 27
1 11168 3
1 11169 20
1 11170 3
1 11171 3
1 11172 2
1 11173 18
1 11174 23
1 11175 37
1 11176 2
1 11177 7
1 11178 26
1 11179 53
1 11180 1
1 11181 11
1 11182 2
1 11183 9
1 11184 26
1 11185 1
1 11186 12
1 11187 6
1 11188 2
1 11189 38
1 11190 5
1 11191 30
1 11192 8
1 11193 23
1 11194 21
1 11195 4
1 11196 2
1 11197 1
1 11198 2
1 11199 54
1 11200 6
1 11201 2
1 11202 14
1 11203 1
1 11204 7
1 11205 15
1 11206 3
1 11207 18
1 11208 25
1 11209 27
1 11210 4
1 11211 22
1 11212 3
1 11213 14
1 11214 26
1 11215 39
1 11216 16
1 11217 2
1 11218 13
1 11219 1
1 11220 4
1 11221 131
1 11222 1
1 11223 12
1 11224 2
1 11225 4
1 11226 2
1 11227 5
1 11228 36
1 11229 7
1 11230 4
1 11231 18
1 11232 1266
1 11233 6
1 11234 28
1 11235 2
1 11236 35
1 11237 53
1 11238 39
1 11239 13
1 11240 5
1 11241 28
1 11242 4
1 11243 4
1 11244 47
1 11245 8
1 11246 5
1 11247 41
1 11248 1311
1 11249 23
1 11250 42
1 11252 54
1 11253 15
1 11254 2
1 11255 2
1 11256 23
1 11257 2
1 11258 1
1 11259 17
1 11260 9
1 11261 27
1 11262 1
1 11263 6
1 11264 24
1 11265 1
1 11266 4
1 11267 69
1 11268 1
1 11269 8
1 11270 66
1 11271 15
1 11272 25
1 11273 4
1 11274 4
1 11275 1
1 11276 6
1 11278 113
1 11279 3
1 11280 2
1 11281 6
1 11282 24
1 11283 1
1 11284 2
1 11285 21
1 11286 17
1 11287 7
1 11288 5
1 11289 10
1 11290 1
1 11291 1
1 11292 15
1 11293 3
1 11294 12
1 11295 16
1 11296 4
1 11297 11
1 11299 4
1 11300 4
1 11301 54
1 11302 8
1 11303 29
1 11304 17
1 11305 3
1 11306 2
1 11307 1
1 11308 3
1 11309 3
1 11310 4
1 11311 2
1 11312 996
1 11313 528
1 11314 4
1 11315 5
1 11316 8
1 11317 4
1 11318 12
1 11319 24
1 11320 6
1 11321 16
1 11322 44
1 11323 1
1 11324 1
1 11325 40
1 11326 35
1 11327 12
1 11328 8
1 11329 1
1 11330 25
1 11332 16
1 11333 98
1 11334 2
1 11335 3
1 11336 48
1 11338 7
1 11339 29
1 11341 2
1 11342 6
1 11343 4
1 11344 5
1 11345 27
1 11346 21
1 11347 25
1 11348 64
1 11349 3
1 11350 5
1 11351 1
1 11352 11
1 11353 4
1 11354 22
1 11355 4
1 11356 2
1 11357 29
1 11358 16
1 11359 13
1 11360 4
1 11361 1
1 11362 13
1 11363 9
1 11364 30
1 11365 14
1 11366 3
1 11367 258
1 11368 35
1 11369 51
1 11370 2
1 11371 2
1 11372 17
1 11374 13
1 11375 48
1 11376 12
1 11377 4
1 11378 37
1 11379 6
1 11380 18
1 11381 6
1 11382 24
1 11383 5
1 11384 2
1 11385 6
1 11386 1
1 11387 23
1 11388 10
1 11389 11
1 11390 3
1 11391 2
1 11392 7
1 11393 28
1 11394 31
1 11395 10
1 11396 10
1 11397 17
1 11398 9
1 11399 1
1 11400 5
1 11401 2
1 11402 2
1 11403 2
1 11404 3
1 11405 1
1 11406 3
1 11407 38
1 11408 3
1 11409 16
1 11410 10
1 11412 566
1 11413 3
1 11414 2
1 11415 12
1 11416 5
1 11417 28
1 11418 3
1 11419 57
1 11420 13
1 11421 4
1 11422 15
1 11423 2
1 11424 27
1 11425 20
1 11426 3
1 11427 10
1 11428 2
1 11429 4
1 11430 7
1 11431 17
1 11432 4
1 11433 3
1 11434 24
1 11435 22
1 11436 15
1 11437 3
1 11438 3
1 11439 2
1 11440 6
1 11441 44
1 11442 22
1 11443 5
1 11445 1
1 11446 29
1 11447 26
1 11448 4
1 11449 2
1 11450 1
1 11451 9
1 11452 2
1 11453 4
1 11454 13
1 11455 2
1 11456 26
1 11457 1329
1 11458 2
1 11459 49
1 11460 5
1 11461 2
1 11462 22
1 11463 3
1 11464 73
1 11465 11
1 11466 9
1 11467 6
1 11468 3
1 11469 4
1 11470 21
1 11471 4
1 11472 19
1 11473 31
1 11474 13
1 11475 1
1 11476 1
1 11477 48
1 11478 5
1 11479 3
1 11480 8
1 11481 1
1 11482 45
1 11484 7
1 11485 44
1 11486 16
1 11487 50
1 11488 6
1 11489 5
1 11490 68
1 11491 7
1 11492 4
1 11493 40
1 11494 20
1 11495 21
1 11496 1
1 11497 3
1 11498 2
1 11499 22
1 11500 58
1 11501 39
1 11503 4
1 11504 3
1 11505 4
1 11506 2
1 11507 3
1 11508 36
1 11509 33
1 11510 6
1 11511 4
1 11512 24
1 11513 3
1 11514 5
1 11515 10
1 11516 3
1 11517 3
1 11518 25
1 11519 8
1 11520 2
1 11521 168
1 11522 3
1 11523 34
1 11524 4
1 11525 3
1 11526 2
1 11527 1331
1 11528 1
1 11529 1
1 11530 10
1 11531 3
1 11532 48
1 11534 47
1 11535 3
1 11536 2
1 11537 6
1 11538 33
1 11539 4
1 11540 41
1 11541 3
1 11542 33
1 11543 14
1 11544 37
1 11545 1
1 11547 4
1 11548 21
1 11549 21
1 11550 4
1 11551 6
1 11552 91
1 11553 2
1 11554 6
1 11555 2
1 11556 4
1 11557 5
1 11558 5
1 11559 14
1 11560 21
1 11561 3
1 11562 3
1 11563 31
1 11564 3
1 11565 461
1 11566 5
1 11567 1
1 11568 3
1 11569 7
1 11570 2
1 11571 64
1 11574 1
1 11575 3
1 11576 26
1 11577 2
1 11578 11
1 11579 2
1 11580 2
1 11581 30
1 11582 15
1 11583 41
1 11584 3
1 11585 2
1 11586 4
1 11587 6
1 11588 3
1 11590 1370
1 11591 9
1 11592 5
1 11593 4
1 11594 33
1 11595 11
1 11596 1
1 11597 73
1 11599 26
1 11600 5
1 11601 13
1 11602 5
1 11603 13
1 11604 5
1 11605 15
1 11606 5
1 11607 2
1 11608 36
1 11609 1
1 11610 4
1 11611 16
1 11612 2
1 11613 4
1 11614 12
1 11615 2
1 11616 1
1 11617 21
1 11618 51
1 11619 15
1 11620 3
1 11621 1395
1 11622 23
1 11623 34
1 11624 13
1 11625 3
1 11626 3
1 11627 4
1 11628 4
1 11629 927
1 11630 17
1 11631 6
1 11632 6
1 11633 51
1 11634 11
1 11635 2
1 11636 4
1 11637 6
1 11638 3
1 11639 3
1 11640 13
1 11641 13
1 11642 11
1 11643 3
1 11644 18
1 11645 2
1 11646 1
1 11647 102
1 11648 3
1 11649 14
1 11650 1
1 11651 5
1 11652 5
1 11653 6
1 11654 5
1 11655 3
1 11656 4
1 11657 5
1 11658 59
1 11659 3
1 11660 13
1 11662 28
1 11663 15
1 11664 1
1 11665 5
1 11666 7
1 11667 3
1 11668 4
1 11669 2
1 11670 19
1 11671 3
1 11672 1
1 11673 28
1 11674 3
1 11675 10
1 11676 3
1 11677 370
1 11678 1
1 11679 25
1 11680 1
1 11681 1
1 11682 3
1 11683 16
1 11684 1300
1 11685 19
1 11686 17
1 11687 4
1 11688 10
1 11689 24
1 11690 2
1 11691 10
1 11692 3
1 11693 29
1 11694 8
1 11695 3
1 11696 6
1 11697 1
1 11698 53
1 11699 20
1 11700 2
1 11701 52
1 11702 4
1 11703 1
1 11704 4
1 11706 16
1 11707 4
1 11708 29
1 11709 8
1 11710 35
1 11711 32
1 11712 4
1 11713 3
1 11714 38
1 11715 6
1 11716 9
1 11718 7
1 11719 36
1 11721 2
1 11722 31
1 11723 38
1 11724 2
1 11725 18
1 11726 4
1 11727 5
1 11728 8
1 11729 45
1 11731 12
1 11732 3
1 11733 22
1 11734 2
1 11735 62
1 11736 3
1 11737 24
1 11738 11
1 11739 11
1 11740 10
1 11741 2
1 11742 100
1 11743 6
1 11744 1
1 11745 20
1 11746 2
1 11747 16
1 11748 38
1 11749 4
1 11750 1
1 11751 3
1 11752 44
1 11753 16
1 11754 3
1 11755 14
1 11756 15
1 11758 2
1 11759 21
1 11760 23
1 11761 1
1 11762 21
1 11763 3
1 11765 3
1 11766 1221
1 11767 7
1 11768 5
1 11769 6
1 11770 26
1 11771 14
1 11772 3
1 11773 4
1 11774 3
1 11775 4
1 11776 2
1 11777 46
1 11778 1
1 11779 2
1 11780 2
1 11781 9
1 11782 2
1 11783 5
1 11784 7
1 11785 7
1 11786 3
1 11787 6
1 11788 4
1 11789 48
1 11790 10
1 11791 3
1 11792 22
1 11793 3
1 11794 4
1 11795 6
1 11796 23
1 11797 25
1 11798 2
1 11799 1
1 11800 32
1 11801 3
1 11802 3
1 11803 4
1 11804 3
1 11805 2
1 11806 22
1 11808 2
1 11809 2
1 11810 22
1 11811 3
1 11812 28
1 11813 6
1 11814 1
1 11815 3
1 11816 29
1 11817 4
1 11818 3
1 11819 3
1 11822 4
1 11823 44
1 11824 6
1 11825 2
1 11826 7
1 11827 5
1 11828 3
1 11829 2
1 11830 10
1 11831 6
1 11832 44
1 11833 1
1 11835 5
1 11836 2
1 11837 6
1 11838 3
1 11839 22
1 11841 113
1 11842 3
1 11844 1
1 11845 20
1 11846 10
1 11847 15
1 11848 1
1 11849 9
1 11850 15
1 11851 8
1 11852 11
1 11853 35
1 11855 19
1 11856 16
1 11857 2
1 11858 2
1 11859 3
1 11860 1
1 11861 32
1 11862 7
1 11864 3
1 11865 8
1 11866 18
1 11867 23
1 11869 44
1 11870 1
1 11871 5
1 11872 1
1 11873 5
1 11874 5
1 11875 1
1 11876 5
1 11877 1
1 11878 22
1 11879 2
1 11880 3
1 11881 3
1 11882 5
1 11883 52
1 11884 3
1 11885 2
1 11886 3
1 11887 10
1 11888 4
1 11889 1
1 11890 8
1 11891 39
1 11892 3
1 11893 4
1 11894 4
1 11895 15
1 11896 5
1 11897 8
1 11898 6
1 11899 3
1 11900 23
1 11901 36
1 11902 2
1 11903 1
1 11904 2
1 11905 2
1 11906 12
1 11907 6
1 11908 21
1 11909 37
1 11910 1
1 11911 8
1 11912 5
1 11913 9
1 11914 2
1 11915 5
1 11916 21
1 11918 3
1 11919 9
1 11920 31
1 11921 4
1 11922 27
1 11923 1
1 11924 4
1 11925 3
1 11926 2
1 11927 1
1 11929 42
1 11930 8
1 11931 35
1 11932 9
1 11933 8
1 11934 3
1 11935 19
1 11936 29
1 11937 933
1 11938 57
1 11939 2
1 11940 14
1 11941 5
1 11942 8
1 11943 18
1 11944 13
1 11945 9
1 11946 16
1 11947 1
1 11948 4
1 11949 25
1 11950 19
1 11951 13
1 11952 4
1 11953 4
1 11954 1
1 11955 1
1 11956 3
1 11957 2
1 11958 12
1 11959 15
1 11960 5
1 11961 1
1 11962 2
1 11963 3
1 11964 1
1 11965 18
1 11966 13
1 11967 27
1 11968 22
1 11969 24
1 11970 2
1 11971 1
1 11972 34
1 11973 3
1 11974 4
1 11975 9
1 11976 29
1 11977 11
1 11979 3
1 11980 1291
1 11981 6
1 11983 29
1 11984 37
1 11985 11
1 11986 3
1 11987 21
1 11988 5
1 11989 3
1 11990 2
1 11991 3
1 11992 6
1 11993 36
1 11994 2
1 11995 12
1 11996 36
1 11997 4
1 11999 53
1 12000 7
1 12002 6
1 12003 55
1 12004 40
1 12005 3
1 12006 3
1 12007 1
1 12008 8
1 12009 8
1 12010 3
1 12011 5
1 12012 18
1 12013 5
1 12014 5
1 12015 2
1 12016 2
1 12017 6
1 12018 49
1 12019 4
1 12020 3
1 12021 16
1 12022 9
1 12023 36
1 12024 1
1 12025 5
1 12026 35
1 12027 5
1 12028 38
1 12029 1011
1 12030 9
1 12031 10
1 12032 6
1 12033 5
1 12034 1
1 12035 17
1 12036 3
1 12037 3
1 12038 32
1 12039 13
1 12040 2
1 12041 26
1 12042 2
1 12043 30
1 12044 4
1 12045 37
1 12046 6
1 12047 28
1 12048 11
1 12049 2
1 12050 42
1 12051 1
1 12052 9
1 12053 3
1 12054 8
1 12055 15
1 12056 6
1 12057 42
1 12058 4
1 12059 63
1 12060 6
1 12061 3
1 12062 4
1 12063 2
1 12065 2
1 12066 27
1 12067 1
1 12068 33
1 12070 7
1 12071 1
1 12072 5
1 12073 13
1 12074 1
1 12075 40
1 12076 4
1 12077 50
1 12078 38
1 12079 2
1 12080 2
1 12081 44
1 12082 1
1 12083 7
1 12084 1
1 12085 3
1 12086 1
1 12087 1
1 12088 3
1 12089 18
1 12090 12
1 12091 5
1 12092 72
1 12093 3
1 12094 3
1 12095 2
1 12096 5
1 12097 2
1 12098 10
1 12099 2
1 12100 3
1 12101 430
1 12102 16
1 12103 1
1 12104 52
1 12105 24
1 12106 3
1 12107 10
1 12108 2
1 12109 4
1 12110 2
1 12111 4
1 12112 1
1 12113 1
1 12114 19
1 12115 1283
1 12116 18
1 12117 12
1 12118 4
1 12119 1
1 12120 4
1 12121 3
1 12122 1200
1 12123 15
1 12124 1
1 12125 13
1 12126 16
1 12127 5
1 12128 18
1 12129 6
1 12130 42
1 12131 34
1 12132 5
1 12133 6
1 12134 137
1 12135 17
1 12136 17
1 12137 12
1 12138 2
1 12139 26
1 12140 3
1 12141 14
1 12142 1
1 12143 2
1 12144 4
1 12145 13
1 12146 9
1 12147 13
1 12148 20
1 12149 4
1 12150 28
1 12151 23
1 12152 22
1 12153 2
1 12154 6
1 12155 3
1 12156 15
1 12157 4
1 12158 34
1 12159 2
1 12160 3
1 12161 21
1 12162 2
1 12163 23
1 12164 64
1 12165 3
1 12166 30
1 12167 1
1 12168 1
1 12169 44
1 12170 6
1 12171 3
1 12172 2
1 12174 1
1 12175 9
1 12176 3
1 12177 1
1 12178 2
1 12179 15
1 12180 1
1 12181 29
1 12182 13
1 12183 10
1 12184 1
1 12185 2
1 12186 25
1 12187 8
1 12188 3
1 12189 1
1 12190 11
1 12192 3
1 12193 27
1 12195 1
1 12196 21
1 12197 11
1 12198 5
1 12199 5
1 12200 37
1 12201 40
1 12202 4
1 12203 9
1 12204 3
1 12205 4
1 12206 6
1 12207 2
1 12208 3
1 12209 5
1 12210 670
1 12211 12
1 12212 4
1 12213 4
1 12214 1
1 12215 1
1 12216 3
1 12217 44
1 12220 4
1 12221 9
1 12222 1
1 12223 4
1 12224 23
1 12225 2
1 12226 18
1 12227 13
1 12228 15
1 12229 35
1 12230 100
1 12231 2
1 12232 1
1 12233 4
1 12234 2
1 12235 1134
1 12236 13
1 12237 3
1 12238 1
1 12239 3
1 12241 184
1 12242 3
1 12243 34
1 12244 41
1 12245 3
1 12246 4
1 12247 6
1 12248 1
1 12249 5
1 12250 1
1 12251 12
1 12252 12
1 12253 2
1 12254 2
1 12255 4
1 12256 430
1 12257 13
1 12258 29
1 12260 47
1 12261 6
1 12263 14
1 12264 5
1 12265 3
1 12266 2
1 12268 2
1 12269 2
1 12270 3
1 12271 71
1 12272 17
1 12273 9
1 12274 3
1 12275 1
1 12276 6
1 12277 3
1 12278 4
1 12279 10
1 12280 4
1 12281 36
1 12282 5
1 12283 6
1 12284 9
1 12285 2
1 12286 6
1 12287 15
1 12288 19
1 12289 22
1 12290 35
1 12291 29
1 12292 18
1 12293 3
1 12294 24
1 12295 7
1 12296 1
1 12297 19
1 12298 1
1 12299 4
1 12300 1
1 12301 23
1 12302 4
1 12303 5
1 12304 43
1 12305 24
1 12306 5
1 12307 14
1 12308 20
1 12309 48
1 12310 6
1 12311 4
1 12312 15
1 12313 1
1 12314 5
1 12315 1
1 12316 36
1 12317 151
1 12318 7
1 12319 23
1 12320 7
1 12321 26
1 12322 2
1 12323 3
1 12324 3
1 12325 28
1 12326 8
1 12327 23
1 12328 22
1 12329 5
1 12330 5
1 12331 19
1 12332 19
1 12333 4
1 12334 3
1 12335 4
1 12336 6
1 12338 1
1 12339 15
1 12340 4
1 12341 16
1 12342 24
1 12343 7
1 12344 10
1 12345 4
1 12346 4
1 12347 6
1 12348 5
1 12349 6
1 12350 225
1 12351 16
1 12352 3
1 12353 3
1 12354 3
1 12355 16
1 12356 902
1 12357 13
1 12358 4
1 12359 2
1 12360 14
1 12361 3
1 12362 10
1 12363 39
1 12364 25
1 12365 14
1 12366 1
1 12367 4
1 12368 1
1 12369 2
1 12370 1
1 12371 14
1 12372 16
1 12373 1
1 12374 7
1 12375 23
1 12376 4
1 12377 1
1 12378 12
1 12379 28
1 12380 3
1 12381 23
1 12382 4
1 12383 1
1 12384 3
1 12385 12
1 12386 4
1 12387 18
1 12388 4
1 12389 16
1 12390 13
1 12392 34
1 12393 8
1 12394 6
1 12395 24
1 12396 5
1 12397 3
1 12398 190
1 12399 1
1 12400 11
1 12401 2
1 12402 1
1 12403 16
1 12404 18
1 12405 13
1 12406 3
1 12407 1
1 12408 1
1 12410 2
1 12411 1
1 12412 24
1 12413 17
1 12414 26
1 12415 20
1 12416 5
1 12417 5
1 12418 82
1 12419 11
1 12420 1
1 12421 16
1 12422 11
1 12423 8
1 12424 33
1 12425 4
1 12426 28
1 12427 6
1 12428 3
1 12429 26
1 12430 81
1 12431 1
1 12432 5
1 12433 32
1 12434 8
1 12435 21
1 12436 3
1 12437 1
1 12438 3
1 12439 16
1 12440 4
1 12441 2
1 12442 5
1 12443 50
1 12444 27
1 12445 26
1 12446 18
1 12447 6
1 12448 4
1 12449 5
1 12450 17
1 12451 31
1 12453 28
1 12454 29
1 12455 22
1 12456 4
1 12457 11
1 12458 5
1 12459 26
1 12460 2
1 12461 1
1 12462 3
1 12463 2
1 12464 23
1 12466 916
1 12467 15
1 12468 3
1 12469 53
1 12470 41
1 12472 10
1 12473 19
1 12474 1
1 12475 12
1 12476 27
1 12477 6
1 12478 20
1 12479 2
1 12480 2
1 12482 3
1 12483 1
1 12484 9
1 12485 3
1 12487 2
1 12488 15
1 12489 1
1 12490 17
1 12491 1
1 12492 17
1 12493 4
1 12494 86
1 12495 3
1 12496 2
1 12497 2
1 12498 2
1 12499 18
1 12500 1
1 12501 5
1 12502 74
1 12503 3
1 12504 1
1 12505 12
1 12506 14
1 12507 2
1 12508 34
1 12509 1
1 12510 2
1 12511 14
1 12512 23
1 12513 15
1 12514 28
1 12515 71
1 12516 3
1 12517 7
1 12518 1224
1 12519 58
1 12520 1
1 12521 3
1 12522 80
1 12524 2
1 12526 4
1 12527 43
1 12528 1
1 12529 52
1 12530 19
1 12531 3
1 12532 1157
1 12533 1
1 12534 13
1 12535 72
1 12536 1
1 12537 2
1 12538 11
1 12539 1480
1 12540 2
1 12541 14
1 12542 5
1 12543 14
1 12544 8
1 12545 60
1 12546 6
1 12547 3
1 12548 4
1 12549 5
1 12550 36
1 12551 2
1 12552 3
1 12553 2
1 12554 4
1 12555 21
1 12556 1
1 12557 7
1 12558 92
1 12559 6
1 12560 13
1 12561 3
1 12562 379
1 12563 32
1 12564 3
1 12565 2
1 12566 3
1 12567 14
1 12568 4
1 12569 1
1 12570 14
1 12571 5
1 12572 2
1 12573 1
1 12574 51
1 12575 3
1 12576 12
1 12577 7
1 12578 5
1 12579 3
1 12580 1
1 12581 16
1 12582 4
1 12583 3
1 12584 33
1 12585 2
1 12586 3
1 12587 14
1 12588 21
1 12589 3
1 12590 13
1 12591 1
1 12592 2
1 12593 2
1 12594 34
1 12595 3
1 12596 1
1 12597 1
1 12598 2
1 12599 3
1 12600 2
1 12601 1
1 12602 4
1 12603 3
1 12604 2
1 12605 31
1 12606 2
1 12607 3
1 12608 16
1 12609 1
1 12610 4
1 12612 19
1 12613 4
1 12614 3
1 12615 4
1 12616 4
1 12617 2
1 12618 1
1 12619 10
1 12620 5
1 12621 19
1 12622 12
1 12623 8
1 12624 5
1 12625 3
1 12626 4
1 12627 15
1 12628 18
1 12629 33
1 12630 2
1 12631 12
1 12632 2
1 12634 3
1 12635 23
1 12637 15
1 12638 3
1 12639 3
1 12640 7
1 12641 34
1 12642 1
1 12643 2
1 12644 3
1 12645 2
1 12646 10
1 12647 4
1 12648 22
1 12649 20
1 12650 3
1 12651 2
1 12652 19
1 12653 30
1 12654 33
1 12655 4
1 12656 5
1 12657 2
1 12658 23
1 12659 21
1 12660 16
1 12661 24
1 12663 6
1 12664 2
1 12665 13
1 12666 14
1 12667 5
1 12668 9
1 12669 1
1 12670 3
1 12671 12
1 12672 1222
1 12673 6
1 12674 24
1 12675 401
1 12676 4
1 12677 32
1 12678 4
1 12679 1
1 12680 106
1 12681 3
1 12682 6
1 12683 7
1 12684 2
1 12685 23
1 12686 2
1 12687 9
1 12688 3
1 12689 9
1 12690 5
1 12691 3
1 12692 3
1 12693 11
1 12695 15
1 12696 52
1 12697 35
1 12698 19
1 12699 5
1 12701 25
1 12702 14
1 12703 4
1 12704 16
1 12705 590
1 12706 3
1 12708 5
1 12709 19
1 12710 37
1 12711 18
1 12712 1
1 12713 1
1 12714 13
1 12715 21
1 12716 29
1 12717 2
1 12718 4
1 12719 1
1 12720 4
1 12721 49
1 12722 3
1 12723 120
1 12724 3
1 12725 2
1 12726 1
1 12727 12
1 12728 3
1 12729 2
1 12730 1
1 12731 50
1 12732 7
1 12733 38
1 12734 45
1 12735 8
1 12736 2
1 12737 2
1 12738 1
1 12739 10
1 12740 1
1 12741 1
1 12742 5
1 12743 4
1 12744 53
1 12745 11
1 12746 20
1 12747 24
1 12748 4
1 12749 22
1 12751 37
1 12752 4
1 12753 3
1 12754 2
1 12755 2
1 12757 3
1 12758 2
1 12759 5
1 12760 13
1 12761 1
1 12762 1364
1 12763 1
1 12764 45
1 12766 23
1 12768 18
1 12769 4
1 12770 937
1 12771 68
1 12772 2
1 12773 8
1 12774 28
1 12775 7
1 12776 14
1 12777 3
1 12778 21
1 12779 9
1 12780 3
1 12782 5
1 12784 33
1 12785 2
1 12786 7
1 12787 16
1 12788 2
1 12789 20
1 12790 16
1 12791 5
1 12792 3
1 12793 2
1 12794 1
1 12795 2
1 12796 5
1 12797 4
1 12798 43
1 12799 7
1 12800 22
1 12801 8
1 12802 4
1 12803 38
1 12804 8
1 12805 7
1 12806 1
1 12807 2
1 12808 5
1 12809 5
1 12810 18
1 12811 8
1 12812 4
1 12813 11
1 12814 1
1 12815 6
1 12816 15
1 12817 23
1 12818 1
1 12819 1
1 12820 29
1 12821 18
1 12822 2
1 12823 10
1 12824 46
1 12825 3
1 12826 12
1 12827 30
1 12828 2
1 12829 1
1 12830 1
1 12831 31
1 12832 27
1 12833 63
1 12834 17
1 12835 3
1 12837 17
1 12838 4
1 12839 3
1 12840 1
1 12841 3
1 12842 37
1 12843 1
1 12844 14
1 12845 2
1 12846 4
1 12847 5
1 12848 30
1 12849 7
1 12850 23
1 12851 8
1 12852 3
1 12853 25
1 12854 2
1 12855 2
1 12856 5
1 12857 15
1 12858 16
1 12859 7
1 12860 50
1 12861 4
1 12862 6
1 12863 26
1 12864 32
1 12865 5
1 12866 19
1 12867 2
1 12868 4
1 12869 72
1 12871 21
1 12872 3
1 12873 2
1 12874 1
1 12875 9
1 12876 3
1 12877 22
1 12878 16
1 12879 25
1 12880 2
1 12881 2
1 12882 3
1 12883 42
1 12884 32
1 12885 7
1 12886 19
1 12887 6
1 12889 2
1 12890 10
1 12891 46
1 12892 72
1 12893 6
1 12894 21
1 12895 3
1 12896 1
1 12897 2
1 12898 6
1 12899 17
1 12900 3
1 12901 16
1 12902 14
1 12903 30
1 12904 1
1 12905 9
1 12906 17
1 12907 79
1 12908 30
1 12909 21
1 12910 15
1 12911 34
1 12912 12
1 12913 7
1 12914 4
1 12915 11
1 12916 31
1 12917 17
1 12918 35
1 12919 19
1 12920 18
1 12921 20
1 12922 2
1 12923 7
1 12924 13
1 12925 16
1 12926 1
1 12927 4
1 12928 22
1 12929 4
1 12931 17
1 12932 89
1 12933 500
1 12934 907
1 12935 11
1 12936 13
1 12937 490
1 12938 1
1 12939 4
1 12940 6
1 12941 17
1 12942 1
1 12943 2
1 12944 2
1 12945 1
1 12946 3
1 12948 33
1 12949 5
1 12950 17
1 12951 15
1 12952 5
1 12953 16
1 12954 8
1 12955 6
1 12956 1
1 12957 3
1 12958 8
1 12959 8
1 12960 21
1 12961 8
1 12962 14
1 12963 33
1 12964 1347
1 12965 1
1 12966 2
1 12967 16
1 12968 7
1 12969 4
1 12970 3
1 12971 36
1 12972 18
1 12973 1
1 12974 5
1 12975 17
1 12976 13
1 12978 6
1 12979 16
1 12980 1
1 12981 40
1 12982 1
1 12983 56
1 12984 3
1 12985 5
1 12986 2
1 12987 16
1 12988 2
1 12989 2
1 12990 21
1 12991 101
1 12992 12
1 12993 2
1 12994 1
1 12995 2
1 12996 2
1 12997 7
1 12998 3
1 12999 13
1 13000 4
1 13001 2
1 13002 1
1 13003 1
1 13004 1
1 13005 10
1 13006 43
1 13007 159
1 13008 4
1 13009 38
1 13010 2
1 13011 43
1 13012 4
1 13013 71
1 13014 12
1 13015 20
1 13016 3
1 13017 1
1 13018 6
1 13019 4
1 13020 4
1 13021 25
1 13022 6
1 13023 17
1 13024 4
1 13025 11
1 13026 3
1 13027 53
1 13028 26
1 13029 35
1 13030 6
1 13031 2
1 13032 4
1 13033 7
1 13034 1
1 13035 10
1 13036 2
1 13037 41
1 13038 38
1 13039 35
1 13040 3
1 13041 29
1 13042 11
1 13043 8
1 13044 3
1 13045 47
1 13046 3
1 13047 16
1 13048 17
1 13049 1
1 13050 1
1 13051 5
1 13052 4
1 13053 2
1 13054 12
1 13055 38
1 13056 21
1 13057 3
1 13058 3
1 13059 41
1 13060 2
1 13061 27
1 13062 5
1 13063 5
1 13064 16
1 13066 3
1 13067 1
1 13068 30
1 13069 7
1 13070 53
1 13071 1
1 13072 47
1 13073 3
1 13074 22
1 13075 41
1 13076 4
1 13077 24
1 13078 5
1 13079 7
1 13080 14
1 13081 1
1 13082 59
1 13083 3
1 13084 1147
1 13085 1
1 13086 13
1 13087 9
1 13088 21
1 13089 3
1 13090 4
1 13091 3
1 13092 1
1 13093 9
1 13094 3
1 13095 1
1 13096 27
1 13097 17
1 13098 3
1 13099 23
1 13100 4
1 13101 2
1 13102 6
1 13103 1
1 13104 12
1 13105 3
1 13106 2
1 13107 45
1 13108 11
1 13109 1
1 13110 3
1 13111 5
1 13112 2
1 13113 1
1 13114 1
1 13115 1
1 13116 3
1 13117 12
1 13118 3
1 13119 14
1 13120 18
1 13121 1
1 13122 4
1 13123 1
1 13124 17
1 13125 15
1 13126 15
1 13127 4
1 13129 27
1 13130 27
1 13131 11
1 13132 2
1 13133 1
1 13134 9
1 13135 26
1 13136 1
1 13137 2
1 13138 7
1 13139 2
1 13140 9
1 13141 5
1 13142 4
1 13143 12
1 13144 2
1 13145 23
1 13146 14
1 13147 15
1 13148 40
1 13149 3
1 13150 11
1 13151 72
1 13152 20
1 13153 1
1 13154 3
1 13155 6
1 13156 42
1 13157 3
1 13158 3
1 13159 12
1 13160 38
1 13161 2
1 13162 2
1 13163 1
1 13164 33
1 13165 8
1 13166 12
1 13167 3
1 13168 22
1 13169 1
1 13171 21
1 13172 2
1 13173 7
1 13174 2
1 13175 2
1 13176 10
1 13177 18
1 13178 81
1 13179 1
1 13180 2
1 13181 27
1 13183 33
1 13184 13
1 13185 6
1 13186 3
1 13187 4
1 13188 2
1 13189 19
1 13190 4
1 13191 5
1 13192 5
1 13193 9
1 13194 27
1 13195 11
1 13196 3
1 13197 6
1 13198 3
1 13199 33
1 13200 1
1 13201 44
1 13202 24
1 13203 6
1 13204 3
1 13205 5
1 13206 4
1 13207 15
1 13208 5
1 13209 3
1 13210 10
1 13211 1
1 13212 12
1 13213 17
1 13214 3
1 13215 12
1 13216 32
1 13217 1
1 13218 4
1 13219 23
1 13220 4
1 13221 2
1 13222 20
1 13223 1
1 13224 4
1 13226 3
1 13227 34
1 13228 14
1 13229 285
1 13230 2
1 13231 4
1 13232 4
1 13233 4
1 13234 9
1 13235 15
1 13236 7
1 13238 4
1 13239 3
1 13240 2
1 13241 61
1 13242 8
1 13243 3
1 13244 2
1 13245 8
1 13246 23
1 13247 17
1 13248 23
1 13249 842
1 13250 11
1 13251 30
1 13252 5
1 13253 44
1 13254 5
1 13255 4
1 13256 3
1 13257 4
1 13258 2
1 13259 13
1 13260 4
1 13261 52
1 13262 16
1 13263 2
1 13264 2
1 13265 1
1 13266 3
1 13267 5
1 13268 17
1 13269 63
1 13270 7
1 13271 16
1 13273 1
1 13274 36
1 13275 8
1 13276 4
1 13277 7
1 13278 6
1 13279 3
1 13280 3
1 13281 3
1 13282 6
1 13283 2
1 13284 3
1 13285 16
1 13286 4
1 13287 5
1 13288 17
1 13289 1
1 13290 3
1 13291 71
1 13292 7
1 13293 6
1 13294 51
1 13295 23
1 13296 14
1 13297 4
1 13298 20
1 13299 5
1 13300 2
1 13301 25
1 13302 1
1 13303 3
1 13304 32
1 13305 16
1 13306 5
1 13307 24
1 13309 15
1 13310 6
1 13311 17
1 13312 2
1 13313 2
1 13314 1
1 13316 3
1 13317 3
1 13318 2
1 13319 21
1 13320 1
1 13321 2
1 13322 1
1 13323 3
1 13324 4
1 13325 24
1 13326 2
1 13327 2
1 13328 1
1 13329 1
1 13330 2
1 13331 35
1 13332 2
1 13333 5
1 13334 30
1 13335 2
1 13336 4
1 13337 2
1 13338 4
1 13339 6
1 13340 1
1 13341 5
1 13342 46
1 13343 6
1 13344 4
1 13345 20
1 13346 2
1 13347 1
1 13348 2
1 13349 4
1 13350 16
1 13351 19
1 13353 4
1 13354 58
1 13355 3
1 13357 10
1 13358 3
1 13359 2
1 13360 1
1 13362 14
1 13363 5
1 13364 7
1 13365 4
1 13366 3
1 13367 4
1 13368 1
1 13369 4
1 13370 4
1 13371 1
1 13372 4
1 13373 14
1 13374 21
1 13375 67
1 13376 3
1 13377 11
1 13378 4
1 13379 17
1 13380 7
1 13381 3
1 13382 1
1 13383 4
1 13384 2
1 13385 3
1 13386 1
1 13387 2
1 13389 4
1 13390 6
1 13391 4
1 13392 3
1 13393 1
1 13394 4
1 13395 14
1 13396 30
1 13397 11
1 13398 24
1 13400 75
1 13401 21
1 13402 12
1 13403 33
1 13404 17
1 13405 8
1 13406 3
1 13407 58
1 13408 12
1 13409 4
1 13410 41
1 13411 4
1 13412 5
1 13414 41
1 13415 2
1 13416 57
1 13417 4
1 13419 14
1 13420 2
1 13421 9
1 13422 2
1 13423 13
1 13424 4
1 13425 2
1 13426 2
1 13427 213
1 13428 15
1 13429 50
1 13430 3
1 13431 7
1 13432 3
1 13433 24
1 13434 5
1 13435 9
1 13436 3
1 13437 17
1 13438 47
1 13439 4
1 13440 8
1 13441 2
1 13442 7
1 13444 18
1 13445 4
1 13446 2
1 13447 45
1 13448 12
1 13449 38
1 13450 10
1 13451 5
1 13452 12
1 13453 2
1 13454 17
1 13456 5
1 13457 4
1 13458 1
1 13459 2
1 13460 4
1 13461 2
1 13462 4
1 13463 29
1 13464 3
1 13465 6
1 13466 30
1 13467 4
1 13468 394
1 13469 21
1 13470 2
1 13471 18
1 13472 20
1 13473 4
1 13474 8
1 13475 3
1 13476 19
1 13477 12
1 13478 59
1 13479 38
1 13480 330
1 13481 4
1 13482 15
1 13483 1
1 13484 6
1 13485 3
1 13486 4
1 13487 31
1 13488 23
1 13489 2
1 13490 21
1 13491 20
1 13492 21
1 13493 1
1 13494 24
1 13495 7
1 13496 3
1 13497 16
1 13498 3
1 13499 6
1 13500 3
1 13501 3
1 13502 28
1 13503 2
1 13504 28
1 13505 8
1 13506 16
1 13507 3
1 13508 6
1 13509 12
1 13510 16
1 13511 30
1 13512 19
1 13513 5
1 13514 7
1 13515 6
1 13516 27
1 13517 7
1 13518 544
1 13519 17
1 13520 13
1 13521 4
1 13522 14
1 13523 45
1 13524 24
1 13525 17
1 13526 10
1 13527 4
1 13528 4
1 13529 3
1 13530 83
1 13531 5
1 13532 3
1 13533 21
1 13534 9
1 13535 14
1 13536 26
1 13539 1
1 13540 4
1 13541 13
1 13542 29
1 13543 13
1 13544 3
1 13545 3
1 13546 7
1 13547 3
1 13548 1
1 13549 7
1 13550 6
1 13551 5
1 13552 15
1 13553 8
1 13554 2
1 13555 2
1 13556 21
1 13557 44
1 13558 2
1 13559 2
1 13560 6
1 13561 10
1 13562 10
1 13563 5
1 13564 13
1 13565 14
1 13566 11
1 13567 2
1 13568 3
1 13569 29
1 13570 32
1 13571 30
1 13572 3
1 13573 17
1 13574 8
1 13575 1
1 13576 27
1 13577 16
1 13578 5
1 13579 2
1 13580 39
1 13581 4
1 13582 145
1 13583 3
1 13584 2
1 13585 38
1 13586 4
1 13587 2
1 13588 1
1 13589 8
1 13590 7
1 13591 4
1 13592 9
1 13593 1
1 13594 1
1 13595 2
1 13596 6
1 13597 6
1 13598 2
1 13599 102
1 13600 2
1 13601 3
1 13602 23
1 13603 1
1 13604 24
1 13605 5
1 13606 10
1 13607 2
1 13608 14
1 13609 9
1 13610 57
1 13611 5
1 13612 2
1 13613 27
1 13614 4
1 13615 3
1 13616 2
1 13617 4
1 13618 3
1 13619 2
1 13621 2
1 13622 5
1 13623 20
1 13624 4
1 13625 2
1 13626 2
1 13627 3
1 13628 5
1 13629 26
1 13630 1
1 13631 2
1 13632 24
1 13633 35
1 13634 3
1 13635 153
1 13636 3
1 13637 2
1 13638 645
1 13639 24
1 13640 3
1 13641 2
1 13642 2
1 13643 36
1 13645 68
1 13646 4
1 13647 606
1 13648 3
1 13649 1
1 13651 1
1 13652 4
1 13653 4
1 13654 6
1 13655 5
1 13656 18
1 13657 4
1 13659 18
1 13660 2
1 13661 3
1 13662 6
1 13663 6
1 13664 1
1 13665 18
1 13666 4
1 13667 5
1 13668 23
1 13669 4
1 13670 305
1 13671 40
1 13672 2
1 13673 916
1 13674 2
1 13675 3
1 13676 19
1 13677 4
1 13678 4
1 13680 45
1 13681 3
1 13682 24
1 13683 4
1 13684 12
1 13685 2
1 13686 20
1 13687 4
1 13688 18
1 13689 3
1 13690 22
1 13691 6
1 13692 12
1 13693 6
1 13694 3
1 13695 3
1 13696 3
1 13697 1
1 13698 4
1 13699 1037
1 13700 6
1 13701 145
1 13702 3
1 13703 11
1 13704 16
1 13705 4
1 13706 5
1 13707 60
1 13708 14
1 13709 3
1 13710 7
1 13711 20
1 13712 2
1 13713 6
1 13714 20
1 13715 2
1 13716 2
1 13717 19
1 13718 30
1 13719 4
1 13720 2
1 13721 5
1 13722 8
1 13723 18
1 13724 18
1 13725 4
1 13726 11
1 13727 26
1 13728 965
1 13729 8
1 13730 2
1 13731 13
1 13732 8
1 13733 8
1 13734 5
1 13735 2
1 13736 7
1 13737 4
1 13738 12
1 13739 32
1 13740 15
1 13741 21
1 13742 21
1 13743 2
1 13744 1
1 13745 11
1 13746 2
1 13747 18
1 13748 30
1 13749 3
1 13750 1
1 13751 21
1 13752 273
1 13753 40
1 13754 2
1 13755 3
1 13756 5
1 13758 5
1 13759 13
1 13760 56
1 13761 2
1 13762 24
1 13763 2
1 13764 9
1 13765 23
1 13767 115
1 13768 3
1 13770 2
1 13771 5
1 13772 3
1 13773 1
1 13774 7
1 13775 12
1 13776 59
1 13777 1
1 13778 2
1 13779 20
1 13780 3
1 13781 3
1 13782 1
1 13783 4
1 13784 1
1 13785 4
1 13786 6
1 13787 1
1 13788 2
1 13789 3
1 13790 18
1 13791 3
1 13792 29
1 13793 4
1 13794 10
1 13795 39
1 13796 4
1 13797 4
1 13798 4
1 13799 14
1 13800 15
1 13801 30
1 13802 3
1 13803 5
1 13804 14
1 13805 8
1 13806 2
1 13807 2
1 13808 33
1 13809 26
1 13810 9
1 13811 2
1 13812 16
1 13813 4
1 13814 1
1 13815 1
1 13816 27
1 13817 36
1 13818 4
1 13819 20
1 13820 7
1 13821 3
1 13822 15
1 13823 299
1 13824 16
1 13825 32
1 13826 3
1 13827 3
1 13828 6
1 13830 4
1 13831 4
1 13832 36
1 13834 1
1 13835 5
1 13836 39
1 13837 2
1 13838 2
1 13839 17
1 13840 42
1 13841 38
1 13842 4
1 13843 20
1 13844 5
1 13845 33
1 13846 3
1 13847 9
1 13848 14
1 13849 3
1 13850 6
1 13851 67
1 13852 3
1 13853 1
1 13854 1
1 13855 33
1 13856 1
1 13857 2
1 13858 5
1 13859 6
1 13860 5
1 13861 10
1 13863 9
1 13864 8
1 13865 4
1 13866 2
1 13867 3
1 13868 29
1 13869 2
1 13870 3
1 13871 3
1 13872 3
1 13873 4
1 13874 14
1 13875 1
1 13876 23
1 13877 4
1 13878 26
1 13879 24
1 13881 3
1 13882 4
1 13883 34
1 13884 13
1 13885 2
1 13886 33
1 13887 4
1 13888 2
1 13889 21
1 13890 32
1 13892 49
1 13893 79
1 13894 22
1 13895 4
1 13896 2
1 13897 3
1 13898 9
1 13899 5
1 13900 4
1 13901 4
1 13902 52
1 13903 27
1 13904 5
1 13905 3
1 13906 7
1 13907 2
1 13908 4
1 13909 4
1 13910 3
1 13911 6
1 13912 2
1 13913 2
1 13914 27
1 13915 6
1 13916 3
1 13917 2
1 13918 11
1 13919 3
1 13920 5
1 13921 5
1 13922 6
1 13923 431
1 13924 7
1 13925 9
1 13926 24
1 13927 11
1 13928 2
1 13929 8
1 13930 28
1 13931 1
1 13932 8
1 13933 18
1 13934 3
1 13935 3
1 13936 1
1 13937 9
1 13938 2
1 13939 2
1 13940 1
1 13941 3
1 13942 23
1 13943 54
1 13944 2
1 13945 5
1 13946 4
1 13947 2
1 13948 6
1 13949 2
1 13950 2
1 13951 34
1 13952 29
1 13953 2
1 13954 27
1 13955 14
1 13956 8
1 13957 34
1 13958 799
1 13959 9
1 13960 15
1 13961 5
1 13962 5
1 13963 1
1 13964 14
1 13965 1
1 13966 1
1 13967 25
1 13969 22
1 13971 4
1 13972 1
1 13973 11
1 13974 2
1 13975 2
1 13976 4
1 13977 27
1 13978 15
1 13979 216
1 13980 70
1 13981 50
1 13982 12
1 13983 8
1 13984 2
1 13985 15
1 13986 2
1 13987 5
1 13988 31
1 13989 34
1 13990 1
1 13991 9
1 13992 14
1 13993 3
1 13994 25
1 13996 3
1 13997 2
1 13998 10
1 13999 1
1 14000 2
1 14001 35
1 14002 26
1 14003 7
1 14004 3
1 14005 1
1 14006 9
1 14007 12
1 14008 2
1 14009 8
1 14010 16
1 14011 23
1 14012 1
1 14013 6
1 14014 29
1 14015 3
1 14016 3
1 14018 16
1 14019 48
1 14020 3
1 14021 17
1 14022 10
1 14023 8
1 14024 4
1 14025 4
1 14026 6
1 14027 1
1 14028 4
1 14029 30
1 14030 15
1 14031 2
1 14032 2
1 14033 4
1 14034 15
1 14035 8
1 14036 3
1 14037 36
1 14039 6
1 14041 3
1 14042 8
1 14043 805
1 14044 2
1 14045 3
1 14046 474
1 14047 2
1 14048 3
1 14049 4
1 14050 3
1 14051 31
1 14052 19
1 14053 412
1 14054 10
1 14055 1
1 14056 33
1 14057 1
1 14058 17
1 14059 909
1 14060 3
1 14061 1204
1 14062 1
1 14063 31
1 14064 67
1 14065 4
1 14066 15
1 14067 31
1 14068 57
1 14069 1
1 14070 5
1 14071 2
1 14072 24
1 14073 16
1 14074 5
1 14077 1
1 14078 6
1 14079 2
1 14080 5
1 14081 30
1 14082 7
1 14083 1
1 14084 13
1 14085 27
1 14086 3
1 14087 23
1 14088 4
1 14089 6
1 14090 3
1 14091 19
1 14092 6
1 14093 2
1 14094 7
1 14095 9
1 14096 334
1 14097 4
1 14098 1
1 14099 3
1 14100 4
1 14101 12
1 14102 2
1 14103 69
1 14104 2
1 14105 6
1 14106 202
1 14107 3
1 14108 2
1 14109 25
1 14110 3
1 14111 1
1 14112 2
1 14113 3
1 14114 24
1 14115 5
1 14116 60
1 14117 10
1 14118 1
1 14119 23
1 14120 2
1 14121 1030
1 14122 2
1 14123 6
1 14124 2
1 14125 1
1 14126 2
1 14127 34
1 14128 25
1 14129 12
1 14130 5
1 14131 4
1 14132 1
1 14133 21
1 14134 4
1 14135 15
1 14136 3
1 14137 4
1 14138 6
1 14139 9
1 14140 1
1 14141 14
1 14142 16
1 14143 1
1 14144 45
1 14145 2
1 14146 4
1 14147 4
1 14148 2
1 14149 44
1 14150 4
1 14151 16
1 14152 32
1 14153 23
1 14154 3
1 14155 5
1 14156 1
1 14157 5
1 14158 3
1 14159 21
1 14160 3
1 14161 3
1 14162 48
1 14163 3
1 14164 3
1 14165 9
1 14166 3
1 14167 1
1 14168 12
1 14169 7
1 14170 1
1 14171 27
1 14172 1
1 14174 1
1 14175 1
1 14176 1
1 14177 3
1 14178 11
1 14179 3
1 14180 43
1 14181 2
1 14182 1
1 14183 1
1 14184 5
1 14185 3
1 14186 6
1 14187 2
1 14188 5
1 14189 2
1 14190 6
1 14191 2
1 14192 2
1 14193 6
1 14194 6
1 14195 35
1 14196 34
1 14197 8
1 14198 4
1 14199 4
1 14200 1
1 14201 19
1 14202 3
1 14203 12
1 14204 1
1 14205 3
1 14206 1
1 14207 5
1 14208 1
1 14209 31
1 14210 18
1 14211 2
1 14212 3
1 14213 1
1 14214 13
1 14215 6
1 14216 23
1 14217 2
1 14218 5
1 14219 20
1 14220 38
1 14221 1
1 14222 3
1 14223 1
1 14224 3
1 14225 16
1 14228 18
1 14229 46
1 14230 42
1 14231 1
1 14232 6
1 14233 1
1 14234 3
1 14235 2
1 14236 15
1 14237 7
1 14238 18
1 14239 20
1 14240 3
1 14242 18
1 14243 4
1 14244 22
1 14245 3
1 14246 4
1 14247 2
1 14248 6
1 14249 2
1 14250 22
1 14252 20
1 14253 35
1 14254 14
1 14255 5
1 14256 11
1 14257 3
1 14258 4
1 14259 20
1 14260 2
1 14261 6
1 14262 2
1 14263 1
1 14264 5
1 14265 4
1 14266 9
1 14267 3
1 14268 12
1 14269 1
1 14270 2
1 14271 6
1 14272 2
1 14273 1
1 14274 3
1 14275 4
1 14276 168
1 14277 11
1 14278 16
1 14279 6
1 14280 46
1 14281 11
1 14282 29
1 14283 2
1 14284 34
1 14285 12
1 14286 4
1 14287 27
1 14288 15
1 14289 39
1 14290 7
1 14291 2
1 14292 26
1 14293 9
1 14294 8
1 14295 13
1 14296 9
1 14297 4
1 14298 2
1 14299 27
1 14300 3
1 14301 4
1 14302 10
1 14303 6
1 14304 2
1 14305 2
1 14306 13
1 14307 39
1 14308 6
1 14309 24
1 14310 26
1 14311 28
1 14312 9
1 14313 6
1 14314 12
1 14315 1
1 14316 9
1 14317 14
1 14318 4
1 14319 2
1 14320 4
1 14321 2
1 14322 3
1 14324 58
1 14325 4
1 14326 2
1 14328 1
1 14329 3
1 14330 2
1 14331 2
1 14332 2
1 14333 11
1 14334 2
1 14335 1
1 14336 2
1 14337 13
1 14338 10
1 14339 2
1 14340 19
1 14342 2
1 14343 1
1 14344 1
1 14345 4
1 14347 8
1 14348 2
1 14349 22
1 14351 4
1 14352 5
1 14353 2
1 14354 5
1 14355 4
1 14356 2
1 14357 1
1 14358 28
1 14359 1
1 14360 2
1 14361 3
1 14362 6
1 14363 38
1 14364 31
1 14365 57
1 14366 29
1 14367 22
1 14369 5
1 14370 3
1 14371 5
1 14372 38
1 14373 2
1 14374 5
1 14375 6
1 14377 45
1 14378 3
1 14379 1
1 14380 4
1 14381 18
1 14382 3
1 14383 4
1 14384 1
1 14385 5
1 14386 2
1 14387 5
1 14388 9
1 14389 5
1 14390 4
1 14391 11
1 14392 4
1 14393 2
1 14394 29
1 14395 21
1 14396 4
1 14397 3
1 14398 16
1 14399 16
1 14400 9
1 14401 43
1 14402 1
1 14403 21
1 14404 4
1 14405 18
1 14406 10
1 14407 2
1 14408 1
1 14409 38
1 14410 9
1 14411 16
1 14412 48
1 14413 9
1 14414 13
1 14415 64
1 14416 13
1 14417 21
1 14418 7
1 14419 1
1 14420 22
1 14421 19
1 14422 37
1 14423 20
1 14424 4
1 14425 13
1 14426 6
1 14428 9
1 14429 2
1 14430 4
1 14431 5
1 14432 54
1 14433 9
1 14434 18
1 14435 2
1 14436 1
1 14437 3
1 14438 37
1 14439 12
1 14440 1
1 14441 4
1 14442 2
1 14443 2
1 14444 2
1 14445 22
1 14446 10
1 14447 4
1 14448 20
1 14449 5
1 14450 31
1 14451 105
1 14452 12
1 14453 2
1 14454 15
1 14455 1
1 14456 3
1 14457 4
1 14458 1
1 14459 3
1 14460 3
1 14461 26
1 14462 38
1 14463 3
1 14464 19
1 14465 26
1 14466 19
1 14467 1
1 14469 4
1 14470 4
1 14471 12
1 14472 14
1 14473 14
1 14474 3
1 14475 13
1 14477 1
1 14478 3
1 14479 1
1 14480 4
1 14481 8
1 14482 3
1 14483 2
1 14484 5
1 14485 17
1 14486 3
1 14487 1169
1 14488 13
1 14489 2
1 14490 13
1 14491 27
1 14492 34
1 14493 3
1 14494 3
1 14495 8
1 14496 15
1 14497 9
1 14498 1
1 14499 2
1 14500 7
1 14501 1
1 14502 22
1 14503 38
1 14504 3
1 14505 17
1 14506 3
1 14507 2
1 14508 1
1 14510 4
1 14511 15
1 14512 3
1 14513 9
1 14514 3
1 14515 1
1 14516 5
1 14517 29
1 14518 4
1 14519 3
1 14520 12
1 14522 5
1 14523 15
1 14524 39
1 14526 4
1 14527 2
1 14528 31
1 14529 6
1 14530 10
1 14531 63
1 14532 40
1 14533 17
1 14534 2
1 14535 2
1 14536 3
1 14537 7
1 14538 19
1 14539 5
1 14540 3
1 14541 4
1 14542 2
1 14543 7
1 14544 4
1 14546 13
1 14547 1348
1 14548 6
1 14549 32
1 14550 3
1 14551 5
1 14552 4
1 14553 1
1 14554 13
1 14555 2
1 14556 14
1 14557 22
1 14558 4
1 14559 20
1 14560 4
1 14561 1
1 14562 2
1 14563 25
1 14564 5
1 14565 4
1 14566 5
1 14567 35
1 14568 30
1 14569 3
1 14570 18
1 14571 16
1 14572 6
1 14574 19
1 14575 3
1 14576 7
1 14577 43
1 14578 746
1 14579 4
1 14580 8
1 14581 1
1 14582 19
1 14583 1
1 14584 3
1 14585 7
1 14586 25
1 14587 21
1 14588 22
1 14589 4
1 14590 8
1 14591 4
1 14592 9
1 14593 20
1 14594 5
1 14595 5
1 14596 16
1 14597 5
1 14598 8
1 14599 1
1 14600 27
1 14601 4
1 14602 2
1 14603 4
1 14604 2
1 14605 4
1 14606 1
1 14607 6
2 1 12
2 2 7
2 3 35
2 4 41
2 5 42
2 6 142
2 7 8
2 8 46
2 9 6
2 10 12
2 11 39
2 12 4
2 13 51
2 14 2
2 15 71
2 16 139
2 17 140
2 18 4
2 19 252
2 20 1070
2 21 66
2 22 6
2 23 37
2 24 42
2 25 1269
2 26 123
2 27 35
2 28 6
2 29 9
2 30 90
2 31 49
2 32 80
2 33 7
2 34 136
2 35 2
2 36 121
2 37 137
2 38 1094
2 39 3
2 40 3
2 41 8
2 42 111
2 43 113
2 44 164
2 45 89
2 46 55
2 47 188
2 48 3
2 49 48
2 50 51
2 51 51
2 52 121
2 53 624
2 54 4
2 55 158
2 56 6
2 57 96
2 58 8
2 59 14
2 60 4
2 61 139
2 62 33
2 63 75
2 64 10
2 65 73
2 66 162
2 67 74
2 68 8
2 69 11
2 70 8
2 71 72
2 72 136
2 73 61
2 74 104
2 75 106
2 76 65
2 77 5
2 78 11
2 79 127
2 80 4
2 81 91
2 82 14
2 83 102
2 84 4
2 85 9
2 86 13
2 87 9
2 88 5
2 89 11
2 90 92
2 91 160
2 92 4
2 93 10
2 94 9
2 95 5
2 96 5
2 97 45
2 98 28
2 99 242
2 100 15
2 101 7
2 102 12
2 103 62
2 104 36
2 105 104
2 106 166
2 107 103
2 108 8
2 109 12
2 110 4
2 111 4
2 112 101
2 113 83
2 114 37
2 115 64
2 116 67
2 117 89
2 118 135
2 119 50
2 120 8
2 121 7
2 122 660
2 123 12
2 124 64
2 125 73
2 126 72
2 127 93
2 128 82
2 129 6
2 130 86
2 131 84
2 132 137
2 133 8
2 134 23
2 135 7
2 136 3
2 137 25
2 138 9
2 139 139
2 140 8
2 141 4
2 142 8
2 143 102
2 144 48
2 145 118
2 146 6
2 147 9
2 148 19
2 149 31
2 150 6
2 151 55
2 152 6
2 153 900
2 154 3
2 155 2
2 156 117
2 157 73
2 158 3
2 159 4
2 160 56
2 161 67
2 162 6
2 163 5
2 164 2
2 165 7
2 166 10
2 167 5
2 168 14
2 169 89
2 170 15
2 171 2
2 172 141
2 173 6
2 174 120
2 175 14
2 176 99
2 177 82
2 178 8
2 179 5
2 180 9
2 181 2
2 182 7
2 183 7
2 184 84
2 185 112
2 186 7
2 187 103
2 188 115
2 189 78
2 190 12
2 191 6
2 192 71
2 193 1079
2 194 69
2 195 69
2 196 100
2 197 350
2 198 29
2 199 82
2 200 74
2 201 3
2 202 7
2 204 10
2 205 6
2 206 6
2 207 5
2 208 4
2 209 126
2 210 26
2 211 5
2 212 418
2 213 8
2 214 7
2 215 9
2 216 133
2 217 49
2 218 7
2 219 6
2 220 50
2 221 3
2 222 8
2 223 60
2 224 134
2 225 101
2 226 16
2 227 5
2 228 1247
2 229 87
2 230 5
2 231 21
2 232 7
2 233 7
2 234 103
2 235 5
2 236 11
2 237 115
2 238 114
2 239 22
2 240 9
2 241 7
2 242 2
2 243 190
2 244 59
2 245 10
2 246 112
2 247 4
2 248 8
2 249 5
2 250 1031
2 251 5
2 252 77
2 253 7
2 254 131
2 255 194
2 256 11
2 257 53
2 258 74
2 259 6
2 260 10
2 261 48
2 262 6
2 263 11
2 264 9
2 265 2
2 266 3
2 267 102
2 268 25
2 269 131
2 270 1
2 271 119
2 272 97
2 273 62
2 274 12
2 275 5
2 276 159
2 277 22
2 278 138
2 279 637
2 280 11
2 281 46
2 282 103
2 283 151
2 284 8
2 285 6
2 286 3
2 287 99
2 288 8
2 289 106
2 290 7
2 291 106
2 292 6
2 293 10
2 294 13
2 295 38
2 296 8
2 297 8
2 298 5
2 299 89
2 300 182
2 301 104
2 302 131
2 303 911
2 304 8
2 305 7
2 306 5
2 307 5
2 308 9
2 309 166
2 310 1244
2 311 6
2 312 7
2 313 45
2 314 27
2 315 89
2 316 66
2 317 128
2 318 10
2 319 7
2 320 1204
2 321 6
2 322 897
2 323 8
2 324 62
2 326 126
2 327 94
2 328 5
2 329 1201
2 330 3
2 331 4
2 332 6
2 333 71
2 334 78
2 335 142
2 336 12
2 337 9
2 338 150
2 339 76
2 340 8
2 341 48
2 342 40
2 343 117
2 344 79
2 345 5
2 346 10
2 347 7
2 348 8
2 349 79
2 350 6
2 351 111
2 352 7
2 353 148
2 354 80
2 355 1022
2 356 60
2 357 3
2 358 248
2 359 50
2 360 44
2 361 17
2 362 11
2 363 7
2 364 15
2 365 14
2 366 52
2 367 2
2 368 6
2 369 23
2 370 54
2 371 7
2 372 9
2 373 83
2 374 99
2 375 3
2 376 104
2 377 2
2 378 12
2 379 160
2 380 283
2 381 134
2 382 1
2 383 7
2 384 6
2 385 7
2 386 85
2 387 1021
2 388 133
2 389 94
2 390 12
2 391 3
2 392 38
2 393 65
2 394 2
2 395 107
2 396 9
2 397 8
2 398 5
2 399 161
2 400 6
2 401 108
2 402 84
2 403 10
2 404 2
2 405 30
2 406 8
2 407 27
2 408 91
2 409 6
2 410 58
2 411 100
2 412 8
2 413 12
2 414 1143
2 415 39
2 416 95
2 417 5
2 418 5
2 419 688
2 420 12
2 421 11
2 422 90
2 423 4
2 424 7
2 425 95
2 426 126
2 427 1153
2 428 61
2 429 2
2 430 7
2 431 70
2 432 122
2 433 84
2 434 7
2 435 119
2 436 5
2 437 1199
2 438 1211
2 439 108
2 440 12
2 441 54
2 442 6
2 443 11
2 444 163
2 445 9
2 446 133
2 447 128
2 448 1
2 449 8
2 450 147
2 451 62
2 452 56
2 453 106
2 454 7
2 455 10
2 456 80
2 457 10
2 458 12
2 459 9
2 460 93
2 461 6
2 462 57
2 463 158
2 464 36
2 465 6
2 466 5
2 467 118
2 468 3
2 469 9
2 470 4
2 471 39
2 472 898
2 473 101
2 474 488
2 475 8
2 476 55
2 477 95
2 478 1
2 479 66
2 480 932
2 481 7
2 482 33
2 483 113
2 484 74
2 485 9
2 486 219
2 487 8
2 488 5
2 489 5
2 490 4
2 491 27
2 492 31
2 493 71
2 494 8
2 495 10
2 496 3
2 497 7
2 498 70
2 499 5
2 500 82
2 501 461
2 502 57
2 503 2
2 504 145
2 505 6
2 506 101
2 507 14
2 508 11
2 509 9
2 510 10
2 511 11
2 512 95
2 513 6
2 514 210
2 515 55
2 516 5
2 517 60
2 518 10
2 519 61
2 520 60
2 521 39
2 522 112
2 523 3
2 524 1
2 525 1213
2 526 4
2 527 11
2 528 128
2 529 4
2 530 40
2 531 9
2 532 4
2 533 1206
2 534 87
2 535 6
2 536 7
2 537 1239
2 538 91
2 539 10
2 540 4
2 541 9
2 542 125
2 543 4
2 544 60
2 545 55
2 546 78
2 547 46
2 548 36
2 549 58
2 550 3
2 551 116
2 552 68
2 553 8
2 554 83
2 555 111
2 556 4
2 557 119
2 558 13
2 559 3
2 560 128
2 561 14
2 562 54
2 563 3
2 564 19
2 565 62
2 566 7
2 567 2
2 568 125
2 569 150
2 570 79
2 571 263
2 572 6
2 573 63
2 574 54
2 575 9
2 576 34
2 577 3
2 578 40
2 579 2
2 580 1158
2 581 1
2 582 6
2 583 60
2 584 15
2 585 49
2 586 5
2 587 53
2 588 4
2 589 5
2 590 5
2 591 7
2 592 17
2 593 10
2 594 4
2 595 83
2 596 6
2 597 8
2 598 39
2 599 2
2 600 4
2 601 5
2 602 3
2 603 61
2 604 8
2 605 27
2 606 50
2 607 52
2 608 70
2 609 35
2 610 61
2 611 4
2 612 2
2 614 28
2 615 51
2 616 6
2 617 61
2 618 2
2 619 94
2 620 68
2 621 10
2 622 108
2 623 8
2 624 4
2 625 55
2 626 41
2 627 60
2 628 78
2 629 10
2 630 128
2 631 31
2 632 9
2 633 99
2 634 7
2 635 4
2 636 1
2 637 66
2 638 5
2 639 2
2 640 4
2 641 613
2 642 73
2 643 3
2 644 15
2 645 97
2 646 109
2 647 3
2 648 55
2 649 6
2 650 33
2 651 3
2 652 6
2 653 12
2 654 8
2 655 57
2 656 77
2 657 4
2 658 55
2 659 3
2 660 11
2 661 74
2 662 129
2 663 97
2 664 111
2 665 153
2 666 354
2 667 40
2 668 12
2 669 8
2 670 202
2 671 60
2 672 16
2 673 218
2 674 47
2 675 5
2 676 126
2 677 418
2 678 11
2 679 4
2 680 254
2 681 47
2 682 83
2 683 879
2 684 5
2 685 7
2 686 364
2 687 116
2 688 186
2 689 1
2 690 41
2 691 103
2 692 10
2 693 4
2 694 20
2 695 34
2 696 41
2 697 26
2 698 80
2 699 6
2 700 9
2 701 2
2 702 98
2 703 206
2 704 12
2 705 7
2 706 11
2 707 54
2 708 6
2 709 6
2 710 86
2 711 86
2 712 58
2 713 8
2 714 124
2 715 98
2 716 80
2 717 5
2 718 69
2 719 157
2 720 76
2 721 5
2 722 4
2 723 7
2 724 123
2 725 139
2 726 98
2 727 36
2 728 9
2 729 96
2 730 120
2 731 4
2 732 2
2 733 11
2 734 50
2 735 6
2 736 109
2 737 10
2 738 5
2 739 5
2 740 6
2 741 3
2 743 7
2 744 1
2 745 1254
2 746 50
2 747 4
2 748 714
2 749 64
2 750 48
2 751 4
2 752 10
2 753 155
2 754 7
2 755 78
2 756 4
2 757 57
2 758 16
2 759 2
2 760 99
2 761 62
2 762 66
2 763 131
2 764 10
2 765 143
2 766 78
2 767 4
2 768 903
2 769 6
2 770 15
2 771 9
2 772 94
2 773 99
2 774 82
2 775 207
2 776 146
2 777 493
2 778 10
2 779 101
2 780 30
2 781 98
2 782 83
2 783 4
2 784 92
2 785 4
2 786 93
2 787 5
2 788 8
2 789 7
2 790 1031
2 791 4
2 792 92
2 793 58
2 794 94
2 795 37
2 796 24
2 797 4
2 798 7
2 799 3
2 800 83
2 801 39
2 802 47
2 803 17
2 804 23
2 805 135
2 806 18
2 807 103
2 808 16
2 809 96
2 810 12
2 811 8
2 813 14
2 814 144
2 815 88
2 816 65
2 817 7
2 818 7
2 819 111
2 820 10
2 821 1076
2 822 102
2 823 244
2 824 1378
2 825 1135
2 826 142
2 827 4
2 828 53
2 829 137
2 830 7
2 831 6
2 832 10
2 833 12
2 834 5
2 835 80
2 836 228
2 837 11
2 838 113
2 839 14
2 840 195
2 841 189
2 842 19
2 843 627
2 844 10
2 845 7
2 846 199
2 847 6
2 848 26
2 849 132
2 850 197
2 851 13
2 852 9
2 853 10
2 854 182
2 855 5
2 856 102
2 857 8
2 858 111
2 859 201
2 860 8
2 861 42
2 862 7
2 863 134
2 864 74
2 865 8
2 866 49
2 867 115
2 868 145
2 869 4
2 870 11
2 871 149
2 872 104
2 873 93
2 874 105
2 875 51
2 876 7
2 877 124
2 878 5
2 879 251
2 880 68
2 881 8
2 882 1269
2 883 3
2 884 77
2 885 21
2 886 108
2 887 94
2 888 11
2 889 241
2 890 4
2 891 209
2 892 5
2 893 108
2 894 45
2 895 1194
2 896 75
2 897 94
2 898 13
2 899 44
2 900 56
2 901 2
2 902 10
2 903 24
2 904 39
2 905 104
2 906 213
2 907 120
2 908 5
2 909 9
2 910 3
2 911 9
2 912 124
2 913 38
2 914 86
2 915 190
2 916 4
2 917 35
2 918 64
2 919 7
2 920 285
2 921 6
2 922 73
2 923 1
2 924 23
2 925 152
2 926 8
2 927 1127
2 928 4
2 929 7
2 930 181
2 931 24
2 932 158
2 933 9
2 934 11
2 935 9
2 936 64
2 937 48
2 938 124
2 939 91
2 940 376
2 941 6
2 942 12
2 943 10
2 944 89
2 945 135
2 946 1
2 947 3
2 948 11
2 949 5
2 950 5
2 951 6
2 952 519
2 953 198
2 954 8
2 955 72
2 956 8
2 957 9
2 958 56
2 959 102
2 960 52
2 961 102
2 962 32
2 963 22
2 964 57
2 965 57
2 966 107
2 967 1149
2 968 6
2 969 2
2 970 9
2 971 61
2 972 73
2 973 29
2 974 9
2 975 6
2 976 7
2 977 51
2 978 17
2 979 36
2 980 12
2 981 61
2 982 7
2 983 139
2 984 8
2 985 6
2 986 4
2 987 130
2 988 96
2 989 161
2 990 4
2 991 3
2 992 53
2 993 155
2 994 61
2 995 6
2 996 4
2 997 122
2 998 85
2 999 33
2 1000 28
2 1001 243
2 1002 9
2 1003 149
2 1004 955
2 1005 73
2 1006 4
2 1007 9
2 1008 12
2 1009 64
2 1010 142
2 1011 45
2 1012 8
2 1013 8
2 1014 33
2 1015 111
2 1016 113
2 1017 118
2 1018 8
2 1019 4
2 1020 8
2 1021 7
2 1022 5
2 1023 83
2 1024 128
2 1025 119
2 1026 4
2 1027 7
2 1028 107
2 1029 4
2 1030 6
2 1031 352
2 1032 12
2 1033 62
2 1034 10
2 1035 319
2 1036 51
2 1037 4
2 1038 5
2 1039 7
2 1040 103
2 1041 13
2 1042 8
2 1043 6
2 1044 4
2 1045 99
2 1046 5
2 1047 70
2 1048 63
2 1049 111
2 1050 1
2 1051 8
2 1052 7
2 1053 58
2 1054 6
2 1055 42
2 1056 4
2 1057 57
2 1058 51
2 1059 118
2 1060 20
2 1061 11
2 1062 162
2 1063 438
2 1064 1
2 1065 84
2 1066 10
2 1067 587
2 1068 10
2 1069 427
2 1070 5
2 1071 214
2 1072 55
2 1073 77
2 1074 122
2 1075 7
2 1076 8
2 1077 17
2 1078 7
2 1079 130
2 1080 137
2 1081 1153
2 1082 3
2 1083 253
2 1084 63
2 1085 30
2 1086 8
2 1087 219
2 1088 44
2 1089 132
2 1090 8
2 1091 5
2 1092 71
2 1093 42
2 1094 85
2 1095 240
2 1096 11
2 1097 14
2 1098 7
2 1099 28
2 1100 149
2 1101 100
2 1102 11
2 1103 56
2 1104 2
2 1105 69
2 1106 13
2 1107 111
2 1108 192
2 1109 169
2 1110 5
2 1111 38
2 1112 1
2 1113 9
2 1114 10
2 1115 6
2 1116 46
2 1117 6
2 1118 41
2 1119 4
2 1120 66
2 1121 5
2 1122 4
2 1123 107
2 1124 5
2 1125 5
2 1126 7
2 1127 8
2 1128 4
2 1129 198
2 1130 23
2 1131 3
2 1132 14
2 1133 203
2 1134 5
2 1135 7
2 1136 103
2 1137 163
2 1138 1
2 1139 71
2 1140 75
2 1141 1036
2 1142 139
2 1143 81
2 1144 5
2 1145 186
2 1146 7
2 1147 7
2 1148 63
2 1149 123
2 1150 66
2 1151 68
2 1152 67
2 1153 60
2 1154 80
2 1155 43
2 1156 5
2 1157 8
2 1158 114
2 1159 42
2 1160 9
2 1161 175
2 1162 88
2 1163 1011
2 1164 2
2 1165 48
2 1166 2
2 1167 127
2 1168 10
2 1169 5
2 1170 39
2 1171 5
2 1172 25
2 1173 3
2 1174 32
2 1175 136
2 1176 7
2 1177 30
2 1178 33
2 1179 52
2 1180 2
2 1181 178
2 1182 10
2 1183 65
2 1184 86
2 1185 110
2 1186 99
2 1187 3
2 1188 406
2 1189 4
2 1190 6
2 1191 106
2 1192 10
2 1193 42
2 1194 7
2 1195 7
2 1196 102
2 1197 5
2 1198 8
2 1199 59
2 1200 9
2 1201 9
2 1202 6
2 1203 57
2 1204 9
2 1205 7
2 1206 39
2 1207 7
2 1208 41
2 1209 4
2 1210 3
2 1211 160
2 1212 7
2 1213 61
2 1214 71
2 1215 125
2 1216 1053
2 1217 913
2 1218 82
2 1219 4
2 1220 101
2 1221 103
2 1222 89
2 1223 13
2 1224 1008
2 1225 7
2 1226 59
2 1227 1
2 1228 15
2 1229 6
2 1230 6
2 1231 95
2 1232 8
2 1233 4
2 1234 42
2 1235 7
2 1236 59
2 1237 146
2 1238 11
2 1239 72
2 1240 84
2 1241 70
2 1242 4
2 1243 5
2 1244 76
2 1245 64
2 1246 6
2 1247 70
2 1248 5
2 1249 1201
2 1250 1
2 1251 117
2 1252 58
2 1253 8
2 1254 2
2 1255 75
2 1256 7
2 1257 106
2 1258 29
2 1259 59
2 1260 360
2 1261 4
2 1262 64
2 1263 27
2 1264 45
2 1265 35
2 1266 993
2 1267 5
2 1268 2
2 1269 50
2 1270 6
2 1271 42
2 1272 44
2 1273 5
2 1274 6
2 1275 9
2 1276 11
2 1277 57
2 1278 28
2 1279 5
2 1280 2
2 1281 112
2 1282 94
2 1283 95
2 1284 108
2 1285 6
2 1286 10
2 1287 7
2 1288 87
2 1289 27
2 1290 49
2 1291 85
2 1292 47
2 1293 81
2 1294 31
2 1295 9
2 1296 130
2 1297 133
2 1298 73
2 1299 4
2 1300 6
2 1301 448
2 1302 40
2 1303 14
2 1304 66
2 1305 18
2 1306 4
2 1307 34
2 1308 63
2 1309 80
2 1310 9
2 1311 1130
2 1312 163
2 1313 4
2 1314 85
2 1315 105
2 1316 6
2 1317 17
2 1318 6
2 1319 156
2 1320 7
2 1321 37
2 1322 15
2 1323 5
2 1324 70
2 1325 163
2 1326 2
2 1327 140
2 1328 120
2 1329 155
2 1330 54
2 1331 6
2 1332 130
2 1333 12
2 1334 7
2 1335 5
2 1336 64
2 1337 4
2 1338 70
2 1339 6
2 1340 11
2 1341 8
2 1342 15
2 1343 8
2 1344 9
2 1345 94
2 1346 5
2 1347 67
2 1348 133
2 1349 115
2 1350 1181
2 1351 71
2 1352 61
2 1353 127
2 1354 41
2 1355 46
2 1356 422
2 1357 4
2 1358 32
2 1359 814
2 1360 7
2 1361 78
2 1362 102
2 1363 5
2 1364 10
2 1365 38
2 1366 44
2 1367 36
2 1368 112
2 1369 32
2 1370 103
2 1371 4
2 1372 8
2 1373 171
2 1374 99
2 1375 99
2 1376 6
2 1377 102
2 1378 63
2 1379 88
2 1380 9
2 1381 46
2 1382 5
2 1383 6
2 1384 58
2 1385 10
2 1386 4
2 1387 81
2 1388 5
2 1389 24
2 1390 108
2 1391 59
2 1392 36
2 1393 53
2 1394 7
2 1395 951
2 1396 698
2 1397 59
2 1398 6
2 1399 11
2 1400 209
2 1401 5
2 1402 6
2 1403 60
2 1404 121
2 1405 137
2 1406 92
2 1407 2
2 1408 73
2 1409 6
2 1410 8
2 1411 117
2 1412 8
2 1413 92
2 1414 55
2 1415 6
2 1416 40
2 1417 12
2 1418 1
2 1419 66
2 1420 6
2 1421 104
2 1422 6
2 1423 9
2 1424 9
2 1425 4
2 1426 147
2 1427 99
2 1428 105
2 1429 1215
2 1430 69
2 1431 813
2 1432 6
2 1433 8
2 1434 6
2 1435 4
2 1436 4
2 1437 16
2 1438 592
2 1439 2
2 1440 67
2 1441 6
2 1442 159
2 1443 52
2 1444 4
2 1445 147
2 1446 10
2 1447 76
2 1448 68
2 1449 55
2 1450 5
2 1451 57
2 1452 63
2 1453 261
2 1454 10
2 1455 19
2 1456 69
2 1457 52
2 1458 49
2 1459 50
2 1460 196
2 1461 9
2 1462 10
2 1463 7
2 1464 8
2 1465 9
2 1466 4
2 1467 70
2 1468 9
2 1469 10
2 1470 453
2 1471 81
2 1472 3
2 1473 11
2 1474 2
2 1475 263
2 1476 10
2 1477 57
2 1478 5
2 1479 2
2 1480 87
2 1481 44
2 1482 86
2 1483 85
2 1484 13
2 1485 42
2 1486 177
2 1487 98
2 1488 10
2 1489 10
2 1490 5
2 1491 4
2 1492 220
2 1493 9
2 1494 50
2 1495 8
2 1496 116
2 1497 67
2 1498 5
2 1499 7
2 1500 10
2 1501 6
2 1502 36
2 1503 9
2 1504 93
2 1505 565
2 1506 4
2 1507 5
2 1508 9
2 1509 34
2 1510 47
2 1511 7
2 1512 6
2 1513 16
2 1514 327
2 1515 129
2 1517 70
2 1518 8
2 1519 45
2 1520 39
2 1521 1126
2 1522 17
2 1523 425
2 1524 6
2 1525 4
2 1526 89
2 1527 95
2 1528 9
2 1529 65
2 1530 116
2 1531 69
2 1532 11
2 1533 118
2 1534 6
2 1535 134
2 1536 4
2 1537 109
2 1538 146
2 1539 3
2 1540 58
2 1541 3
2 1542 36
2 1543 49
2 1544 62
2 1545 56
2 1546 79
2 1548 9
2 1549 78
2 1550 1109
2 1551 9
2 1552 141
2 1553 6
2 1554 5
2 1555 3
2 1556 4
2 1557 594
2 1558 11
2 1559 97
2 1560 9
2 1561 2
2 1562 6
2 1563 4
2 1564 4
2 1565 9
2 1566 97
2 1567 3
2 1568 6
2 1569 37
2 1570 124
2 1571 9
2 1572 61
2 1573 4
2 1574 5
2 1575 9
2 1576 9
2 1577 27
2 1578 37
2 1579 6
2 1580 35
2 1581 46
2 1582 1279
2 1583 51
2 1584 66
2 1585 7
2 1586 137
2 1587 62
2 1588 78
2 1589 70
2 1590 191
2 1591 52
2 1592 1146
2 1593 2
2 1594 6
2 1595 12
2 1596 100
2 1597 94
2 1598 75
2 1599 43
2 1600 7
2 1601 9
2 1602 8
2 1603 3
2 1604 9
2 1605 127
2 1606 86
2 1607 164
2 1608 54
2 1609 4
2 1610 80
2 1611 36
2 1612 5
2 1613 2
2 1614 110
2 1615 96
2 1616 167
2 1617 21
2 1618 49
2 1619 8
2 1620 118
2 1621 43
2 1622 101
2 1623 4
2 1624 11
2 1625 68
2 1626 8
2 1627 5
2 1628 145
2 1629 140
2 1630 7
2 1631 4
2 1632 44
2 1633 3
2 1634 37
2 1635 7
2 1636 118
2 1637 130
2 1638 159
2 1639 123
2 1640 5
2 1641 50
2 1642 994
2 1643 58
2 1644 37
2 1645 58
2 1646 7
2 1647 10
2 1648 7
2 1649 6
2 1650 19
2 1651 37
2 1652 4
2 1653 2
2 1654 73
2 1655 10
2 1656 29
2 1657 12
2 1658 86
2 1659 95
2 1660 70
2 1661 104
2 1662 32
2 1663 36
2 1664 30
2 1665 33
2 1666 97
2 1667 118
2 1668 42
2 1669 198
2 1670 100
2 1671 7
2 1672 116
2 1673 6
2 1674 11
2 1675 22
2 1676 2
2 1677 88
2 1678 63
2 1679 524
2 1680 5
2 1681 16
2 1682 11
2 1683 61
2 1684 4
2 1685 8
2 1686 3
2 1687 117
2 1688 89
2 1689 265
2 1690 6
2 1691 6
2 1692 67
2 1693 16
2 1694 46
2 1695 57
2 1696 9
2 1697 80
2 1698 113
2 1699 7
2 1700 7
2 1701 4
2 1702 107
2 1703 49
2 1704 4
2 1705 44
2 1706 88
2 1707 12
2 1708 88
2 1709 34
2 1710 35
2 1711 28
2 1712 111
2 1713 59
2 1714 50
2 1715 70
2 1716 76
2 1717 6
2 1718 12
2 1719 64
2 1720 42
2 1721 970
2 1722 128
2 1723 10
2 1724 4
2 1725 109
2 1726 524
2 1727 171
2 1728 65
2 1729 8
2 1730 9
2 1731 7
2 1732 31
2 1733 91
2 1734 12
2 1735 41
2 1736 85
2 1737 5
2 1738 7
2 1739 34
2 1740 41
2 1741 5
2 1742 9
2 1743 77
2 1744 107
2 1745 111
2 1746 7
2 1747 150
2 1748 121
2 1749 189
2 1750 69
2 1751 2
2 1752 95
2 1753 4
2 1754 5
2 1755 4
2 1756 7
2 1757 153
2 1758 7
2 1759 82
2 1760 62
2 1761 147
2 1762 135
2 1763 1230
2 1764 1
2 1765 119
2 1766 6
2 1767 99
2 1768 190
2 1769 70
2 1770 61
2 1771 99
2 1772 10
2 1773 83
2 1774 94
2 1775 2
2 1776 36
2 1777 59
2 1778 4
2 1779 4
2 1780 9
2 1781 499
2 1782 12
2 1783 7
2 1784 99
2 1785 6
2 1786 10
2 1787 40
2 1788 985
2 1789 3
2 1790 67
2 1791 1243
2 1792 7
2 1793 21
2 1794 68
2 1795 119
2 1796 7
2 1797 14
2 1798 5
2 1799 121
2 1800 58
2 1801 4
2 1802 2
2 1803 916
2 1804 4
2 1805 5
2 1806 4
2 1807 751
2 1808 82
2 1809 5
2 1810 7
2 1811 68
2 1812 6
2 1813 41
2 1814 5
2 1815 7
2 1816 77
2 1817 93
2 1818 42
2 1819 48
2 1820 64
2 1821 126
2 1822 9
2 1823 78
2 1824 34
2 1825 9
2 1826 54
2 1827 7
2 1828 11
2 1829 1
2 1830 4
2 1831 96
2 1832 60
2 1833 70
2 1834 6
2 1835 6
2 1836 5
2 1837 54
2 1838 146
2 1839 9
2 1840 8
2 1841 3
2 1842 2
2 1843 3
2 1844 134
2 1845 8
2 1846 121
2 1847 51
2 1848 52
2 1849 135
2 1850 67
2 1851 107
2 1852 95
2 1853 7
2 1854 144
2 1855 2
2 1856 99
2 1857 126
2 1858 5
2 1859 55
2 1860 4
2 1861 4
2 1862 2
2 1863 80
2 1864 3
2 1865 6
2 1866 51
2 1867 44
2 1868 84
2 1869 4
2 1870 4
2 1871 6
2 1872 9
2 1873 6
2 1874 94
2 1875 7
2 1876 91
2 1877 5
2 1878 97
2 1879 2
2 1880 8
2 1881 9
2 1882 25
2 1883 71
2 1884 78
2 1885 32
2 1886 151
2 1887 83
2 1888 72
2 1889 138
2 1890 4
2 1891 2
2 1892 5
2 1893 2
2 1894 3
2 1895 411
2 1896 12
2 1897 200
2 1898 38
2 1899 7
2 1900 8
2 1901 95
2 1902 93
2 1903 9
2 1904 6
2 1905 118
2 1906 6
2 1907 164
2 1908 7
2 1909 105
2 1910 9
2 1911 129
2 1912 131
2 1913 8
2 1914 54
2 1915 514
2 1916 30
2 1917 4
2 1918 62
2 1919 115
2 1920 7
2 1921 123
2 1922 11
2 1923 7
2 1924 6
2 1925 121
2 1926 105
2 1927 10
2 1928 72
2 1929 3
2 1930 7
2 1931 101
2 1932 88
2 1933 10
2 1934 9
2 1935 4
2 1936 33
2 1937 7
2 1938 49
2 1939 100
2 1940 80
2 1941 103
2 1942 202
2 1943 45
2 1944 92
2 1945 11
2 1946 6
2 1947 91
2 1948 4
2 1949 8
2 1950 6
2 1951 173
2 1952 41
2 1953 4
2 1954 5
2 1955 4
2 1956 137
2 1957 6
2 1958 2
2 1959 7
2 1960 33
2 1961 7
2 1962 4
2 1963 91
2 1964 40
2 1965 13
2 1966 179
2 1967 592
2 1968 112
2 1969 156
2 1970 29
2 1971 5
2 1972 3
2 1973 6
2 1974 3
2 1975 38
2 1976 163
2 1977 86
2 1978 90
2 1979 2
2 1980 5
2 1981 81
2 1982 49
2 1983 13
2 1984 14
2 1985 146
2 1986 5
2 1987 54
2 1988 24
2 1989 5
2 1990 11
2 1991 3
2 1992 13
2 1993 60
2 1994 59
2 1995 3
2 1996 1
2 1997 8
2 1998 5
2 1999 8
2 2000 101
2 2001 3
2 2002 45
2 2003 5
2 2005 73
2 2006 47
2 2007 40
2 2008 31
2 2010 65
2 2011 26
2 2012 34
2 2013 13
2 2014 1
2 2016 2
2 2017 14
2 2018 1110
2 2019 7
2 2020 3
2 2021 82
2 2022 9
2 2023 6
2 2024 92
2 2025 57
2 2026 52
2 2027 75
2 2028 5
2 2029 10
2 2030 57
2 2031 55
2 2032 11
2 2033 117
2 2034 171
2 2035 84
2 2036 6
2 2037 40
2 2038 3
2 2039 81
2 2040 114
2 2041 121
2 2042 56
2 2043 10
2 2044 118
2 2045 6
2 2046 64
2 2047 173
2 2048 4
2 2049 93
2 2050 173
2 2051 4
2 2052 6
2 2053 7
2 2054 126
2 2055 47
2 2056 6
2 2057 6
2 2058 165
2 2059 55
2 2060 51
2 2061 11
2 2062 52
2 2063 5
2 2064 54
2 2065 50
2 2066 99
2 2067 9
2 2068 91
2 2069 27
2 2070 37
2 2071 7
2 2072 49
2 2073 534
2 2074 30
2 2075 139
2 2076 2
2 2077 6
2 2078 20
2 2079 1
2 2080 182
2 2081 107
2 2082 140
2 2083 10
2 2084 2
2 2085 1169
2 2086 5
2 2087 251
2 2088 37
2 2089 5
2 2090 7
2 2091 104
2 2092 6
2 2093 7
2 2094 3
2 2095 9
2 2096 80
2 2097 15
2 2098 5
2 2099 166
2 2100 4
2 2101 41
2 2102 35
2 2103 5
2 2104 3
2 2105 10
2 2106 115
2 2107 67
2 2108 10
2 2109 11
2 2110 34
2 2111 122
2 2112 12
2 2113 3
2 2114 4
2 2115 10
2 2116 2
2 2117 8
2 2118 9
2 2119 7
2 2120 4
2 2121 4
2 2122 4
2 2123 4
2 2124 28
2 2125 86
2 2126 20
2 2127 2
2 2128 4
2 2129 118
2 2130 3
2 2131 51
2 2132 7
2 2133 24
2 2134 68
2 2135 3
2 2136 8
2 2137 4
2 2138 59
2 2139 9
2 2140 3
2 2141 1
2 2142 13
2 2143 193
2 2144 68
2 2145 6
2 2146 70
2 2147 91
2 2148 155
2 2149 5
2 2150 8
2 2151 9
2 2152 2
2 2153 3
2 2154 3
2 2155 63
2 2156 69
2 2157 184
2 2158 60
2 2159 9
2 2160 26
2 2161 9
2 2162 109
2 2163 4
2 2164 4
2 2165 60
2 2166 119
2 2167 84
2 2168 8
2 2169 108
2 2170 145
2 2171 1251
2 2173 16
2 2174 116
2 2175 70
2 2176 10
2 2177 154
2 2178 7
2 2179 52
2 2180 95
2 2181 95
2 2182 6
2 2183 25
2 2184 50
2 2185 3
2 2186 8
2 2187 56
2 2188 41
2 2189 78
2 2190 11
2 2191 45
2 2192 56
2 2193 7
2 2194 161
2 2195 10
2 2196 72
2 2197 70
2 2198 106
2 2199 536
2 2200 112
2 2201 7
2 2202 110
2 2203 57
2 2204 69
2 2205 4
2 2206 1157
2 2207 1
2 2208 4
2 2209 44
2 2210 45
2 2211 8
2 2212 106
2 2213 96
2 2214 5
2 2215 82
2 2216 6
2 2217 58
2 2218 88
2 2219 45
2 2220 56
2 2221 4
2 2222 6
2 2223 11
2 2224 123
2 2225 178
2 2226 5
2 2227 3
2 2228 243
2 2229 38
2 2230 115
2 2231 9
2 2232 11
2 2233 4
2 2234 56
2 2235 143
2 2236 4
2 2237 79
2 2238 40
2 2239 7
2 2240 3
2 2241 32
2 2242 26
2 2243 198
2 2244 8
2 2245 7
2 2246 1
2 2247 7
2 2248 4
2 2249 5
2 2250 97
2 2251 88
2 2252 6
2 2253 1
2 2254 2
2 2255 452
2 2256 3
2 2257 8
2 2258 152
2 2259 85
2 2260 158
2 2261 27
2 2262 137
2 2263 2
2 2264 2
2 2265 7
2 2266 31
2 2267 95
2 2268 45
2 2269 102
2 2270 37
2 2271 12
2 2272 6
2 2273 5
2 2274 75
2 2275 104
2 2276 7
2 2277 3
2 2278 1050
2 2279 16
2 2280 5
2 2281 9
2 2282 101
2 2283 95
2 2284 25
2 2285 31
2 2286 9
2 2287 4
2 2288 66
2 2289 257
2 2290 60
2 2291 7
2 2292 93
2 2293 5
2 2294 5
2 2295 41
2 2296 55
2 2297 17
2 2298 27
2 2299 5
2 2300 4
2 2301 2
2 2302 5
2 2303 5
2 2304 114
2 2305 9
2 2306 7
2 2307 45
2 2308 15
2 2309 5
2 2310 5
2 2311 42
2 2312 129
2 2313 9
2 2314 7
2 2315 9
2 2316 8
2 2317 83
2 2318 81
2 2319 91
2 2320 2
2 2321 534
2 2322 107
2 2323 8
2 2324 7
2 2325 1
2 2326 5
2 2327 8
2 2328 87
2 2329 5
2 2330 8
2 2331 109
2 2332 136
2 2333 1
2 2334 1
2 2335 172
2 2336 6
2 2337 10
2 2338 118
2 2339 3
2 2340 4
2 2341 29
2 2342 1
2 2343 4
2 2344 602
2 2345 9
2 2346 6
2 2347 114
2 2348 7
2 2349 63
2 2350 28
2 2351 134
2 2352 8
2 2353 3
2 2354 64
2 2355 7
2 2356 7
2 2357 8
2 2358 12
2 2359 77
2 2360 66
2 2361 32
2 2362 4
2 2363 44
2 2364 155
2 2365 32
2 2366 6
2 2367 144
2 2368 12
2 2369 105
2 2370 139
2 2371 99
2 2372 7
2 2373 3
2 2374 58
2 2375 7
2 2376 7
2 2377 4
2 2378 6
2 2379 63
2 2380 10
2 2381 9
2 2382 5
2 2383 53
2 2384 9
2 2385 6
2 2386 30
2 2387 14
2 2388 29
2 2389 29
2 2390 126
2 2391 111
2 2392 6
2 2393 43
2 2394 10
2 2395 54
2 2396 47
2 2397 58
2 2398 9
2 2399 62
2 2400 9
2 2401 8
2 2402 8
2 2403 39
2 2404 1233
2 2405 78
2 2406 42
2 2407 138
2 2408 40
2 2409 6
2 2410 166
2 2411 4
2 2412 6
2 2413 1125
2 2414 52
2 2415 668
2 2416 8
2 2417 27
2 2418 13
2 2419 9
2 2420 4
2 2421 38
2 2422 2
2 2423 80
2 2424 12
2 2425 4
2 2426 6
2 2427 131
2 2428 23
2 2429 9
2 2430 7
2 2431 12
2 2432 9
2 2433 13
2 2434 9
2 2435 4
2 2436 6
2 2437 75
2 2438 6
2 2439 9
2 2440 19
2 2441 10
2 2442 1203
2 2443 2
2 2444 13
2 2445 11
2 2446 10
2 2447 36
2 2448 2
2 2449 7
2 2450 10
2 2451 48
2 2452 2
2 2453 9
2 2454 2
2 2455 66
2 2456 9
2 2457 2
2 2458 33
2 2459 6
2 2460 1
2 2461 1042
2 2462 60
2 2463 5
2 2464 10
2 2465 94
2 2466 7
2 2467 132
2 2468 13
2 2469 109
2 2470 185
2 2471 112
2 2472 4
2 2473 8
2 2474 77
2 2475 8
2 2476 2
2 2477 7
2 2478 142
2 2479 909
2 2480 73
2 2481 54
2 2482 4
2 2483 81
2 2484 118
2 2485 95
2 2486 87
2 2487 151
2 2488 2
2 2489 4
2 2490 50
2 2491 40
2 2492 2
2 2493 26
2 2494 43
2 2495 48
2 2496 119
2 2497 367
2 2498 73
2 2499 113
2 2500 4
2 2501 98
2 2502 124
2 2503 12
2 2504 2
2 2505 13
2 2506 6
2 2507 46
2 2508 4
2 2509 49
2 2510 47
2 2511 11
2 2512 10
2 2513 74
2 2514 73
2 2515 10
2 2516 6
2 2517 154
2 2518 5
2 2519 3
2 2520 18
2 2521 12
2 2522 132
2 2523 5
2 2524 7
2 2525 6
2 2526 126
2 2527 61
2 2528 3
2 2529 51
2 2530 139
2 2531 3
2 2532 228
2 2533 200
2 2534 13
2 2535 7
2 2536 71
2 2537 60
2 2538 47
2 2539 131
2 2540 29
2 2541 1187
2 2542 73
2 2543 9
2 2544 4
2 2545 28
2 2546 7
2 2547 5
2 2548 963
2 2549 1179
2 2550 80
2 2551 60
2 2552 35
2 2553 10
2 2554 7
2 2555 154
2 2556 2
2 2557 2
2 2558 119
2 2559 92
2 2560 8
2 2561 105
2 2562 4
2 2563 5
2 2564 73
2 2565 5
2 2566 201
2 2567 136
2 2568 18
2 2569 15
2 2570 3
2 2571 339
2 2572 135
2 2573 9
2 2574 35
2 2575 86
2 2576 11
2 2577 32
2 2578 336
2 2579 5
2 2580 6
2 2581 5
2 2582 5
2 2583 10
2 2584 7
2 2585 931
2 2586 360
2 2587 64
2 2588 106
2 2589 8
2 2590 2
2 2591 6
2 2592 77
2 2593 12
2 2594 7
2 2595 14
2 2596 2
2 2597 3
2 2598 145
2 2599 6
2 2600 6
2 2601 6
2 2602 11
2 2603 72
2 2604 191
2 2605 8
2 2606 78
2 2607 9
2 2608 10
2 2609 40
2 2610 159
2 2611 6
2 2612 5
2 2613 113
2 2614 25
2 2615 4
2 2616 5
2 2617 29
2 2618 2
2 2619 29
2 2620 133
2 2621 7
2 2622 16
2 2623 58
2 2624 2
2 2625 3
2 2626 2
2 2627 10
2 2628 5
2 2629 60
2 2630 1103
2 2631 6
2 2632 70
2 2633 852
2 2634 2
2 2635 88
2 2636 122
2 2637 7
2 2638 44
2 2639 5
2 2640 60
2 2641 36
2 2642 132
2 2643 47
2 2644 7
2 2645 113
2 2646 10
2 2647 8
2 2648 7
2 2649 4
2 2650 7
2 2651 59
2 2652 6
2 2653 50
2 2654 2
2 2655 877
2 2656 5
2 2657 5
2 2658 167
2 2659 49
2 2660 73
2 2661 73
2 2662 3
2 2663 6
2 2664 101
2 2665 135
2 2666 11
2 2667 4
2 2668 4
2 2669 5
2 2670 43
2 2671 8
2 2672 2
2 2673 11
2 2674 11
2 2675 1
2 2676 137
2 2677 82
2 2678 4
2 2679 9
2 2680 77
2 2681 85
2 2682 11
2 2683 43
2 2684 4
2 2685 155
2 2686 84
2 2687 4
2 2688 3
2 2689 94
2 2690 60
2 2691 7
2 2692 18
2 2693 64
2 2694 129
2 2695 9
2 2696 11
2 2697 10
2 2698 6
2 2699 199
2 2700 5
2 2701 450
2 2702 61
2 2703 13
2 2704 171
2 2705 4
2 2706 78
2 2707 8
2 2708 57
2 2709 121
2 2710 5
2 2711 9
2 2712 11
2 2713 2
2 2714 9
2 2715 6
2 2716 27
2 2717 8
2 2718 101
2 2719 4
2 2720 8
2 2721 2
2 2722 8
2 2723 12
2 2724 5
2 2725 7
2 2726 5
2 2727 4
2 2728 5
2 2729 8
2 2730 9
2 2731 6
2 2732 69
2 2733 43
2 2734 79
2 2735 11
2 2736 194
2 2737 837
2 2738 4
2 2739 42
2 2740 66
2 2741 185
2 2742 50
2 2743 78
2 2744 233
2 2745 9
2 2746 161
2 2747 221
2 2748 80
2 2749 8
2 2750 29
2 2751 4
2 2752 45
2 2753 6
2 2754 91
2 2755 3
2 2756 114
2 2757 42
2 2758 5
2 2759 629
2 2760 8
2 2761 5
2 2762 7
2 2763 17
2 2764 8
2 2765 179
2 2766 8
2 2767 115
2 2768 9
2 2769 45
2 2770 3
2 2771 7
2 2772 50
2 2773 6
2 2774 5
2 2775 7
2 2776 110
2 2777 125
2 2778 6
2 2779 3
2 2780 6
2 2781 158
2 2782 89
2 2783 817
2 2784 1301
2 2785 9
2 2786 49
2 2787 55
2 2788 44
2 2789 9
2 2790 95
2 2791 62
2 2792 5
2 2793 27
2 2794 12
2 2795 80
2 2796 97
2 2797 4
2 2798 74
2 2799 1073
2 2800 7
2 2801 5
2 2802 20
2 2803 161
2 2804 113
2 2805 101
2 2806 154
2 2807 7
2 2808 7
2 2809 5
2 2810 9
2 2811 54
2 2812 6
2 2813 14
2 2814 49
2 2815 78
2 2816 89
2 2817 25
2 2818 59
2 2819 55
2 2820 7
2 2821 79
2 2822 7
2 2823 12
2 2824 8
2 2825 4
2 2826 11
2 2827 4
2 2828 6
2 2829 75
2 2830 10
2 2831 10
2 2832 149
2 2833 88
2 2834 5
2 2835 4
2 2836 125
2 2837 17
2 2838 68
2 2839 163
2 2840 69
2 2841 31
2 2842 7
2 2843 1177
2 2844 4
2 2845 5
2 2846 3
2 2847 160
2 2848 41
2 2849 48
2 2850 70
2 2851 2
2 2852 95
2 2853 100
2 2854 54
2 2855 592
2 2856 116
2 2857 47
2 2858 105
2 2859 4
2 2860 60
2 2861 134
2 2862 885
2 2863 1
2 2864 37
2 2865 71
2 2866 4
2 2867 107
2 2868 47
2 2869 198
2 2870 7
2 2871 8
2 2872 8
2 2873 14
2 2874 15
2 2875 965
2 2876 9
2 2877 53
2 2878 5
2 2879 5
2 2880 110
2 2881 47
2 2882 107
2 2883 85
2 2884 168
2 2885 6
2 2886 102
2 2887 4
2 2888 6
2 2889 71
2 2890 5
2 2891 53
2 2892 21
2 2893 129
2 2894 113
2 2895 7
2 2896 29
2 2897 4
2 2898 7
2 2899 38
2 2900 4
2 2901 36
2 2902 9
2 2903 15
2 2904 6
2 2905 103
2 2906 3
2 2907 538
2 2908 30
2 2909 3
2 2910 49
2 2911 42
2 2912 10
2 2913 21
2 2914 117
2 2915 5
2 2916 64
2 2917 39
2 2918 5
2 2919 7
2 2920 88
2 2921 11
2 2922 3
2 2923 8
2 2924 61
2 2925 7
2 2926 3
2 2927 187
2 2928 10
2 2929 36
2 2930 63
2 2931 7
2 2932 4
2 2933 5
2 2934 12
2 2935 1
2 2936 63
2 2937 7
2 2938 19
2 2939 13
2 2940 8
2 2941 9
2 2942 6
2 2943 4
2 2944 12
2 2945 47
2 2946 127
2 2947 10
2 2948 4
2 2949 47
2 2950 17
2 2951 12
2 2952 5
2 2953 1
2 2954 107
2 2955 72
2 2956 7
2 2957 99
2 2958 51
2 2959 46
2 2960 63
2 2961 12
2 2962 3
2 2963 56
2 2964 174
2 2965 135
2 2966 12
2 2967 111
2 2968 16
2 2969 57
2 2970 7
2 2971 72
2 2972 18
2 2973 82
2 2974 44
2 2975 199
2 2976 7
2 2977 30
2 2978 6
2 2979 30
2 2980 3
2 2981 4
2 2982 5
2 2983 100
2 2984 11
2 2985 4
2 2986 5
2 2987 7
2 2988 77
2 2989 2
2 2990 11
2 2991 3
2 2992 44
2 2993 41
2 2994 10
2 2995 3
2 2996 65
2 2997 16
2 2998 35
2 2999 34
2 3000 57
2 3001 6
2 3002 3
2 3003 31
2 3004 4
2 3005 46
2 3006 4
2 3007 7
2 3008 8
2 3009 6
2 3010 4
2 3011 48
2 3012 7
2 3013 6
2 3014 2
2 3015 46
2 3016 6
2 3017 68
2 3018 115
2 3019 8
2 3020 9
2 3021 7
2 3022 9
2 3023 6
2 3024 112
2 3025 931
2 3026 1049
2 3027 70
2 3028 4
2 3029 64
2 3030 30
2 3031 3
2 3032 5
2 3033 128
2 3034 4
2 3035 99
2 3036 7
2 3037 10
2 3038 90
2 3039 6
2 3040 50
2 3041 5
2 3042 40
2 3043 70
2 3044 135
2 3045 89
2 3046 27
2 3047 7
2 3048 5
2 3049 174
2 3050 7
2 3051 6
2 3052 68
2 3053 151
2 3054 32
2 3055 5
2 3056 80
2 3057 8
2 3058 162
2 3059 3
2 3060 41
2 3061 91
2 3062 5
2 3063 60
2 3064 6
2 3065 80
2 3066 119
2 3067 6
2 3068 7
2 3069 62
2 3070 934
2 3071 1058
2 3072 90
2 3073 97
2 3074 114
2 3075 10
2 3076 899
2 3077 59
2 3078 11
2 3079 8
2 3080 22
2 3081 50
2 3082 162
2 3083 77
2 3084 37
2 3085 2
2 3086 10
2 3087 5
2 3088 10
2 3089 7
2 3090 5
2 3091 51
2 3092 3
2 3093 104
2 3094 5
2 3095 14
2 3096 10
2 3097 4
2 3098 107
2 3099 78
2 3100 1
2 3101 64
2 3103 8
2 3104 11
2 3105 127
2 3106 40
2 3107 127
2 3108 112
2 3109 84
2 3110 4
2 3111 11
2 3112 104
2 3113 81
2 3114 5
2 3115 9
2 3116 8
2 3117 64
2 3118 523
2 3119 20
2 3120 32
2 3121 116
2 3122 86
2 3123 6
2 3124 2
2 3125 5
2 3126 1
2 3127 74
2 3128 699
2 3129 8
2 3130 1263
2 3131 69
2 3132 15
2 3133 85
2 3134 33
2 3135 93
2 3136 9
2 3137 72
2 3138 7
2 3139 52
2 3140 97
2 3141 6
2 3142 67
2 3143 1110
2 3144 171
2 3145 85
2 3146 48
2 3147 86
2 3148 214
2 3149 13
2 3150 192
2 3151 7
2 3152 7
2 3153 72
2 3154 116
2 3155 5
2 3156 124
2 3157 10
2 3158 60
2 3159 3
2 3160 23
2 3161 66
2 3162 5
2 3163 7
2 3164 6
2 3165 133
2 3166 38
2 3167 52
2 3168 67
2 3169 3
2 3170 73
2 3171 41
2 3172 121
2 3173 5
2 3174 4
2 3176 101
2 3177 88
2 3178 9
2 3179 3
2 3180 5
2 3181 6
2 3182 5
2 3183 98
2 3184 16
2 3185 6
2 3186 6
2 3187 5
2 3188 69
2 3189 101
2 3190 85
2 3191 4
2 3192 26
2 3193 72
2 3194 10
2 3195 1131
2 3196 130
2 3197 2
2 3198 81
2 3199 114
2 3200 3
2 3201 8
2 3202 658
2 3203 6
2 3204 15
2 3205 63
2 3206 3
2 3207 16
2 3208 76
2 3209 67
2 3210 8
2 3211 38
2 3212 5
2 3213 7
2 3214 7
2 3215 8
2 3216 39
2 3217 25
2 3218 8
2 3219 19
2 3220 416
2 3221 40
2 3222 64
2 3223 7
2 3224 8
2 3225 3
2 3226 7
2 3227 4
2 3228 3
2 3229 9
2 3230 97
2 3231 10
2 3232 94
2 3233 75
2 3234 13
2 3235 9
2 3236 47
2 3237 126
2 3238 9
2 3239 6
2 3240 109
2 3241 45
2 3242 6
2 3243 52
2 3244 51
2 3245 70
2 3246 101
2 3247 7
2 3248 90
2 3249 40
2 3250 105
2 3251 4
2 3252 88
2 3253 3
2 3254 42
2 3255 3
2 3256 114
2 3257 5
2 3258 6
2 3259 91
2 3260 4
2 3261 7
2 3262 48
2 3263 10
2 3264 43
2 3265 75
2 3266 9
2 3267 10
2 3268 5
2 3269 5
2 3270 3
2 3271 95
2 3272 8
2 3273 10
2 3274 163
2 3275 74
2 3276 81
2 3277 377
2 3278 3
2 3279 145
2 3280 3
2 3281 4
2 3282 15
2 3283 49
2 3284 36
2 3285 64
2 3286 8
2 3287 82
2 3289 16
2 3290 138
2 3291 56
2 3292 34
2 3293 35
2 3294 6
2 3295 10
2 3296 7
2 3297 132
2 3298 105
2 3299 45
2 3300 7
2 3301 12
2 3302 8
2 3303 1
2 3304 55
2 3305 3
2 3306 10
2 3307 33
2 3308 5
2 3309 9
2 3310 3
2 3311 61
2 3312 26
2 3313 5
2 3314 3
2 3315 7
2 3316 44
2 3317 60
2 3318 257
2 3319 586
2 3320 57
2 3321 4
2 3322 1008
2 3323 4
2 3324 63
2 3325 15
2 3326 36
2 3327 3
2 3328 5
2 3329 15
2 3330 4
2 3331 3
2 3332 1
2 3333 99
2 3334 61
2 3335 122
2 3336 9
2 3337 156
2 3338 6
2 3339 411
2 3340 101
2 3341 8
2 3342 96
2 3343 4
2 3344 1192
2 3345 2
2 3346 57
2 3347 112
2 3348 113
2 3349 59
2 3350 108
2 3351 127
2 3352 12
2 3353 62
2 3354 3
2 3355 10
2 3356 45
2 3357 6
2 3358 5
2 3360 11
2 3361 12
2 3362 10
2 3363 11
2 3364 4
2 3365 6
2 3366 5
2 3367 136
2 3368 124
2 3369 40
2 3370 147
2 3371 89
2 3372 3
2 3373 64
2 3374 68
2 3375 62
2 3376 1247
2 3377 60
2 3378 8
2 3379 150
2 3380 6
2 3381 143
2 3382 38
2 3383 148
2 3384 41
2 3385 12
2 3386 3
2 3387 5
2 3388 7
2 3389 184
2 3390 7
2 3391 8
2 3392 5
2 3393 622
2 3394 8
2 3395 67
2 3396 12
2 3397 93
2 3398 82
2 3399 35
2 3400 43
2 3401 1
2 3402 121
2 3403 4
2 3404 98
2 3405 6
2 3406 5
2 3407 293
2 3408 62
2 3409 130
2 3410 104
2 3411 8
2 3412 1
2 3413 56
2 3414 654
2 3415 98
2 3416 3
2 3417 7
2 3418 107
2 3419 45
2 3420 61
2 3421 4
2 3422 9
2 3423 108
2 3424 32
2 3425 83
2 3427 143
2 3428 6
2 3429 31
2 3430 1118
2 3431 15
2 3432 4
2 3433 8
2 3434 6
2 3435 57
2 3436 6
2 3437 8
2 3438 43
2 3439 16
2 3440 9
2 3441 111
2 3442 41
2 3443 41
2 3444 12
2 3445 10
2 3446 5
2 3447 64
2 3448 209
2 3449 4
2 3450 6
2 3451 10
2 3452 12
2 3453 99
2 3454 75
2 3455 128
2 3456 91
2 3457 54
2 3458 5
2 3459 108
2 3460 6
2 3461 5
2 3462 6
2 3463 55
2 3464 3
2 3465 5
2 3466 9
2 3467 46
2 3468 4
2 3469 32
2 3470 11
2 3471 105
2 3472 6
2 3473 7
2 3474 8
2 3475 5
2 3476 1
2 3477 2
2 3478 233
2 3479 6
2 3480 120
2 3481 5
2 3483 6
2 3484 1
2 3485 20
2 3486 9
2 3487 8
2 3488 8
2 3489 38
2 3490 3
2 3491 51
2 3492 114
2 3493 69
2 3494 103
2 3495 4
2 3496 13
2 3497 107
2 3498 8
2 3499 7
2 3500 2
2 3501 145
2 3502 98
2 3503 6
2 3504 123
2 3505 78
2 3506 254
2 3507 10
2 3508 8
2 3509 5
2 3510 38
2 3511 57
2 3512 66
2 3513 129
2 3514 79
2 3515 49
2 3516 143
2 3517 12
2 3518 31
2 3519 36
2 3520 96
2 3521 2
2 3522 7
2 3523 4
2 3524 358
2 3525 48
2 3526 159
2 3527 33
2 3528 14
2 3529 6
2 3530 115
2 3531 10
2 3532 62
2 3533 5
2 3534 91
2 3535 17
2 3536 6
2 3537 56
2 3538 101
2 3539 7
2 3540 43
2 3541 3
2 3542 8
2 3543 49
2 3544 84
2 3545 10
2 3546 7
2 3547 5
2 3548 4
2 3549 104
2 3550 49
2 3551 5
2 3552 63
2 3553 103
2 3554 7
2 3555 6
2 3556 91
2 3557 4
2 3558 166
2 3559 3
2 3560 6
2 3561 1250
2 3562 87
2 3563 6
2 3564 5
2 3565 2
2 3566 10
2 3567 8
2 3568 8
2 3569 6
2 3570 1242
2 3571 7
2 3572 27
2 3573 45
2 3574 110
2 3575 104
2 3576 60
2 3577 55
2 3578 15
2 3579 10
2 3580 11
2 3581 118
2 3582 83
2 3583 5
2 3584 4
2 3585 3
2 3586 4
2 3587 9
2 3588 1245
2 3589 57
2 3590 9
2 3591 1012
2 3592 85
2 3593 58
2 3594 53
2 3595 65
2 3596 6
2 3597 5
2 3598 11
2 3599 19
2 3600 5
2 3601 9
2 3602 116
2 3603 12
2 3604 4
2 3605 1178
2 3606 4
2 3607 83
2 3608 111
2 3609 4
2 3610 73
2 3611 156
2 3612 101
2 3613 105
2 3614 86
2 3615 65
2 3616 3
2 3617 86
2 3618 955
2 3619 107
2 3620 9
2 3621 2
2 3622 4
2 3623 4
2 3624 4
2 3625 68
2 3626 49
2 3627 103
2 3628 76
2 3629 12
2 3630 9
2 3631 13
2 3632 34
2 3633 7
2 3634 66
2 3635 126
2 3636 7
2 3637 107
2 3638 1064
2 3639 811
2 3640 243
2 3641 77
2 3642 3
2 3643 6
2 3644 56
2 3645 16
2 3646 105
2 3647 9
2 3648 7
2 3649 4
2 3650 61
2 3651 4
2 3652 107
2 3653 5
2 3654 86
2 3655 131
2 3656 8
2 3657 8
2 3658 91
2 3659 93
2 3660 6
2 3661 19
2 3662 7
2 3663 123
2 3664 63
2 3665 6
2 3666 4
2 3667 7
2 3668 55
2 3669 246
2 3670 104
2 3671 4
2 3672 147
2 3673 9
2 3674 6
2 3675 128
2 3676 6
2 3677 60
2 3678 7
2 3679 137
2 3680 20
2 3681 91
2 3682 3
2 3683 3
2 3684 40
2 3685 81
2 3686 73
2 3687 59
2 3688 103
2 3689 5
2 3690 8
2 3691 293
2 3692 114
2 3693 4
2 3694 84
2 3695 3
2 3696 3
2 3697 9
2 3698 67
2 3699 21
2 3700 9
2 3701 308
2 3702 81
2 3703 17
2 3704 10
2 3705 175
2 3706 3
2 3707 67
2 3708 2
2 3709 5
2 3710 7
2 3711 107
2 3712 45
2 3713 44
2 3714 13
2 3715 109
2 3716 312
2 3717 22
2 3718 3
2 3719 5
2 3720 133
2 3721 8
2 3722 166
2 3723 32
2 3724 63
2 3725 87
2 3726 114
2 3727 54
2 3728 33
2 3729 2
2 3730 4
2 3731 4
2 3732 1214
2 3733 7
2 3734 5
2 3735 84
2 3736 7
2 3737 124
2 3738 4
2 3739 10
2 3740 97
2 3741 4
2 3742 95
2 3743 157
2 3744 5
2 3745 31
2 3746 51
2 3747 71
2 3748 6
2 3749 9
2 3750 48
2 3751 8
2 3752 10
2 3753 10
2 3754 4
2 3755 70
2 3756 6
2 3757 7
2 3758 4
2 3759 6
2 3760 9
2 3761 69
2 3762 585
2 3763 80
2 3764 57
2 3765 4
2 3766 39
2 3767 73
2 3768 111
2 3769 55
2 3770 105
2 3771 11
2 3772 8
2 3773 98
2 3774 3
2 3775 52
2 3776 243
2 3777 11
2 3778 13
2 3779 11
2 3780 158
2 3781 5
2 3782 3
2 3783 9
2 3784 7
2 3785 1118
2 3786 8
2 3787 136
2 3788 10
2 3789 86
2 3790 63
2 3791 65
2 3792 46
2 3793 51
2 3794 10
2 3795 6
2 3796 213
2 3797 7
2 3798 35
2 3799 112
2 3800 11
2 3801 67
2 3802 9
2 3803 5
2 3804 127
2 3805 8
2 3806 817
2 3807 18
2 3808 111
2 3809 66
2 3810 5
2 3811 22
2 3812 521
2 3813 8
2 3814 163
2 3815 146
2 3816 9
2 3817 135
2 3818 86
2 3819 32
2 3820 255
2 3821 4
2 3822 43
2 3823 7
2 3824 120
2 3825 77
2 3826 82
2 3827 931
2 3828 6
2 3829 7
2 3830 7
2 3831 72
2 3832 1
2 3833 5
2 3834 6
2 3835 3
2 3836 5
2 3837 130
2 3838 2
2 3839 7
2 3840 7
2 3841 14
2 3842 78
2 3843 8
2 3844 144
2 3845 3
2 3846 116
2 3847 15
2 3848 12
2 3849 7
2 3850 87
2 3851 5
2 3852 43
2 3853 6
2 3854 1130
2 3855 6
2 3856 42
2 3857 10
2 3858 121
2 3859 58
2 3860 4
2 3861 73
2 3862 8
2 3863 52
2 3864 8
2 3865 31
2 3866 1
2 3867 68
2 3868 86
2 3869 6
2 3870 9
2 3871 1222
2 3872 101
2 3873 83
2 3874 18
2 3875 156
2 3876 68
2 3877 6
2 3878 2
2 3879 93
2 3880 66
2 3881 9
2 3882 89
2 3883 5
2 3884 59
2 3885 9
2 3886 8
2 3887 57
2 3888 3
2 3889 128
2 3890 36
2 3891 98
2 3892 41
2 3893 85
2 3894 5
2 3895 123
2 3896 7
2 3897 6
2 3898 5
2 3899 11
2 3900 4
2 3901 35
2 3902 6
2 3903 5
2 3904 55
2 3905 78
2 3906 49
2 3907 120
2 3908 2
2 3909 5
2 3910 55
2 3911 91
2 3912 31
2 3913 9
2 3914 106
2 3915 25
2 3916 103
2 3917 45
2 3918 15
2 3919 91
2 3920 6
2 3921 62
2 3922 76
2 3923 11
2 3924 89
2 3925 84
2 3926 10
2 3927 41
2 3928 6
2 3929 49
2 3930 10
2 3931 94
2 3932 51
2 3933 7
2 3934 125
2 3935 6
2 3936 80
2 3937 2
2 3938 188
2 3939 3
2 3940 5
2 3941 17
2 3942 91
2 3943 3
2 3944 92
2 3945 6
2 3946 148
2 3947 4
2 3948 45
2 3949 389
2 3950 3
2 3951 5
2 3952 9
2 3953 5
2 3954 11
2 3955 86
2 3956 68
2 3957 5
2 3958 89
2 3959 3
2 3960 3
2 3961 5
2 3962 158
2 3963 33
2 3964 7
2 3965 4
2 3966 3
2 3967 20
2 3968 136
2 3969 74
2 3970 3
2 3971 19
2 3972 8
2 3973 129
2 3974 69
2 3975 50
2 3976 7
2 3977 89
2 3978 24
2 3979 6
2 3980 70
2 3981 4
2 3982 17
2 3983 6
2 3984 1008
2 3985 7
2 3986 9
2 3987 187
2 3988 11
2 3989 120
2 3990 5
2 3991 2
2 3992 3
2 3993 73
2 3994 10
2 3995 3
2 3996 81
2 3997 40
2 3998 4
2 3999 7
2 4000 3
2 4001 122
2 4002 51
2 4003 10
2 4004 14
2 4005 865
2 4006 5
2 4007 36
2 4008 10
2 4009 51
2 4010 87
2 4011 9
2 4012 7
2 4013 127
2 4014 112
2 4015 871
2 4016 95
2 4017 85
2 4018 141
2 4019 45
2 4020 40
2 4021 5
2 4022 6
2 4023 151
2 4024 120
2 4025 5
2 4026 5
2 4027 56
2 4028 35
2 4029 47
2 4030 5
2 4031 13
2 4032 36
2 4033 86
2 4034 6
2 4035 1
2 4036 92
2 4037 32
2 4038 48
2 4039 139
2 4040 6
2 4041 9
2 4042 26
2 4043 48
2 4044 54
2 4045 8
2 4046 6
2 4047 117
2 4048 9
2 4049 4
2 4050 7
2 4051 38
2 4052 126
2 4053 53
2 4054 4
2 4055 117
2 4056 69
2 4057 6
2 4058 1
2 4059 3
2 4060 157
2 4061 4
2 4062 157
2 4063 1193
2 4064 37
2 4065 7
2 4066 184
2 4067 2
2 4068 6
2 4069 9
2 4070 4
2 4071 50
2 4072 7
2 4073 10
2 4074 982
2 4075 8
2 4076 8
2 4077 102
2 4078 3
2 4079 8
2 4080 3
2 4081 3
2 4082 7
2 4083 174
2 4084 122
2 4085 13
2 4086 5
2 4087 71
2 4088 73
2 4089 11
2 4090 173
2 4091 6
2 4092 5
2 4093 80
2 4094 131
2 4095 7
2 4096 51
2 4097 124
2 4098 42
2 4099 4
2 4100 9
2 4101 3
2 4102 39
2 4103 50
2 4104 12
2 4105 8
2 4106 67
2 4107 170
2 4108 3
2 4109 7
2 4110 3
2 4111 74
2 4112 9
2 4113 7
2 4114 8
2 4115 89
2 4116 59
2 4117 6
2 4118 5
2 4119 6
2 4120 178
2 4121 8
2 4122 51
2 4123 73
2 4124 135
2 4125 34
2 4126 5
2 4127 75
2 4128 8
2 4129 62
2 4130 6
2 4131 3
2 4132 2
2 4133 3
2 4134 2
2 4135 190
2 4136 37
2 4137 53
2 4139 48
2 4140 822
2 4141 24
2 4142 84
2 4143 4
2 4144 9
2 4145 68
2 4146 416
2 4147 5
2 4148 97
2 4149 66
2 4150 59
2 4151 5
2 4152 107
2 4153 42
2 4154 40
2 4155 1
2 4156 8
2 4157 57
2 4158 151
2 4159 5
2 4160 75
2 4161 88
2 4162 4
2 4163 4
2 4164 109
2 4165 44
2 4166 87
2 4167 2
2 4168 5
2 4169 98
2 4170 6
2 4171 2
2 4172 38
2 4173 13
2 4174 78
2 4175 7
2 4176 5
2 4177 6
2 4178 137
2 4179 15
2 4180 93
2 4181 67
2 4182 3
2 4183 474
2 4184 6
2 4185 6
2 4186 7
2 4187 6
2 4188 741
2 4189 3
2 4190 9
2 4191 49
2 4192 66
2 4193 30
2 4194 47
2 4195 8
2 4196 11
2 4197 9
2 4198 10
2 4199 52
2 4200 4
2 4201 134
2 4202 11
2 4203 77
2 4204 13
2 4205 112
2 4206 9
2 4207 2
2 4208 8
2 4209 10
2 4210 8
2 4211 279
2 4212 6
2 4213 6
2 4214 93
2 4215 23
2 4216 5
2 4217 2
2 4218 36
2 4219 6
2 4220 71
2 4221 31
2 4222 7
2 4223 6
2 4224 934
2 4225 85
2 4226 32
2 4227 161
2 4228 2
2 4229 53
2 4230 81
2 4232 6
2 4233 47
2 4234 4
2 4235 89
2 4236 36
2 4237 1219
2 4238 7
2 4239 34
2 4240 5
2 4241 87
2 4242 84
2 4243 73
2 4244 6
2 4245 7
2 4246 76
2 4247 133
2 4248 15
2 4249 79
2 4250 66
2 4251 131
2 4252 82
2 4253 38
2 4254 11
2 4255 99
2 4256 39
2 4257 13
2 4258 8
2 4259 197
2 4260 68
2 4261 6
2 4262 7
2 4263 7
2 4264 11
2 4265 14
2 4266 97
2 4267 4
2 4268 40
2 4269 230
2 4270 52
2 4271 170
2 4272 3
2 4273 79
2 4274 7
2 4275 3
2 4276 2
2 4277 48
2 4278 5
2 4279 127
2 4280 82
2 4281 2
2 4282 170
2 4283 27
2 4284 22
2 4285 26
2 4286 4
2 4287 79
2 4288 6
2 4289 94
2 4290 76
2 4291 34
2 4292 4
2 4293 6
2 4294 6
2 4295 8
2 4296 95
2 4297 111
2 4298 71
2 4299 50
2 4300 8
2 4301 7
2 4302 7
2 4303 939
2 4304 16
2 4305 78
2 4306 8
2 4307 155
2 4308 13
2 4309 80
2 4310 5
2 4311 102
2 4312 38
2 4313 3
2 4314 4
2 4315 3
2 4316 41
2 4317 6
2 4318 140
2 4319 5
2 4320 95
2 4321 2
2 4322 5
2 4323 3
2 4324 87
2 4325 63
2 4326 69
2 4327 4
2 4328 18
2 4329 9
2 4330 9
2 4331 4
2 4332 7
2 4333 8
2 4334 92
2 4335 6
2 4336 7
2 4337 54
2 4338 40
2 4339 104
2 4340 5
2 4341 887
2 4342 1051
2 4343 96
2 4344 7
2 4345 8
2 4346 44
2 4347 4
2 4348 8
2 4349 94
2 4350 3
2 4351 1163
2 4352 124
2 4353 5
2 4354 4
2 4355 4
2 4356 2
2 4357 42
2 4358 53
2 4359 11
2 4360 7
2 4361 63
2 4362 85
2 4363 4
2 4364 2
2 4365 101
2 4366 5
2 4367 68
2 4368 72
2 4369 8
2 4370 7
2 4371 26
2 4372 8
2 4373 82
2 4374 7
2 4375 49
2 4376 114
2 4377 7
2 4378 1
2 4379 8
2 4380 53
2 4381 5
2 4382 10
2 4383 91
2 4384 56
2 4385 78
2 4386 63
2 4387 77
2 4388 75
2 4389 7
2 4390 5
2 4391 102
2 4392 55
2 4393 9
2 4394 54
2 4395 68
2 4396 326
2 4397 101
2 4398 3
2 4399 6
2 4400 141
2 4401 7
2 4402 90
2 4403 46
2 4404 73
2 4406 121
2 4407 92
2 4408 228
2 4409 3
2 4410 5
2 4411 1136
2 4412 136
2 4413 1028
2 4414 142
2 4415 4
2 4416 28
2 4417 3
2 4418 50
2 4419 49
2 4420 5
2 4421 105
2 4422 153
2 4423 130
2 4424 21
2 4425 5
2 4426 67
2 4427 75
2 4428 6
2 4429 8
2 4430 95
2 4431 9
2 4432 136
2 4433 102
2 4434 83
2 4435 93
2 4436 10
2 4437 6
2 4438 10
2 4439 7
2 4440 6
2 4441 2
2 4442 184
2 4443 696
2 4444 6
2 4445 5
2 4446 95
2 4447 3
2 4448 43
2 4449 7
2 4450 4
2 4451 77
2 4452 2
2 4453 62
2 4454 101
2 4455 45
2 4456 29
2 4457 106
2 4458 142
2 4459 6
2 4460 120
2 4461 36
2 4462 64
2 4463 64
2 4464 18
2 4465 10
2 4466 94
2 4467 62
2 4468 56
2 4469 11
2 4470 53
2 4471 56
2 4472 1
2 4473 112
2 4474 96
2 4475 2
2 4476 14
2 4477 9
2 4478 95
2 4479 4
2 4480 78
2 4481 148
2 4482 168
2 4483 11
2 4484 54
2 4485 1245
2 4486 121
2 4487 10
2 4488 76
2 4489 81
2 4490 68
2 4491 11
2 4492 54
2 4493 10
2 4494 5
2 4495 3
2 4496 2
2 4497 18
2 4498 63
2 4499 6
2 4500 4
2 4501 82
2 4502 8
2 4503 96
2 4504 130
2 4505 42
2 4506 1034
2 4507 158
2 4508 85
2 4509 8
2 4510 3
2 4511 4
2 4512 62
2 4513 45
2 4514 54
2 4515 8
2 4516 4
2 4517 67
2 4518 836
2 4519 6
2 4520 90
2 4521 50
2 4522 6
2 4523 34
2 4524 91
2 4525 102
2 4526 142
2 4527 4
2 4528 3
2 4529 15
2 4530 6
2 4531 107
2 4532 1095
2 4533 1210
2 4534 8
2 4535 67
2 4536 111
2 4537 11
2 4538 11
2 4539 82
2 4540 96
2 4541 36
2 4542 4
2 4543 10
2 4544 47
2 4545 3
2 4546 139
2 4547 1244
2 4548 9
2 4549 11
2 4550 3
2 4551 51
2 4552 15
2 4553 41
2 4554 35
2 4555 143
2 4556 6
2 4557 110
2 4558 12
2 4559 198
2 4560 166
2 4561 5
2 4562 4
2 4563 1098
2 4564 4
2 4565 103
2 4566 1
2 4567 1
2 4568 119
2 4569 92
2 4570 11
2 4571 6
2 4572 31
2 4573 8
2 4574 100
2 4575 42
2 4576 6
2 4577 9
2 4578 5
2 4579 11
2 4580 81
2 4581 42
2 4582 50
2 4583 110
2 4584 6
2 4585 88
2 4586 52
2 4587 126
2 4588 8
2 4589 42
2 4590 2
2 4591 48
2 4592 5
2 4593 7
2 4594 4
2 4595 116
2 4596 2
2 4597 80
2 4598 23
2 4599 90
2 4600 7
2 4601 6
2 4602 4
2 4603 14
2 4604 75
2 4605 67
2 4606 5
2 4607 2
2 4608 4
2 4609 6
2 4610 3
2 4611 52
2 4612 9
2 4613 68
2 4614 46
2 4615 47
2 4616 102
2 4617 579
2 4618 7
2 4619 5
2 4620 2
2 4621 2
2 4622 4
2 4623 112
2 4624 4
2 4625 2
2 4626 131
2 4627 70
2 4628 14
2 4629 6
2 4630 5
2 4631 67
2 4632 94
2 4634 82
2 4635 162
2 4636 5
2 4637 69
2 4638 5
2 4639 5
2 4640 8
2 4641 136
2 4642 5
2 4643 19
2 4644 121
2 4645 8
2 4646 8
2 4647 196
2 4648 16
2 4649 115
2 4650 4
2 4651 67
2 4652 3
2 4653 40
2 4654 52
2 4655 2
2 4656 2
2 4658 32
2 4659 4
2 4660 61
2 4661 8
2 4662 50
2 4663 106
2 4664 8
2 4665 9
2 4666 108
2 4667 9
2 4668 19
2 4669 47
2 4670 6
2 4671 8
2 4672 108
2 4673 7
2 4674 10
2 4675 3
2 4676 4
2 4677 356
2 4678 68
2 4679 64
2 4680 202
2 4681 7
2 4682 9
2 4683 7
2 4684 178
2 4685 6
2 4686 62
2 4687 6
2 4688 191
2 4689 92
2 4690 4
2 4691 3
2 4692 7
2 4693 46
2 4694 84
2 4695 1185
2 4696 112
2 4697 108
2 4698 81
2 4699 9
2 4700 37
2 4701 2
2 4702 148
2 4703 39
2 4704 819
2 4705 11
2 4706 2
2 4707 60
2 4708 5
2 4709 4
2 4710 11
2 4711 1312
2 4712 10
2 4713 173
2 4714 77
2 4715 8
2 4716 10
2 4717 118
2 4718 5
2 4719 4
2 4720 133
2 4721 8
2 4722 8
2 4723 9
2 4724 1
2 4725 4
2 4726 1061
2 4727 5
2 4728 34
2 4729 129
2 4730 74
2 4731 8
2 4732 7
2 4733 15
2 4734 196
2 4735 477
2 4736 111
2 4737 126
2 4738 135
2 4739 91
2 4740 137
2 4741 79
2 4742 4
2 4743 10
2 4744 92
2 4745 6
2 4746 9
2 4747 101
2 4748 118
2 4749 56
2 4750 62
2 4751 3
2 4752 55
2 4753 57
2 4754 137
2 4755 5
2 4756 168
2 4757 9
2 4758 3
2 4759 147
2 4760 74
2 4761 61
2 4762 34
2 4763 116
2 4764 3
2 4765 6
2 4766 10
2 4767 64
2 4768 64
2 4769 8
2 4770 106
2 4771 60
2 4772 138
2 4773 17
2 4774 123
2 4775 77
2 4776 5
2 4777 70
2 4778 77
2 4779 3
2 4780 114
2 4781 4
2 4782 8
2 4783 99
2 4784 120
2 4785 8
2 4786 4
2 4787 88
2 4788 13
2 4789 105
2 4790 59
2 4791 68
2 4792 3
2 4793 98
2 4794 5
2 4795 11
2 4796 59
2 4797 3
2 4798 48
2 4799 39
2 4800 92
2 4801 9
2 4802 6
2 4803 9
2 4804 48
2 4805 1
2 4806 5
2 4807 6
2 4808 6
2 4809 4
2 4810 4
2 4811 223
2 4812 6
2 4813 7
2 4814 2
2 4815 15
2 4816 82
2 4817 4
2 4818 134
2 4819 39
2 4820 5
2 4821 323
2 4822 64
2 4823 106
2 4824 106
2 4825 15
2 4826 10
2 4827 85
2 4828 16
2 4829 5
2 4830 9
2 4831 68
2 4832 3
2 4833 70
2 4834 3
2 4835 131
2 4836 33
2 4837 4
2 4838 32
2 4839 3
2 4840 31
2 4841 4
2 4842 7
2 4843 8
2 4844 197
2 4845 7
2 4846 187
2 4847 8
2 4848 108
2 4849 3
2 4850 106
2 4851 746
2 4852 16
2 4853 4
2 4854 9
2 4855 100
2 4856 82
2 4857 2
2 4858 100
2 4859 4
2 4860 112
2 4861 39
2 4862 1
2 4863 4
2 4864 25
2 4865 4
2 4866 106
2 4867 11
2 4868 4
2 4869 3
2 4870 64
2 4871 8
2 4872 74
2 4873 88
2 4874 30
2 4875 63
2 4876 9
2 4877 32
2 4878 11
2 4879 172
2 4880 3
2 4881 83
2 4882 6
2 4883 8
2 4884 88
2 4885 92
2 4886 2
2 4887 64
2 4888 7
2 4889 55
2 4890 116
2 4891 32
2 4892 49
2 4893 7
2 4894 4
2 4895 91
2 4896 149
2 4897 5
2 4898 7
2 4899 6
2 4900 30
2 4901 4
2 4902 10
2 4903 51
2 4904 69
2 4905 116
2 4906 3
2 4907 1114
2 4908 5
2 4909 69
2 4910 6
2 4911 6
2 4912 6
2 4913 48
2 4914 218
2 4915 6
2 4916 4
2 4917 7
2 4918 75
2 4919 2
2 4920 12
2 4921 101
2 4922 5
2 4923 174
2 4924 188
2 4925 7
2 4926 29
2 4927 6
2 4928 274
2 4929 3
2 4930 30
2 4931 25
2 4932 4
2 4933 11
2 4934 264
2 4935 44
2 4936 5
2 4937 59
2 4938 2
2 4939 181
2 4940 29
2 4941 7
2 4942 1198
2 4943 5
2 4944 118
2 4945 7
2 4946 76
2 4947 7
2 4948 100
2 4949 110
2 4950 61
2 4951 84
2 4952 64
2 4953 20
2 4954 11
2 4955 9
2 4956 3
2 4957 9
2 4958 2
2 4959 153
2 4960 5
2 4961 106
2 4962 8
2 4963 87
2 4964 3
2 4965 6
2 4966 39
2 4967 4
2 4968 53
2 4969 86
2 4970 4
2 4971 4
2 4972 159
2 4973 76
2 4974 120
2 4975 48
2 4976 58
2 4977 42
2 4978 6
2 4979 29
2 4980 7
2 4981 3
2 4982 183
2 4983 19
2 4984 2
2 4985 42
2 4986 274
2 4987 88
2 4988 21
2 4989 55
2 4990 135
2 4991 98
2 4992 8
2 4993 92
2 4994 2
2 4995 132
2 4996 9
2 4997 1
2 4998 112
2 4999 5
2 5000 6
2 5001 3
2 5002 833
2 5003 12
2 5004 5
2 5005 7
2 5006 5
2 5007 78
2 5008 108
2 5009 60
2 5010 32
2 5011 10
2 5012 219
2 5013 121
2 5014 2
2 5015 133
2 5016 94
2 5017 7
2 5018 6
2 5019 87
2 5020 4
2 5021 4
2 5022 81
2 5023 9
2 5024 132
2 5025 52
2 5026 5
2 5027 208
2 5028 6
2 5029 155
2 5030 7
2 5031 809
2 5032 205
2 5033 164
2 5034 6
2 5035 57
2 5036 3
2 5037 4
2 5038 6
2 5039 3
2 5040 4
2 5041 53
2 5042 119
2 5043 49
2 5044 7
2 5045 6
2 5046 38
2 5047 107
2 5048 6
2 5049 7
2 5050 8
2 5051 55
2 5052 37
2 5053 35
2 5054 13
2 5055 7
2 5056 8
2 5057 85
2 5058 18
2 5059 4
2 5060 6
2 5061 109
2 5062 4
2 5063 11
2 5064 5
2 5065 6
2 5066 4
2 5067 53
2 5068 9
2 5069 7
2 5070 3
2 5071 1
2 5072 691
2 5073 142
2 5074 94
2 5075 63
2 5076 5
2 5077 66
2 5078 33
2 5079 49
2 5080 78
2 5081 80
2 5082 24
2 5083 2
2 5084 2
2 5085 63
2 5086 10
2 5087 3
2 5088 4
2 5089 96
2 5090 50
2 5091 1
2 5092 7
2 5093 5
2 5094 43
2 5095 84
2 5096 1281
2 5097 101
2 5099 11
2 5100 8
2 5101 2
2 5102 78
2 5103 6
2 5104 4
2 5105 11
2 5106 19
2 5107 104
2 5108 9
2 5109 57
2 5110 106
2 5111 43
2 5112 123
2 5113 128
2 5114 18
2 5115 5
2 5116 3
2 5117 29
2 5118 7
2 5119 55
2 5120 1277
2 5121 4
2 5122 99
2 5123 86
2 5124 606
2 5125 56
2 5126 87
2 5127 36
2 5128 840
2 5129 48
2 5130 5
2 5131 9
2 5132 4
2 5133 2
2 5134 8
2 5135 2
2 5136 39
2 5137 2
2 5138 3
2 5139 41
2 5140 78
2 5141 1
2 5142 4
2 5143 67
2 5144 6
2 5145 9
2 5146 1093
2 5147 4
2 5148 1
2 5149 3
2 5150 5
2 5151 2
2 5152 3
2 5153 95
2 5154 98
2 5155 96
2 5156 8
2 5157 7
2 5158 164
2 5159 3
2 5160 27
2 5161 7
2 5162 4
2 5163 13
2 5164 9
2 5165 8
2 5166 12
2 5167 18
2 5168 10
2 5169 69
2 5170 69
2 5171 2
2 5172 4
2 5173 129
2 5174 89
2 5175 12
2 5176 9
2 5177 3
2 5178 1
2 5179 8
2 5180 1238
2 5181 5
2 5182 98
2 5183 38
2 5184 9
2 5185 3
2 5186 3
2 5187 131
2 5188 60
2 5189 120
2 5190 81
2 5191 7
2 5192 9
2 5193 130
2 5194 98
2 5195 8
2 5196 7
2 5197 54
2 5198 26
2 5199 44
2 5200 139
2 5201 10
2 5202 48
2 5203 38
2 5204 73
2 5205 21
2 5206 13
2 5207 30
2 5208 48
2 5209 9
2 5210 2
2 5211 161
2 5212 87
2 5213 3
2 5214 10
2 5215 1225
2 5216 60
2 5217 136
2 5218 933
2 5219 14
2 5220 152
2 5221 135
2 5222 3
2 5223 11
2 5224 100
2 5225 31
2 5226 95
2 5227 77
2 5228 74
2 5229 3
2 5230 49
2 5231 6
2 5232 5
2 5233 38
2 5234 48
2 5235 55
2 5236 7
2 5237 134
2 5238 44
2 5239 94
2 5240 10
2 5241 34
2 5242 11
2 5243 12
2 5244 61
2 5245 58
2 5246 57
2 5247 180
2 5248 97
2 5249 69
2 5250 7
2 5251 55
2 5252 21
2 5253 4
2 5254 22
2 5255 13
2 5256 52
2 5257 6
2 5258 11
2 5259 62
2 5260 72
2 5261 162
2 5262 84
2 5263 4
2 5264 9
2 5265 30
2 5266 6
2 5267 5
2 5268 99
2 5269 541
2 5270 633
2 5271 44
2 5272 47
2 5273 27
2 5274 31
2 5275 52
2 5276 47
2 5277 3
2 5278 37
2 5279 47
2 5280 8
2 5281 28
2 5282 113
2 5283 6
2 5284 9
2 5285 37
2 5286 32
2 5287 46
2 5288 5
2 5289 16
2 5290 84
2 5291 80
2 5292 36
2 5293 28
2 5294 84
2 5295 4
2 5296 32
2 5297 76
2 5298 82
2 5299 59
2 5300 9
2 5301 90
2 5302 84
2 5303 1
2 5304 3
2 5305 5
2 5306 67
2 5307 60
2 5308 101
2 5309 26
2 5310 91
2 5311 3
2 5312 3
2 5313 36
2 5314 75
2 5315 3
2 5316 6
2 5317 5
2 5318 101
2 5319 8
2 5320 6
2 5321 8
2 5322 3
2 5323 71
2 5324 4
2 5325 28
2 5326 33
2 5327 69
2 5328 69
2 5329 6
2 5330 116
2 5331 55
2 5332 12
2 5333 2
2 5334 3
2 5335 83
2 5336 5
2 5337 65
2 5338 151
2 5339 4
2 5340 5
2 5341 115
2 5342 154
2 5343 51
2 5344 3
2 5345 103
2 5346 102
2 5347 189
2 5348 7
2 5349 5
2 5350 29
2 5351 134
2 5352 123
2 5353 4
2 5354 104
2 5355 88
2 5356 215
2 5357 5
2 5358 8
2 5359 147
2 5360 3
2 5361 30
2 5362 6
2 5363 136
2 5364 45
2 5365 2
2 5366 6
2 5367 79
2 5368 102
2 5369 89
2 5370 57
2 5371 553
2 5372 95
2 5373 802
2 5374 8
2 5375 84
2 5376 7
2 5377 37
2 5378 8
2 5379 49
2 5380 5
2 5381 4
2 5382 75
2 5383 4
2 5384 52
2 5385 7
2 5386 49
2 5387 4
2 5388 5
2 5389 7
2 5390 92
2 5391 64
2 5392 2
2 5393 22
2 5394 41
2 5395 7
2 5396 55
2 5397 8
2 5398 56
2 5399 52
2 5400 4
2 5401 4
2 5402 50
2 5403 74
2 5404 154
2 5405 118
2 5406 54
2 5407 2
2 5408 1
2 5409 76
2 5410 126
2 5411 32
2 5412 63
2 5413 35
2 5414 10
2 5416 11
2 5417 120
2 5418 60
2 5419 134
2 5420 7
2 5421 7
2 5422 32
2 5423 7
2 5424 103
2 5425 35
2 5426 105
2 5427 6
2 5428 109
2 5429 3
2 5430 144
2 5431 11
2 5432 5
2 5433 8
2 5434 9
2 5435 10
2 5436 5
2 5437 53
2 5438 4
2 5439 7
2 5440 175
2 5441 10
2 5442 79
2 5443 15
2 5444 69
2 5445 4
2 5446 251
2 5447 11
2 5448 82
2 5449 2
2 5450 465
2 5451 9
2 5452 44
2 5453 62
2 5454 6
2 5455 96
2 5456 42
2 5457 89
2 5458 4
2 5459 47
2 5460 6
2 5461 3
2 5462 106
2 5463 45
2 5464 7
2 5465 57
2 5466 9
2 5467 18
2 5468 8
2 5469 44
2 5470 5
2 5471 42
2 5472 29
2 5473 97
2 5474 163
2 5475 41
2 5476 7
2 5477 124
2 5478 68
2 5479 5
2 5480 110
2 5481 51
2 5482 74
2 5483 11
2 5484 56
2 5485 2
2 5486 28
2 5487 35
2 5488 3
2 5489 97
2 5490 9
2 5491 42
2 5492 73
2 5493 6
2 5494 7
2 5495 89
2 5496 159
2 5497 2
2 5498 2
2 5499 2
2 5500 100
2 5501 45
2 5502 6
2 5503 6
2 5504 3
2 5505 63
2 5506 120
2 5507 121
2 5508 7
2 5509 119
2 5510 113
2 5511 222
2 5512 21
2 5513 8
2 5514 5
2 5515 6
2 5516 63
2 5517 50
2 5518 2
2 5519 5
2 5520 157
2 5521 8
2 5522 60
2 5523 597
2 5524 128
2 5525 7
2 5526 4
2 5527 3
2 5528 119
2 5529 71
2 5530 6
2 5531 3
2 5532 7
2 5533 761
2 5534 118
2 5535 3
2 5536 121
2 5537 40
2 5538 59
2 5539 2
2 5540 128
2 5541 5
2 5542 5
2 5543 5
2 5544 6
2 5545 1
2 5546 2
2 5547 79
2 5548 21
2 5549 41
2 5550 2
2 5552 8
2 5553 3
2 5554 55
2 5555 49
2 5556 91
2 5557 2
2 5558 90
2 5559 32
2 5560 99
2 5561 4
2 5562 3
2 5563 86
2 5564 83
2 5565 38
2 5566 4
2 5567 1
2 5568 6
2 5569 5
2 5570 15
2 5571 5
2 5572 6
2 5573 5
2 5574 146
2 5575 58
2 5576 5
2 5577 85
2 5578 42
2 5579 4
2 5580 119
2 5581 2
2 5582 7
2 5583 9
2 5584 119
2 5585 255
2 5586 1024
2 5587 349
2 5588 11
2 5589 87
2 5590 128
2 5591 44
2 5592 7
2 5593 100
2 5594 122
2 5595 123
2 5596 6
2 5597 126
2 5598 6
2 5599 55
2 5600 4
2 5601 4
2 5602 131
2 5603 308
2 5604 4
2 5605 4
2 5606 4
2 5607 68
2 5608 149
2 5609 109
2 5610 80
2 5611 122
2 5612 5
2 5613 5
2 5614 4
2 5615 128
2 5616 7
2 5617 68
2 5618 6
2 5619 56
2 5620 5
2 5621 3
2 5622 112
2 5623 3
2 5624 66
2 5625 5
2 5626 3
2 5627 8
2 5628 12
2 5629 103
2 5630 10
2 5631 9
2 5632 115
2 5633 116
2 5634 10
2 5635 82
2 5636 4
2 5637 1233
2 5638 9
2 5639 11
2 5640 100
2 5641 4
2 5642 12
2 5643 11
2 5644 76
2 5645 26
2 5646 4
2 5647 8
2 5648 5
2 5649 47
2 5650 4
2 5651 6
2 5652 54
2 5653 6
2 5654 139
2 5655 6
2 5656 84
2 5657 1201
2 5658 82
2 5659 79
2 5660 3
2 5661 50
2 5662 3
2 5663 5
2 5664 5
2 5665 5
2 5666 36
2 5667 78
2 5668 140
2 5669 4
2 5670 3
2 5671 33
2 5672 6
2 5673 78
2 5674 125
2 5675 224
2 5676 172
2 5677 17
2 5678 5
2 5679 34
2 5680 90
2 5681 96
2 5682 4
2 5683 46
2 5684 62
2 5685 6
2 5686 3
2 5687 8
2 5688 5
2 5689 66
2 5690 67
2 5691 91
2 5692 60
2 5693 3
2 5694 45
2 5695 48
2 5696 45
2 5697 8
2 5698 3
2 5699 5
2 5700 36
2 5701 1
2 5702 574
2 5703 7
2 5704 11
2 5705 7
2 5706 4
2 5707 27
2 5708 120
2 5709 6
2 5710 83
2 5711 128
2 5712 34
2 5713 145
2 5714 33
2 5715 118
2 5716 238
2 5717 20
2 5718 88
2 5719 137
2 5720 15
2 5721 48
2 5722 5
2 5723 200
2 5724 4
2 5725 724
2 5726 3
2 5727 147
2 5728 49
2 5729 35
2 5730 5
2 5731 6
2 5732 4
2 5733 125
2 5734 7
2 5735 62
2 5736 70
2 5737 9
2 5738 118
2 5739 79
2 5740 88
2 5741 5
2 5742 22
2 5743 57
2 5744 712
2 5745 7
2 5746 5
2 5747 2
2 5748 3
2 5749 5
2 5750 1
2 5751 7
2 5752 907
2 5753 3
2 5754 24
2 5755 100
2 5756 383
2 5757 3
2 5758 3
2 5759 93
2 5760 3
2 5761 5
2 5762 146
2 5763 3
2 5764 4
2 5765 89
2 5766 2
2 5767 17
2 5768 72
2 5769 3
2 5770 4
2 5771 1
2 5772 6
2 5773 3
2 5774 30
2 5775 5
2 5776 54
2 5777 6
2 5778 6
2 5779 11
2 5780 194
2 5781 44
2 5782 4
2 5783 38
2 5784 5
2 5785 2
2 5786 4
2 5787 99
2 5788 77
2 5789 5
2 5790 96
2 5791 130
2 5792 2
2 5793 26
2 5794 8
2 5795 44
2 5796 8
2 5798 113
2 5799 33
2 5800 4
2 5801 2
2 5802 3
2 5803 10
2 5804 2
2 5805 45
2 5806 62
2 5807 2
2 5808 6
2 5809 44
2 5810 1
2 5811 3
2 5812 84
2 5813 66
2 5814 37
2 5815 20
2 5816 4
2 5817 80
2 5818 67
2 5819 97
2 5821 9
2 5822 20
2 5823 12
2 5824 34
2 5825 3
2 5826 46
2 5827 3
2 5828 53
2 5829 5
2 5830 35
2 5831 17
2 5832 29
2 5833 36
2 5834 72
2 5835 7
2 5836 4
2 5837 38
2 5838 68
2 5839 93
2 5840 4
2 5841 9
2 5842 1158
2 5843 2
2 5844 99
2 5845 13
2 5846 7
2 5847 47
2 5848 5
2 5849 8
2 5850 72
2 5851 129
2 5852 148
2 5853 58
2 5854 1241
2 5855 9
2 5856 3
2 5857 4
2 5858 453
2 5859 115
2 5860 1197
2 5861 122
2 5862 112
2 5863 33
2 5864 57
2 5865 9
2 5866 5
2 5867 75
2 5869 149
2 5870 326
2 5871 6
2 5872 36
2 5873 66
2 5874 2
2 5875 5
2 5876 43
2 5877 11
2 5878 10
2 5879 95
2 5880 113
2 5881 95
2 5882 113
2 5883 5
2 5884 6
2 5885 3
2 5886 87
2 5887 43
2 5888 3
2 5889 4
2 5890 65
2 5891 140
2 5892 56
2 5893 7
2 5894 20
2 5895 38
2 5896 10
2 5897 114
2 5898 23
2 5899 63
2 5900 6
2 5901 3
2 5902 124
2 5903 37
2 5904 9
2 5905 6
2 5906 9
2 5907 154
2 5908 6
2 5909 68
2 5910 45
2 5911 104
2 5912 28
2 5913 3
2 5914 145
2 5915 208
2 5916 10
2 5917 59
2 5918 65
2 5919 2
2 5920 37
2 5921 3
2 5922 11
2 5923 5
2 5924 7
2 5925 4
2 5926 5
2 5927 9
2 5928 6
2 5929 9
2 5930 79
2 5931 29
2 5932 2
2 5933 8
2 5934 4
2 5935 294
2 5936 65
2 5937 52
2 5938 3
2 5939 116
2 5940 2
2 5941 102
2 5942 10
2 5943 6
2 5944 4
2 5945 97
2 5946 12
2 5947 89
2 5948 10
2 5949 3
2 5950 37
2 5951 73
2 5952 81
2 5953 48
2 5954 102
2 5955 52
2 5956 3
2 5957 4
2 5958 2
2 5959 45
2 5960 4
2 5961 3
2 5962 29
2 5963 117
2 5964 18
2 5965 895
2 5966 103
2 5967 8
2 5968 58
2 5969 79
2 5970 5
2 5971 15
2 5972 112
2 5973 5
2 5974 464
2 5975 55
2 5976 76
2 5977 6
2 5978 7
2 5979 3
2 5980 7
2 5981 3
2 5982 1140
2 5983 66
2 5984 3
2 5985 95
2 5986 3
2 5987 46
2 5988 9
2 5989 2
2 5990 3
2 5991 45
2 5992 3
2 5993 10
2 5994 7
2 5995 2
2 5996 3
2 5997 132
2 5998 112
2 5999 1
2 6000 3
2 6001 42
2 6002 8
2 6003 51
2 6004 28
2 6005 68
2 6006 94
2 6007 2
2 6008 33
2 6009 52
2 6010 34
2 6011 12
2 6012 1
2 6013 96
2 6014 7
2 6015 3
2 6016 49
2 6017 35
2 6018 4
2 6019 88
2 6020 134
2 6021 5
2 6022 47
2 6023 90
2 6024 78
2 6025 4
2 6026 51
2 6027 64
2 6028 102
2 6029 61
2 6030 2
2 6031 3
2 6032 7
2 6033 3
2 6034 209
2 6035 12
2 6036 4
2 6037 5
2 6038 417
2 6039 84
2 6040 114
2 6041 9
2 6042 46
2 6043 171
2 6044 102
2 6045 70
2 6046 54
2 6047 154
2 6048 94
2 6049 56
2 6050 69
2 6051 9
2 6052 12
2 6053 7
2 6054 13
2 6055 109
2 6056 139
2 6057 3
2 6058 5
2 6059 32
2 6060 6
2 6061 5
2 6062 7
2 6063 3
2 6064 86
2 6065 6
2 6066 60
2 6067 1226
2 6068 42
2 6069 22
2 6070 86
2 6071 9
2 6072 65
2 6073 773
2 6074 96
2 6075 67
2 6076 5
2 6077 5
2 6078 112
2 6079 54
2 6080 4
2 6081 2
2 6082 166
2 6083 2
2 6084 71
2 6085 7
2 6086 118
2 6087 3
2 6088 2
2 6089 279
2 6090 8
2 6091 8
2 6092 6
2 6093 9
2 6094 1
2 6095 2
2 6096 118
2 6097 30
2 6098 5
2 6099 126
2 6100 57
2 6101 6
2 6102 7
2 6103 5
2 6104 73
2 6105 3
2 6106 8
2 6107 16
2 6108 1007
2 6109 63
2 6110 8
2 6111 56
2 6112 6
2 6113 154
2 6114 6
2 6115 688
2 6116 21
2 6117 124
2 6118 7
2 6119 5
2 6120 5
2 6121 62
2 6122 3
2 6123 113
2 6124 78
2 6125 7
2 6126 3
2 6127 5
2 6128 40
2 6129 91
2 6130 11
2 6131 74
2 6132 3
2 6133 6
2 6134 43
2 6135 17
2 6136 49
2 6137 90
2 6138 2
2 6139 9
2 6140 54
2 6141 54
2 6142 13
2 6143 5
2 6144 9
2 6145 78
2 6146 8
2 6147 111
2 6148 5
2 6149 94
2 6150 9
2 6151 7
2 6152 12
2 6153 9
2 6154 4
2 6155 75
2 6156 643
2 6157 1
2 6158 18
2 6159 80
2 6160 141
2 6161 6
2 6162 103
2 6163 66
2 6164 3
2 6165 5
2 6166 211
2 6167 45
2 6168 7
2 6169 7
2 6170 73
2 6171 7
2 6172 10
2 6173 12
2 6174 122
2 6175 14
2 6176 12
2 6177 5
2 6178 120
2 6179 70
2 6180 8
2 6181 5
2 6182 8
2 6183 94
2 6184 100
2 6185 3
2 6186 80
2 6187 8
2 6188 94
2 6189 5
2 6190 36
2 6191 7
2 6192 4
2 6193 65
2 6194 8
2 6195 39
2 6196 3
2 6197 5
2 6198 62
2 6199 84
2 6200 1099
2 6201 104
2 6202 7
2 6203 6
2 6204 4
2 6205 6
2 6206 4
2 6207 83
2 6208 84
2 6209 5
2 6210 1265
2 6211 15
2 6212 7
2 6213 979
2 6214 7
2 6215 5
2 6216 149
2 6217 39
2 6218 6
2 6219 8
2 6220 2
2 6221 8
2 6222 61
2 6224 124
2 6225 116
2 6226 2
2 6227 9
2 6228 40
2 6229 5
2 6230 6
2 6231 66
2 6232 42
2 6233 9
2 6234 5
2 6235 67
2 6236 8
2 6237 15
2 6238 21
2 6239 77
2 6240 3
2 6241 55
2 6242 3
2 6243 8
2 6244 37
2 6245 5
2 6246 5
2 6247 6
2 6248 54
2 6249 1030
2 6250 82
2 6251 99
2 6252 96
2 6253 139
2 6254 28
2 6255 12
2 6256 6
2 6257 12
2 6258 45
2 6259 36
2 6260 37
2 6261 1139
2 6262 88
2 6263 8
2 6264 36
2 6265 74
2 6266 7
2 6267 106
2 6269 8
2 6270 3
2 6271 38
2 6272 105
2 6273 5
2 6274 70
2 6275 7
2 6276 109
2 6277 8
2 6278 96
2 6279 14
2 6280 10
2 6281 127
2 6282 76
2 6283 5
2 6284 7
2 6285 47
2 6286 7
2 6287 63
2 6288 148
2 6289 6
2 6290 99
2 6291 20
2 6292 7
2 6293 8
2 6294 90
2 6295 71
2 6296 7
2 6297 9
2 6298 37
2 6299 6
2 6300 81
2 6301 1073
2 6302 99
2 6303 3
2 6304 6
2 6305 4
2 6306 30
2 6307 8
2 6308 7
2 6309 9
2 6310 6
2 6311 6
2 6312 10
2 6313 98
2 6314 231
2 6315 111
2 6316 2
2 6317 124
2 6318 39
2 6319 2
2 6320 7
2 6321 67
2 6322 5
2 6323 11
2 6324 118
2 6325 11
2 6326 79
2 6327 74
2 6328 54
2 6329 12
2 6330 7
2 6331 18
2 6332 6
2 6333 119
2 6334 38
2 6336 33
2 6337 3
2 6338 37
2 6339 63
2 6340 11
2 6341 1
2 6342 34
2 6343 6
2 6344 10
2 6345 47
2 6346 1
2 6347 9
2 6348 6
2 6349 93
2 6350 81
2 6351 160
2 6352 68
2 6353 73
2 6354 10
2 6355 78
2 6356 5
2 6357 2
2 6358 5
2 6359 184
2 6360 10
2 6361 55
2 6362 2
2 6363 16
2 6364 140
2 6365 87
2 6366 529
2 6367 5
2 6368 90
2 6369 13
2 6370 11
2 6371 59
2 6372 104
2 6373 855
2 6374 29
2 6375 86
2 6376 5
2 6377 4
2 6378 5
2 6379 14
2 6380 11
2 6381 4
2 6382 2
2 6383 30
2 6384 2
2 6385 67
2 6386 46
2 6387 5
2 6388 43
2 6389 501
2 6390 4
2 6391 85
2 6392 6
2 6393 131
2 6394 81
2 6395 4
2 6396 161
2 6397 62
2 6398 6
2 6399 6
2 6400 1190
2 6401 49
2 6402 103
2 6403 6
2 6404 99
2 6405 69
2 6406 278
2 6407 59
2 6408 1
2 6409 4
2 6410 86
2 6411 8
2 6412 6
2 6413 7
2 6414 36
2 6415 4
2 6416 5
2 6417 129
2 6418 6
2 6419 24
2 6420 7
2 6421 80
2 6422 7
2 6423 7
2 6424 97
2 6425 1
2 6426 99
2 6427 12
2 6428 99
2 6429 8
2 6430 72
2 6431 48
2 6432 4
2 6433 8
2 6434 8
2 6435 4
2 6436 690
2 6437 8
2 6438 105
2 6439 77
2 6440 5
2 6441 59
2 6442 10
2 6443 28
2 6444 36
2 6445 7
2 6446 54
2 6447 8
2 6448 3
2 6449 6
2 6450 93
2 6451 4
2 6452 6
2 6453 10
2 6454 264
2 6455 66
2 6456 58
2 6457 7
2 6458 52
2 6459 6
2 6460 1
2 6461 8
2 6462 18
2 6463 80
2 6464 3
2 6465 7
2 6466 4
2 6467 560
2 6468 17
2 6469 5
2 6470 7
2 6471 3
2 6472 110
2 6473 3
2 6474 141
2 6475 21
2 6476 540
2 6477 56
2 6479 82
2 6480 6
2 6481 32
2 6482 6
2 6483 89
2 6484 8
2 6485 7
2 6486 2
2 6487 101
2 6488 56
2 6489 74
2 6490 1137
2 6491 927
2 6492 7
2 6493 6
2 6494 3
2 6495 138
2 6496 83
2 6497 11
2 6498 127
2 6499 57
2 6500 61
2 6501 2
2 6502 5
2 6503 2
2 6504 5
2 6505 6
2 6506 7
2 6507 58
2 6508 6
2 6509 7
2 6510 5
2 6511 1
2 6512 80
2 6513 6
2 6514 52
2 6515 9
2 6516 70
2 6517 33
2 6518 17
2 6519 64
2 6520 85
2 6521 152
2 6522 65
2 6523 51
2 6524 103
2 6525 4
2 6526 4
2 6527 71
2 6528 88
2 6529 16
2 6530 49
2 6531 6
2 6532 4
2 6533 2
2 6534 5
2 6535 43
2 6536 60
2 6537 3
2 6538 79
2 6539 5
2 6540 75
2 6541 133
2 6542 5
2 6543 24
2 6544 51
2 6545 13
2 6546 7
2 6547 10
2 6548 4
2 6549 8
2 6550 22
2 6551 5
2 6552 100
2 6553 77
2 6554 15
2 6555 9
2 6556 1008
2 6557 529
2 6558 10
2 6559 6
2 6560 87
2 6561 45
2 6562 4
2 6563 106
2 6564 196
2 6565 41
2 6566 57
2 6567 3
2 6568 275
2 6569 3
2 6570 897
2 6571 7
2 6572 1
2 6573 23
2 6574 6
2 6575 10
2 6576 5
2 6577 63
2 6579 2
2 6580 3
2 6581 63
2 6582 40
2 6583 2
2 6584 39
2 6585 305
2 6586 5
2 6587 8
2 6588 368
2 6589 5
2 6590 4
2 6591 5
2 6592 3
2 6593 4
2 6594 75
2 6595 13
2 6596 123
2 6597 34
2 6598 63
2 6599 1
2 6600 54
2 6601 3
2 6602 111
2 6603 69
2 6604 39
2 6605 144
2 6606 7
2 6607 45
2 6608 80
2 6609 5
2 6610 42
2 6611 12
2 6612 981
2 6613 5
2 6614 8
2 6615 2
2 6616 1
2 6617 6
2 6618 2
2 6619 24
2 6620 107
2 6621 9
2 6622 5
2 6623 122
2 6624 29
2 6625 6
2 6626 19
2 6627 14
2 6628 68
2 6629 46
2 6630 956
2 6631 7
2 6632 58
2 6633 8
2 6634 54
2 6635 7
2 6636 128
2 6637 72
2 6638 113
2 6639 37
2 6640 11
2 6641 4
2 6642 4
2 6643 27
2 6644 17
2 6645 65
2 6646 4
2 6647 757
2 6648 6
2 6649 49
2 6650 7
2 6651 5
2 6652 8
2 6653 10
2 6654 2
2 6655 2
2 6656 38
2 6657 76
2 6658 75
2 6659 61
2 6660 8
2 6661 6
2 6662 3
2 6663 32
2 6664 3
2 6665 70
2 6666 124
2 6667 7
2 6668 108
2 6669 4
2 6670 86
2 6671 6
2 6672 3
2 6673 36
2 6674 9
2 6675 98
2 6676 74
2 6677 118
2 6678 11
2 6679 58
2 6680 37
2 6681 6
2 6682 88
2 6683 117
2 6684 8
2 6685 6
2 6686 9
2 6687 34
2 6688 52
2 6689 4
2 6690 25
2 6691 12
2 6692 85
2 6693 7
2 6694 123
2 6695 5
2 6696 23
2 6697 103
2 6698 3
2 6699 8
2 6700 38
2 6701 38
2 6702 95
2 6703 56
2 6704 4
2 6705 6
2 6706 182
2 6707 40
2 6708 132
2 6709 2
2 6710 6
2 6711 83
2 6712 2
2 6713 2
2 6714 9
2 6715 47
2 6716 118
2 6717 118
2 6718 59
2 6719 131
2 6720 55
2 6721 35
2 6722 3
2 6723 91
2 6725 4
2 6726 54
2 6727 152
2 6728 2
2 6729 9
2 6730 5
2 6731 3
2 6732 88
2 6733 6
2 6734 61
2 6735 13
2 6736 162
2 6737 4
2 6738 3
2 6739 52
2 6740 5
2 6741 56
2 6742 6
2 6743 2
2 6744 10
2 6745 48
2 6746 6
2 6747 11
2 6748 101
2 6749 60
2 6750 3
2 6751 5
2 6752 100
2 6753 3
2 6754 5
2 6755 6
2 6756 81
2 6757 4
2 6758 52
2 6759 96
2 6760 1103
2 6761 142
2 6762 3
2 6763 5
2 6764 157
2 6765 76
2 6766 6
2 6767 106
2 6768 679
2 6769 3
2 6770 135
2 6771 70
2 6772 119
2 6773 4
2 6774 9
2 6775 2
2 6776 182
2 6777 912
2 6778 113
2 6779 1
2 6780 35
2 6781 2
2 6782 106
2 6783 34
2 6784 5
2 6785 4
2 6786 7
2 6787 70
2 6788 63
2 6789 9
2 6790 55
2 6791 7
2 6792 31
2 6793 49
2 6794 94
2 6795 91
2 6796 10
2 6797 113
2 6798 80
2 6799 90
2 6800 51
2 6801 148
2 6802 42
2 6803 73
2 6804 7
2 6805 3
2 6806 1009
2 6807 4
2 6808 6
2 6809 4
2 6810 154
2 6811 69
2 6812 37
2 6813 85
2 6814 4
2 6815 57
2 6816 20
2 6817 4
2 6818 4
2 6819 9
2 6820 3
2 6821 8
2 6822 50
2 6823 4
2 6824 96
2 6825 5
2 6826 20
2 6827 143
2 6828 59
2 6829 5
2 6830 6
2 6831 1
2 6832 6
2 6833 7
2 6834 3
2 6835 89
2 6836 76
2 6837 4
2 6838 69
2 6839 6
2 6840 15
2 6841 92
2 6842 63
2 6843 10
2 6844 99
2 6845 208
2 6846 2
2 6847 95
2 6848 6
2 6849 2
2 6850 15
2 6851 7
2 6852 78
2 6853 97
2 6854 69
2 6855 10
2 6856 37
2 6857 4
2 6858 8
2 6859 78
2 6860 88
2 6861 4
2 6862 4
2 6863 8
2 6864 410
2 6865 48
2 6866 65
2 6867 4
2 6868 81
2 6869 55
2 6870 6
2 6871 7
2 6872 86
2 6873 200
2 6874 5
2 6875 98
2 6876 9
2 6877 8
2 6878 6
2 6879 79
2 6880 5
2 6881 4
2 6882 71
2 6883 7
2 6884 51
2 6885 51
2 6886 8
2 6887 3
2 6888 39
2 6890 4
2 6891 6
2 6892 15
2 6893 7
2 6894 78
2 6895 4
2 6896 5
2 6897 2
2 6898 2
2 6899 86
2 6900 109
2 6901 6
2 6902 40
2 6903 5
2 6905 84
2 6906 6
2 6907 154
2 6908 5
2 6909 50
2 6910 6
2 6911 114
2 6912 7
2 6913 4
2 6914 34
2 6915 57
2 6916 5
2 6917 3
2 6918 12
2 6919 87
2 6920 6
2 6921 62
2 6922 15
2 6923 28
2 6924 6
2 6925 927
2 6926 8
2 6927 68
2 6928 6
2 6929 71
2 6930 74
2 6931 54
2 6932 22
2 6933 45
2 6934 172
2 6935 2
2 6936 111
2 6937 1110
2 6938 58
2 6939 4
2 6940 50
2 6941 46
2 6942 51
2 6943 5
2 6944 121
2 6945 69
2 6946 5
2 6947 149
2 6948 130
2 6949 6
2 6950 127
2 6951 73
2 6952 3
2 6953 154
2 6954 138
2 6955 6
2 6956 51
2 6957 63
2 6958 49
2 6959 43
2 6960 6
2 6961 11
2 6962 91
2 6963 115
2 6964 8
2 6965 44
2 6966 75
2 6967 4
2 6968 775
2 6969 4
2 6970 8
2 6971 209
2 6973 101
2 6974 98
2 6975 47
2 6976 53
2 6977 6
2 6978 50
2 6979 63
2 6980 39
2 6981 5
2 6982 54
2 6983 5
2 6984 8
2 6985 101
2 6986 2
2 6987 294
2 6988 6
2 6989 46
2 6990 11
2 6991 31
2 6992 8
2 6993 7
2 6994 10
2 6995 3
2 6996 117
2 6997 19
2 6998 86
2 6999 57
2 7000 35
2 7001 107
2 7002 2
2 7003 14
2 7004 8
2 7005 2
2 7006 90
2 7007 30
2 7008 1
2 7009 78
2 7010 58
2 7011 7
2 7012 84
2 7013 3
2 7014 75
2 7015 32
2 7016 5
2 7017 33
2 7018 125
2 7019 9
2 7020 8
2 7021 4
2 7022 41
2 7023 122
2 7024 9
2 7025 8
2 7026 122
2 7027 28
2 7028 11
2 7029 41
2 7030 156
2 7031 129
2 7032 5
2 7033 2
2 7034 7
2 7035 46
2 7036 21
2 7037 69
2 7038 134
2 7039 58
2 7040 60
2 7041 33
2 7042 116
2 7043 10
2 7044 52
2 7045 49
2 7046 11
2 7047 4
2 7048 5
2 7049 33
2 7050 91
2 7051 77
2 7052 92
2 7053 67
2 7054 29
2 7055 10
2 7056 90
2 7057 5
2 7058 2
2 7059 103
2 7060 3
2 7061 45
2 7062 96
2 7063 35
2 7064 3
2 7065 931
2 7066 5
2 7067 51
2 7068 31
2 7069 74
2 7070 34
2 7071 27
2 7072 54
2 7073 9
2 7074 251
2 7075 93
2 7076 65
2 7077 490
2 7078 103
2 7079 53
2 7080 194
2 7081 8
2 7082 64
2 7083 8
2 7084 58
2 7085 8
2 7086 840
2 7087 5
2 7088 4
2 7089 86
2 7090 20
2 7091 50
2 7092 420
2 7093 62
2 7094 17
2 7095 11
2 7096 4
2 7097 87
2 7098 1242
2 7099 5
2 7100 59
2 7101 76
2 7102 2
2 7103 42
2 7104 5
2 7105 107
2 7106 38
2 7107 10
2 7108 50
2 7109 49
2 7110 4
2 7111 6
2 7112 58
2 7113 8
2 7114 6
2 7115 41
2 7116 6
2 7117 64
2 7118 50
2 7119 41
2 7120 1209
2 7121 111
2 7122 38
2 7123 5
2 7124 56
2 7125 84
2 7126 3
2 7127 11
2 7128 166
2 7129 3
2 7130 8
2 7131 3
2 7132 36
2 7133 4
2 7134 64
2 7135 856
2 7136 9
2 7137 88
2 7138 166
2 7139 74
2 7140 5
2 7141 5
2 7142 7
2 7143 7
2 7144 8
2 7145 87
2 7146 6
2 7147 5
2 7148 114
2 7149 140
2 7150 142
2 7151 10
2 7152 41
2 7153 7
2 7154 3
2 7155 2
2 7156 8
2 7157 5
2 7158 5
2 7159 3
2 7160 50
2 7161 62
2 7162 8
2 7163 88
2 7164 6
2 7165 10
2 7166 77
2 7167 60
2 7168 150
2 7169 2
2 7170 158
2 7171 5
2 7172 38
2 7173 3
2 7174 44
2 7175 74
2 7176 7
2 7177 147
2 7178 5
2 7179 51
2 7180 1
2 7181 6
2 7182 58
2 7183 344
2 7184 5
2 7185 48
2 7186 20
2 7187 34
2 7188 103
2 7189 14
2 7190 111
2 7191 66
2 7192 129
2 7193 10
2 7194 355
2 7195 4
2 7196 10
2 7197 77
2 7198 88
2 7199 5
2 7200 109
2 7201 7
2 7202 94
2 7203 169
2 7204 5
2 7205 5
2 7206 236
2 7207 9
2 7208 79
2 7209 5
2 7210 41
2 7211 104
2 7212 136
2 7213 110
2 7214 7
2 7215 3
2 7216 121
2 7217 92
2 7218 3
2 7219 83
2 7220 210
2 7221 150
2 7222 88
2 7223 8
2 7224 2
2 7225 82
2 7226 104
2 7227 37
2 7228 5
2 7229 4
2 7230 94
2 7231 38
2 7232 8
2 7233 5
2 7234 75
2 7235 2
2 7236 138
2 7237 42
2 7238 1203
2 7239 7
2 7240 4
2 7241 111
2 7242 3
2 7243 10
2 7244 6
2 7245 42
2 7246 7
2 7247 4
2 7248 98
2 7249 3
2 7250 3
2 7251 1
2 7252 8
2 7253 7
2 7254 108
2 7255 105
2 7256 93
2 7257 141
2 7259 17
2 7260 6
2 7261 55
2 7262 46
2 7263 55
2 7264 136
2 7265 5
2 7266 9
2 7267 5
2 7268 130
2 7269 1
2 7270 84
2 7271 50
2 7272 4
2 7273 112
2 7274 6
2 7275 3
2 7276 4
2 7277 39
2 7278 110
2 7279 45
2 7280 5
2 7281 67
2 7282 59
2 7283 5
2 7284 30
2 7285 48
2 7286 3
2 7287 53
2 7288 4
2 7289 3
2 7290 112
2 7291 11
2 7292 1
2 7293 89
2 7294 156
2 7296 76
2 7297 3
2 7298 6
2 7299 15
2 7300 943
2 7301 27
2 7302 6
2 7303 84
2 7304 33
2 7305 360
2 7306 24
2 7307 73
2 7308 128
2 7309 113
2 7310 45
2 7311 6
2 7312 7
2 7313 4
2 7314 3
2 7315 1
2 7316 7
2 7317 3
2 7318 6
2 7319 4
2 7320 4
2 7321 30
2 7322 30
2 7323 55
2 7324 98
2 7325 12
2 7326 7
2 7328 5
2 7329 74
2 7330 719
2 7331 3
2 7332 5
2 7333 55
2 7334 8
2 7335 74
2 7336 44
2 7337 965
2 7338 60
2 7339 38
2 7340 5
2 7341 134
2 7342 9
2 7343 8
2 7344 9
2 7345 94
2 7346 38
2 7347 4
2 7348 14
2 7349 37
2 7350 108
2 7351 54
2 7352 8
2 7353 12
2 7354 89
2 7355 1023
2 7356 4
2 7357 72
2 7358 61
2 7359 4
2 7360 9
2 7361 53
2 7362 12
2 7363 53
2 7364 8
2 7365 3
2 7366 4
2 7367 7
2 7368 5
2 7369 1155
2 7370 4
2 7371 7
2 7372 7
2 7373 6
2 7374 96
2 7375 40
2 7376 10
2 7377 79
2 7378 67
2 7379 10
2 7380 92
2 7381 2
2 7382 8
2 7383 701
2 7384 487
2 7385 88
2 7386 8
2 7387 7
2 7388 55
2 7389 9
2 7390 99
2 7391 622
2 7392 2
2 7393 7
2 7394 166
2 7395 157
2 7396 8
2 7397 9
2 7398 3
2 7399 96
2 7400 62
2 7401 67
2 7402 118
2 7403 9
2 7404 382
2 7405 23
2 7406 24
2 7407 73
2 7408 6
2 7409 1
2 7410 7
2 7411 69
2 7412 7
2 7413 63
2 7414 63
2 7415 70
2 7416 6
2 7417 8
2 7418 40
2 7419 122
2 7420 160
2 7421 52
2 7422 4
2 7423 66
2 7424 1
2 7425 10
2 7426 7
2 7427 66
2 7428 89
2 7429 4
2 7430 3
2 7431 247
2 7432 2
2 7433 6
2 7434 28
2 7435 127
2 7436 3
2 7437 151
2 7438 6
2 7439 113
2 7440 1280
2 7441 85
2 7442 86
2 7443 9
2 7444 41
2 7445 7
2 7446 2
2 7447 5
2 7448 3
2 7449 5
2 7450 190
2 7451 4
2 7452 127
2 7453 2
2 7454 5
2 7455 9
2 7456 5
2 7457 3
2 7458 113
2 7459 10
2 7460 6
2 7461 3
2 7462 57
2 7463 225
2 7464 7
2 7465 41
2 7466 88
2 7467 7
2 7468 9
2 7469 63
2 7470 6
2 7471 4
2 7472 91
2 7473 6
2 7474 11
2 7475 80
2 7476 11
2 7477 1197
2 7478 8
2 7479 3
2 7480 39
2 7481 16
2 7482 8
2 7483 6
2 7484 3
2 7485 6
2 7486 3
2 7487 16
2 7488 34
2 7489 13
2 7490 140
2 7491 93
2 7492 90
2 7493 46
2 7494 5
2 7495 14
2 7496 1
2 7497 5
2 7498 419
2 7499 1056
2 7500 86
2 7501 7
2 7502 24
2 7503 111
2 7504 48
2 7505 4
2 7506 4
2 7507 43
2 7508 9
2 7509 1190
2 7510 296
2 7511 97
2 7512 6
2 7513 73
2 7514 33
2 7515 6
2 7516 191
2 7517 9
2 7518 2
2 7519 73
2 7521 87
2 7522 49
2 7523 58
2 7524 91
2 7525 85
2 7526 11
2 7527 52
2 7528 39
2 7529 6
2 7530 5
2 7531 75
2 7532 95
2 7533 3
2 7534 50
2 7535 111
2 7536 116
2 7537 86
2 7538 108
2 7539 94
2 7540 33
2 7541 1
2 7542 16
2 7543 4
2 7544 124
2 7545 98
2 7546 7
2 7547 7
2 7548 1
2 7549 1098
2 7550 7
2 7551 374
2 7552 346
2 7553 3
2 7554 81
2 7555 113
2 7556 4
2 7557 105
2 7558 8
2 7559 117
2 7560 34
2 7561 17
2 7562 810
2 7563 117
2 7564 97
2 7565 83
2 7566 41
2 7567 48
2 7568 83
2 7569 42
2 7570 2
2 7571 45
2 7572 7
2 7573 10
2 7574 114
2 7575 7
2 7576 138
2 7577 7
2 7578 9
2 7579 31
2 7580 6
2 7581 14
2 7582 253
2 7583 5
2 7584 68
2 7585 84
2 7586 55
2 7587 44
2 7588 1
2 7589 14
2 7590 56
2 7591 7
2 7592 105
2 7593 725
2 7594 8
2 7595 118
2 7596 5
2 7597 2
2 7598 3
2 7599 5
2 7600 61
2 7601 122
2 7602 62
2 7603 3
2 7604 4
2 7605 70
2 7606 101
2 7607 59
2 7608 10
2 7609 6
2 7610 123
2 7611 5
2 7612 100
2 7613 1
2 7614 71
2 7615 6
2 7616 6
2 7617 66
2 7618 157
2 7619 55
2 7620 860
2 7621 34
2 7622 23
2 7623 27
2 7624 4
2 7625 36
2 7626 43
2 7627 4
2 7628 8
2 7629 34
2 7630 204
2 7631 111
2 7632 81
2 7633 2
2 7634 61
2 7635 3
2 7636 10
2 7637 71
2 7638 10
2 7639 7
2 7640 5
2 7641 2
2 7642 116
2 7643 5
2 7644 82
2 7645 46
2 7646 50
2 7647 3
2 7648 5
2 7649 115
2 7650 6
2 7651 5
2 7652 4
2 7653 55
2 7655 101
2 7656 23
2 7657 10
2 7658 62
2 7659 5
2 7660 11
2 7661 204
2 7662 79
2 7663 9
2 7664 8
2 7665 4
2 7666 113
2 7667 140
2 7668 23
2 7669 1
2 7670 7
2 7671 3
2 7672 68
2 7673 37
2 7674 54
2 7675 3
2 7676 4
2 7677 60
2 7678 14
2 7679 93
2 7680 5
2 7681 5
2 7682 59
2 7683 9
2 7684 7
2 7685 109
2 7686 121
2 7687 4
2 7688 69
2 7689 7
2 7690 74
2 7691 183
2 7692 112
2 7693 71
2 7694 4
2 7695 38
2 7696 147
2 7697 117
2 7698 28
2 7699 44
2 7700 7
2 7701 5
2 7702 181
2 7703 36
2 7704 84
2 7705 42
2 7706 45
2 7707 8
2 7708 9
2 7709 8
2 7710 5
2 7711 12
2 7712 1
2 7713 4
2 7714 100
2 7715 1244
2 7716 47
2 7717 7
2 7718 5
2 7719 8
2 7720 3
2 7721 10
2 7722 108
2 7723 31
2 7724 3
2 7725 4
2 7726 167
2 7727 8
2 7728 86
2 7729 93
2 7730 7
2 7731 5
2 7732 9
2 7733 49
2 7734 1
2 7735 7
2 7736 810
2 7737 6
2 7738 9
2 7739 28
2 7740 6
2 7741 4
2 7742 62
2 7743 42
2 7744 4
2 7745 9
2 7746 1
2 7747 40
2 7748 112
2 7749 92
2 7750 41
2 7751 9
2 7752 87
2 7753 25
2 7754 3
2 7755 8
2 7756 69
2 7757 6
2 7758 2
2 7759 57
2 7760 4
2 7761 5
2 7762 8
2 7763 107
2 7764 2
2 7765 9
2 7766 62
2 7767 27
2 7768 8
2 7769 51
2 7770 11
2 7771 11
2 7772 966
2 7773 85
2 7774 1199
2 7775 53
2 7776 214
2 7777 42
2 7778 42
2 7779 74
2 7780 134
2 7781 42
2 7782 123
2 7783 5
2 7784 9
2 7785 11
2 7786 101
2 7787 79
2 7788 22
2 7789 100
2 7790 59
2 7791 11
2 7792 5
2 7793 8
2 7794 82
2 7795 25
2 7796 71
2 7797 69
2 7798 14
2 7799 6
2 7800 39
2 7801 2
2 7802 140
2 7803 3
2 7804 10
2 7805 31
2 7806 180
2 7807 130
2 7808 76
2 7809 3
2 7810 73
2 7811 135
2 7812 119
2 7813 100
2 7814 49
2 7815 6
2 7816 27
2 7817 19
2 7818 37
2 7819 14
2 7820 118
2 7821 136
2 7822 9
2 7823 36
2 7826 45
2 7827 7
2 7828 4
2 7829 65
2 7830 34
2 7831 64
2 7832 46
2 7833 5
2 7834 39
2 7835 6
2 7836 5
2 7837 3
2 7838 118
2 7839 27
2 7840 12
2 7841 242
2 7842 9
2 7843 177
2 7844 72
2 7845 5
2 7846 11
2 7847 35
2 7848 113
2 7849 69
2 7850 6
2 7851 91
2 7852 12
2 7853 44
2 7854 7
2 7855 154
2 7856 6
2 7857 267
2 7858 27
2 7859 960
2 7860 60
2 7861 166
2 7862 4
2 7863 3
2 7864 73
2 7865 53
2 7866 5
2 7867 116
2 7868 57
2 7869 55
2 7870 73
2 7871 4
2 7872 30
2 7873 27
2 7874 85
2 7875 9
2 7876 47
2 7877 198
2 7878 5
2 7879 3
2 7880 41
2 7881 907
2 7882 1258
2 7883 15
2 7884 6
2 7885 60
2 7886 5
2 7887 89
2 7888 564
2 7889 6
2 7890 1
2 7891 3
2 7892 95
2 7893 3
2 7894 7
2 7895 51
2 7896 8
2 7897 72
2 7898 75
2 7899 84
2 7900 9
2 7901 4
2 7902 48
2 7903 57
2 7904 114
2 7905 6
2 7906 4
2 7907 29
2 7908 18
2 7909 111
2 7910 7
2 7911 5
2 7912 48
2 7913 81
2 7914 45
2 7915 25
2 7916 92
2 7917 57
2 7918 6
2 7919 1034
2 7920 97
2 7921 8
2 7922 139
2 7923 44
2 7924 5
2 7925 55
2 7926 7
2 7927 5
2 7928 8
2 7929 4
2 7930 4
2 7931 4
2 7932 7
2 7933 71
2 7934 66
2 7935 11
2 7936 112
2 7937 9
2 7938 909
2 7939 11
2 7940 9
2 7941 5
2 7942 3
2 7943 6
2 7944 7
2 7945 11
2 7946 36
2 7947 14
2 7948 5
2 7949 46
2 7950 9
2 7951 52
2 7952 13
2 7953 195
2 7954 129
2 7955 9
2 7956 58
2 7957 6
2 7958 13
2 7959 2
2 7960 12
2 7961 15
2 7962 52
2 7963 7
2 7964 18
2 7965 98
2 7966 2
2 7967 75
2 7968 68
2 7969 10
2 7970 173
2 7971 108
2 7972 1272
2 7973 4
2 7974 25
2 7975 792
2 7976 97
2 7977 78
2 7978 1
2 7979 7
2 7980 114
2 7981 46
2 7982 123
2 7983 9
2 7984 293
2 7985 60
2 7986 91
2 7987 52
2 7988 5
2 7989 1262
2 7990 5
2 7991 165
2 7992 352
2 7993 6
2 7994 96
2 7995 13
2 7996 106
2 7997 7
2 7998 7
2 7999 8
2 8000 8
2 8001 108
2 8002 31
2 8003 4
2 8004 107
2 8005 37
2 8006 70
2 8007 1253
2 8008 67
2 8009 2
2 8010 83
2 8011 150
2 8012 1260
2 8013 8
2 8014 66
2 8015 245
2 8016 124
2 8017 16
2 8018 11
2 8019 6
2 8020 5
2 8021 6
2 8022 180
2 8023 118
2 8024 86
2 8025 828
2 8026 8
2 8027 6
2 8028 4
2 8029 1
2 8030 10
2 8031 42
2 8032 5
2 8033 7
2 8034 6
2 8035 2
2 8036 1134
2 8037 14
2 8038 130
2 8039 350
2 8040 134
2 8041 2
2 8042 91
2 8043 95
2 8044 151
2 8045 3
2 8046 66
2 8047 99
2 8048 190
2 8049 48
2 8050 102
2 8051 103
2 8052 141
2 8053 25
2 8054 82
2 8055 5
2 8056 7
2 8057 63
2 8058 5
2 8059 9
2 8060 9
2 8061 38
2 8062 46
2 8063 3
2 8064 174
2 8065 144
2 8066 4
2 8067 65
2 8068 4
2 8069 2
2 8070 30
2 8071 112
2 8072 6
2 8073 158
2 8074 85
2 8075 398
2 8076 4
2 8077 121
2 8078 10
2 8079 8
2 8080 11
2 8081 8
2 8082 4
2 8083 94
2 8084 44
2 8085 39
2 8086 107
2 8087 98
2 8088 14
2 8089 8
2 8090 9
2 8091 11
2 8092 9
2 8093 6
2 8094 44
2 8095 8
2 8096 6
2 8097 4
2 8098 50
2 8099 6
2 8100 3
2 8101 53
2 8102 2
2 8103 131
2 8104 9
2 8105 15
2 8106 54
2 8107 7
2 8108 428
2 8109 2
2 8110 3
2 8111 7
2 8112 47
2 8113 7
2 8114 143
2 8115 176
2 8116 112
2 8117 5
2 8118 31
2 8119 91
2 8120 71
2 8121 7
2 8122 2
2 8123 56
2 8124 66
2 8125 81
2 8126 8
2 8127 80
2 8128 9
2 8129 9
2 8130 46
2 8131 6
2 8132 72
2 8133 60
2 8134 10
2 8135 132
2 8136 343
2 8137 6
2 8138 89
2 8139 9
2 8140 56
2 8141 166
2 8142 182
2 8143 7
2 8144 6
2 8145 8
2 8146 2
2 8147 9
2 8148 88
2 8149 50
2 8150 108
2 8151 6
2 8152 7
2 8153 98
2 8154 9
2 8155 102
2 8156 7
2 8157 63
2 8158 3
2 8159 5
2 8160 3
2 8161 696
2 8162 5
2 8163 11
2 8164 115
2 8165 4
2 8166 1127
2 8167 63
2 8168 5
2 8169 81
2 8170 70
2 8171 6
2 8172 5
2 8173 142
2 8174 23
2 8175 111
2 8176 75
2 8177 15
2 8178 76
2 8179 11
2 8180 158
2 8181 2
2 8182 89
2 8183 68
2 8184 29
2 8185 7
2 8186 154
2 8187 142
2 8188 6
2 8189 9
2 8190 5
2 8191 382
2 8192 6
2 8193 2
2 8194 246
2 8195 7
2 8196 129
2 8197 61
2 8198 91
2 8199 12
2 8200 162
2 8201 118
2 8202 65
2 8203 6
2 8204 9
2 8205 4
2 8206 5
2 8207 98
2 8208 4
2 8209 7
2 8210 11
2 8211 62
2 8212 4
2 8213 398
2 8214 6
2 8215 7
2 8216 1134
2 8217 74
2 8218 3
2 8219 4
2 8220 22
2 8221 102
2 8222 95
2 8223 7
2 8224 1030
2 8225 26
2 8226 4
2 8227 107
2 8228 5
2 8229 71
2 8230 111
2 8231 10
2 8232 6
2 8233 3
2 8234 96
2 8235 57
2 8236 144
2 8237 93
2 8238 5
2 8239 2
2 8240 29
2 8241 16
2 8242 34
2 8243 4
2 8244 8
2 8245 31
2 8246 75
2 8247 5
2 8248 563
2 8249 6
2 8250 160
2 8251 9
2 8252 68
2 8253 39
2 8254 5
2 8255 116
2 8256 21
2 8257 49
2 8258 4
2 8259 428
2 8260 60
2 8261 4
2 8262 56
2 8263 9
2 8264 7
2 8265 2
2 8266 23
2 8267 9
2 8268 4
2 8269 1228
2 8270 59
2 8271 9
2 8272 92
2 8273 74
2 8274 2
2 8275 6
2 8276 4
2 8277 104
2 8278 9
2 8279 10
2 8280 48
2 8281 37
2 8282 6
2 8283 2
2 8284 56
2 8285 6
2 8286 98
2 8287 53
2 8288 6
2 8289 4
2 8290 2
2 8291 202
2 8292 142
2 8293 12
2 8294 36
2 8295 79
2 8296 6
2 8297 65
2 8298 125
2 8299 110
2 8300 13
2 8301 34
2 8302 118
2 8303 30
2 8304 83
2 8305 64
2 8306 8
2 8307 60
2 8308 31
2 8309 74
2 8310 1
2 8311 10
2 8312 3
2 8313 1012
2 8314 412
2 8315 3
2 8316 329
2 8317 162
2 8318 9
2 8319 8
2 8320 102
2 8321 712
2 8322 13
2 8323 7
2 8324 5
2 8325 7
2 8326 987
2 8327 85
2 8328 1
2 8329 9
2 8330 2
2 8331 6
2 8332 3
2 8333 111
2 8334 53
2 8335 5
2 8336 2
2 8337 2
2 8338 72
2 8339 92
2 8340 4
2 8341 52
2 8342 6
2 8343 102
2 8344 62
2 8345 112
2 8346 52
2 8347 16
2 8348 4
2 8349 88
2 8350 2
2 8351 3
2 8352 5
2 8353 32
2 8354 3
2 8355 999
2 8356 52
2 8357 102
2 8358 49
2 8359 71
2 8360 3
2 8361 7
2 8362 5
2 8363 10
2 8364 5
2 8365 48
2 8366 4
2 8367 3
2 8368 8
2 8369 3
2 8370 90
2 8371 3
2 8372 8
2 8373 122
2 8374 56
2 8375 11
2 8376 88
2 8377 117
2 8378 120
2 8379 68
2 8380 13
2 8381 48
2 8382 1266
2 8383 1265
2 8384 1
2 8385 85
2 8386 8
2 8387 7
2 8388 54
2 8389 8
2 8390 136
2 8391 5
2 8392 2
2 8393 9
2 8394 253
2 8395 4
2 8396 74
2 8397 1105
2 8398 30
2 8399 4
2 8400 6
2 8401 311
2 8402 32
2 8403 122
2 8404 6
2 8405 11
2 8406 51
2 8407 4
2 8408 13
2 8409 6
2 8410 2
2 8411 42
2 8412 83
2 8413 6
2 8414 18
2 8415 1175
2 8416 128
2 8417 9
2 8418 11
2 8419 7
2 8420 6
2 8421 128
2 8422 4
2 8423 6
2 8424 9
2 8425 75
2 8426 107
2 8427 4
2 8428 154
2 8429 111
2 8430 9
2 8431 202
2 8432 2
2 8433 1
2 8434 6
2 8435 17
2 8436 132
2 8437 8
2 8438 2
2 8439 71
2 8440 10
2 8441 80
2 8442 4
2 8443 13
2 8444 4
2 8445 18
2 8446 62
2 8447 5
2 8448 96
2 8449 5
2 8450 90
2 8451 83
2 8452 98
2 8453 98
2 8454 9
2 8455 20
2 8456 4
2 8457 3
2 8458 8
2 8459 136
2 8460 43
2 8461 98
2 8462 95
2 8463 5
2 8464 74
2 8465 34
2 8466 8
2 8467 4
2 8468 27
2 8469 162
2 8470 102
2 8471 5
2 8472 4
2 8473 2
2 8474 61
2 8475 15
2 8476 12
2 8477 110
2 8478 87
2 8479 76
2 8480 3
2 8481 63
2 8482 73
2 8483 46
2 8484 8
2 8485 7
2 8486 36
2 8487 1
2 8488 979
2 8489 3
2 8490 26
2 8491 114
2 8492 67
2 8493 3
2 8494 1
2 8495 3
2 8496 4
2 8497 71
2 8498 106
2 8499 10
2 8500 4
2 8501 7
2 8502 224
2 8503 3
2 8504 2
2 8505 81
2 8506 6
2 8507 9
2 8508 441
2 8509 401
2 8510 4
2 8511 7
2 8512 182
2 8513 8
2 8514 75
2 8515 74
2 8516 90
2 8517 72
2 8518 37
2 8519 93
2 8520 1
2 8521 74
2 8522 13
2 8523 4
2 8524 100
2 8525 6
2 8526 6
2 8527 82
2 8528 9
2 8529 49
2 8530 7
2 8531 97
2 8532 102
2 8533 5
2 8534 17
2 8535 5
2 8536 17
2 8537 4
2 8538 83
2 8539 71
2 8540 346
2 8541 45
2 8542 5
2 8543 3
2 8544 75
2 8545 303
2 8546 12
2 8547 53
2 8548 142
2 8549 7
2 8550 142
2 8551 5
2 8552 7
2 8553 7
2 8554 2
2 8555 8
2 8556 64
2 8557 31
2 8558 8
2 8559 3
2 8560 50
2 8561 2
2 8562 3
2 8563 4
2 8564 1146
2 8565 6
2 8566 4
2 8567 10
2 8568 70
2 8569 68
2 8570 76
2 8571 22
2 8572 44
2 8573 78
2 8574 9
2 8575 95
2 8576 83
2 8577 41
2 8578 139
2 8579 100
2 8580 7
2 8581 143
2 8582 7
2 8583 7
2 8584 527
2 8585 3
2 8586 72
2 8587 3
2 8588 110
2 8589 71
2 8590 4
2 8591 8
2 8592 4
2 8593 171
2 8594 91
2 8595 5
2 8596 3
2 8597 6
2 8598 29
2 8599 25
2 8600 2
2 8601 47
2 8602 51
2 8603 105
2 8604 4
2 8605 5
2 8606 13
2 8607 45
2 8608 4
2 8609 116
2 8610 9
2 8611 4
2 8612 149
2 8613 6
2 8614 90
2 8615 4
2 8616 4
2 8617 91
2 8618 33
2 8619 4
2 8620 46
2 8621 123
2 8622 164
2 8623 6
2 8624 3
2 8625 6
2 8626 6
2 8627 89
2 8628 7
2 8629 7
2 8630 414
2 8631 809
2 8632 12
2 8633 15
2 8634 2
2 8635 2
2 8636 39
2 8637 6
2 8638 3
2 8639 9
2 8640 95
2 8641 98
2 8642 62
2 8643 54
2 8644 3
2 8645 112
2 8646 21
2 8647 17
2 8648 5
2 8649 57
2 8650 30
2 8651 4
2 8652 36
2 8653 5
2 8654 55
2 8655 8
2 8656 203
2 8657 5
2 8658 4
2 8659 28
2 8660 9
2 8661 5
2 8662 27
2 8663 74
2 8664 60
2 8665 6
2 8666 1080
2 8667 125
2 8668 42
2 8669 4
2 8670 3
2 8671 10
2 8672 68
2 8673 106
2 8674 6
2 8675 3
2 8676 76
2 8677 7
2 8678 1
2 8679 11
2 8680 5
2 8681 94
2 8682 3
2 8683 5
2 8684 64
2 8685 95
2 8686 1177
2 8687 6
2 8688 5
2 8689 5
2 8690 144
2 8691 5
2 8692 7
2 8693 55
2 8694 39
2 8695 1133
2 8696 4
2 8697 2
2 8698 593
2 8699 2
2 8700 53
2 8701 8
2 8702 1
2 8703 22
2 8704 11
2 8705 7
2 8706 3
2 8707 93
2 8708 64
2 8709 4
2 8710 8
2 8711 4
2 8712 10
2 8713 6
2 8714 131
2 8715 5
2 8716 2
2 8717 3
2 8718 56
2 8719 5
2 8720 45
2 8721 6
2 8722 113
2 8723 132
2 8724 2
2 8725 64
2 8726 121
2 8727 5
2 8728 8
2 8729 13
2 8730 29
2 8731 4
2 8732 8
2 8733 6
2 8734 4
2 8735 7
2 8736 3
2 8737 84
2 8738 5
2 8739 84
2 8740 84
2 8741 561
2 8742 134
2 8743 5
2 8744 11
2 8745 80
2 8746 110
2 8747 3
2 8748 45
2 8749 4
2 8750 117
2 8751 6
2 8752 76
2 8753 5
2 8754 57
2 8755 106
2 8756 44
2 8757 45
2 8758 9
2 8759 48
2 8760 943
2 8761 8
2 8762 9
2 8763 74
2 8764 91
2 8765 4
2 8766 9
2 8767 6
2 8768 8
2 8769 18
2 8770 304
2 8771 5
2 8772 96
2 8773 6
2 8774 929
2 8775 6
2 8776 5
2 8777 17
2 8778 102
2 8779 3
2 8780 4
2 8781 9
2 8782 1
2 8783 151
2 8784 24
2 8785 51
2 8786 59
2 8787 94
2 8788 103
2 8789 68
2 8790 42
2 8791 89
2 8792 5
2 8793 5
2 8794 145
2 8795 88
2 8796 113
2 8797 110
2 8798 12
2 8799 3
2 8800 40
2 8801 67
2 8802 100
2 8803 4
2 8804 24
2 8805 71
2 8806 52
2 8807 3
2 8808 11
2 8809 5
2 8810 4
2 8811 93
2 8812 8
2 8813 44
2 8814 98
2 8815 184
2 8816 52
2 8817 101
2 8818 6
2 8819 6
2 8820 6
2 8821 2
2 8822 38
2 8823 3
2 8824 116
2 8825 38
2 8826 53
2 8827 12
2 8828 80
2 8829 7
2 8830 60
2 8831 71
2 8832 6
2 8833 138
2 8834 12
2 8835 322
2 8836 1113
2 8837 10
2 8838 51
2 8839 6
2 8840 82
2 8841 65
2 8842 138
2 8843 16
2 8844 49
2 8845 26
2 8846 42
2 8847 5
2 8848 6
2 8849 111
2 8850 3
2 8851 36
2 8852 85
2 8853 67
2 8854 4
2 8855 82
2 8856 11
2 8857 58
2 8858 4
2 8859 313
2 8860 69
2 8861 93
2 8862 38
2 8863 54
2 8864 868
2 8865 45
2 8866 59
2 8867 4
2 8868 127
2 8869 8
2 8870 6
2 8871 6
2 8872 73
2 8873 91
2 8874 212
2 8875 146
2 8876 56
2 8877 40
2 8878 1
2 8879 35
2 8880 8
2 8881 9
2 8882 30
2 8883 8
2 8884 86
2 8885 3
2 8886 9
2 8887 5
2 8888 42
2 8889 2
2 8890 5
2 8891 1130
2 8892 4
2 8893 9
2 8894 70
2 8895 21
2 8896 4
2 8897 3
2 8898 30
2 8899 52
2 8900 60
2 8901 1
2 8902 1101
2 8903 83
2 8904 48
2 8905 62
2 8906 45
2 8907 32
2 8908 21
2 8909 35
2 8910 9
2 8911 54
2 8912 772
2 8913 562
2 8914 66
2 8915 7
2 8916 8
2 8917 6
2 8918 5
2 8919 8
2 8920 44
2 8921 214
2 8922 161
2 8923 7
2 8924 8
2 8925 148
2 8926 51
2 8927 145
2 8928 2
2 8929 8
2 8930 71
2 8931 3
2 8932 1
2 8933 4
2 8934 298
2 8935 168
2 8936 4
2 8937 6
2 8938 43
2 8939 5
2 8940 71
2 8941 81
2 8942 29
2 8943 58
2 8944 4
2 8945 6
2 8946 2
2 8947 122
2 8948 90
2 8949 4
2 8950 1
2 8951 5
2 8952 6
2 8953 9
2 8954 70
2 8955 1
2 8956 116
2 8957 1119
2 8958 6
2 8959 82
2 8960 36
2 8961 77
2 8962 119
2 8963 126
2 8964 4
2 8965 5
2 8966 1
2 8967 55
2 8968 50
2 8969 30
2 8970 5
2 8971 4
2 8972 126
2 8973 32
2 8974 6
2 8975 121
2 8976 31
2 8977 6
2 8978 47
2 8979 4
2 8980 112
2 8981 41
2 8982 61
2 8983 85
2 8984 110
2 8985 89
2 8986 1
2 8987 5
2 8988 5
2 8989 6
2 8990 5
2 8991 3
2 8992 144
2 8993 12
2 8994 10
2 8995 4
2 8996 91
2 8997 1
2 8998 65
2 8999 4
2 9000 2
2 9001 62
2 9002 68
2 9003 15
2 9004 92
2 9005 5
2 9006 52
2 9007 48
2 9008 74
2 9009 42
2 9010 43
2 9011 45
2 9012 2
2 9013 75
2 9014 6
2 9015 30
2 9016 38
2 9017 359
2 9018 5
2 9019 57
2 9021 8
2 9022 35
2 9023 5
2 9024 30
2 9025 2
2 9026 63
2 9027 6
2 9028 38
2 9029 31
2 9030 61
2 9031 51
2 9032 4
2 9033 40
2 9034 35
2 9035 57
2 9036 5
2 9037 74
2 9038 2
2 9039 1
2 9040 67
2 9041 9
2 9042 98
2 9043 52
2 9044 46
2 9045 93
2 9046 2
2 9047 7
2 9048 5
2 9049 7
2 9050 5
2 9051 45
2 9052 276
2 9053 2
2 9054 5
2 9055 2
2 9056 6
2 9057 12
2 9058 11
2 9059 3
2 9060 9
2 9061 9
2 9062 43
2 9063 3
2 9064 5
2 9065 8
2 9066 4
2 9067 6
2 9068 6
2 9069 5
2 9070 5
2 9071 4
2 9072 10
2 9073 2
2 9074 94
2 9075 55
2 9076 110
2 9077 4
2 9078 28
2 9079 102
2 9080 7
2 9081 1
2 9082 2
2 9083 75
2 9084 8
2 9085 8
2 9086 7
2 9087 50
2 9088 64
2 9089 53
2 9090 1134
2 9091 176
2 9092 151
2 9093 112
2 9094 78
2 9095 105
2 9096 5
2 9097 127
2 9098 26
2 9099 59
2 9100 64
2 9101 60
2 9102 117
2 9103 20
2 9104 4
2 9105 544
2 9106 4
2 9107 7
2 9108 95
2 9109 34
2 9110 12
2 9111 62
2 9112 27
2 9113 6
2 9114 7
2 9115 177
2 9116 7
2 9117 63
2 9118 7
2 9119 68
2 9120 80
2 9121 99
2 9122 10
2 9123 57
2 9124 58
2 9125 5
2 9126 7
2 9127 4
2 9128 59
2 9129 959
2 9130 103
2 9131 5
2 9132 4
2 9133 4
2 9134 43
2 9135 6
2 9136 28
2 9137 6
2 9138 3
2 9139 71
2 9140 108
2 9141 1150
2 9142 3
2 9143 7
2 9144 9
2 9145 4
2 9146 53
2 9147 152
2 9148 85
2 9149 3
2 9150 6
2 9151 58
2 9152 14
2 9153 80
2 9154 9
2 9155 26
2 9156 3
2 9157 81
2 9158 54
2 9159 5
2 9160 42
2 9161 44
2 9162 238
2 9163 2
2 9164 67
2 9165 7
2 9166 34
2 9167 643
2 9168 32
2 9169 59
2 9170 49
2 9171 11
2 9172 59
2 9173 29
2 9174 19
2 9175 2
2 9176 25
2 9177 5
2 9178 5
2 9179 3
2 9180 4
2 9181 106
2 9182 6
2 9183 4
2 9184 11
2 9185 62
2 9186 61
2 9187 26
2 9188 107
2 9189 39
2 9190 60
2 9191 1
2 9192 65
2 9193 14
2 9194 8
2 9195 59
2 9196 7
2 9197 4
2 9198 5
2 9199 8
2 9200 147
2 9201 4
2 9202 164
2 9203 27
2 9204 85
2 9205 17
2 9206 178
2 9207 122
2 9208 18
2 9209 6
2 9210 238
2 9211 25
2 9212 4
2 9213 131
2 9214 99
2 9215 5
2 9216 4
2 9217 64
2 9218 92
2 9219 6
2 9220 7
2 9221 9
2 9222 89
2 9223 100
2 9224 79
2 9225 21
2 9226 7
2 9227 7
2 9228 49
2 9229 58
2 9230 3
2 9231 54
2 9232 41
2 9233 74
2 9234 119
2 9235 65
2 9236 1
2 9237 3
2 9238 38
2 9239 4
2 9240 4
2 9241 69
2 9242 4
2 9243 1
2 9244 4
2 9245 43
2 9246 7
2 9247 4
2 9248 35
2 9249 194
2 9250 6
2 9251 5
2 9252 93
2 9253 121
2 9254 68
2 9255 126
2 9256 7
2 9257 10
2 9258 55
2 9259 3
2 9260 63
2 9261 83
2 9262 90
2 9263 6
2 9264 41
2 9265 7
2 9266 121
2 9267 415
2 9268 194
2 9269 4
2 9270 7
2 9271 7
2 9272 117
2 9273 4
2 9274 2
2 9275 2
2 9276 8
2 9277 49
2 9278 70
2 9279 69
2 9280 55
2 9281 1238
2 9282 7
2 9283 56
2 9284 120
2 9285 11
2 9286 122
2 9287 11
2 9288 56
2 9289 92
2 9290 39
2 9291 77
2 9292 962
2 9293 60
2 9294 113
2 9295 9
2 9296 82
2 9297 86
2 9298 4
2 9299 117
2 9300 57
2 9301 3
2 9302 228
2 9303 5
2 9304 105
2 9305 8
2 9306 65
2 9307 101
2 9308 50
2 9309 51
2 9310 2
2 9311 2
2 9312 48
2 9313 57
2 9314 3
2 9315 11
2 9316 13
2 9317 113
2 9318 139
2 9319 87
2 9320 44
2 9321 164
2 9322 113
2 9323 9
2 9324 5
2 9325 19
2 9326 156
2 9327 99
2 9328 8
2 9329 7
2 9330 6
2 9331 46
2 9332 5
2 9333 55
2 9334 4
2 9335 1
2 9336 14
2 9337 72
2 9338 1
2 9339 8
2 9340 2
2 9341 10
2 9342 6
2 9343 119
2 9344 14
2 9345 6
2 9346 5
2 9347 6
2 9348 28
2 9349 6
2 9350 7
2 9351 70
2 9352 47
2 9353 6
2 9354 6
2 9355 4
2 9356 89
2 9357 69
2 9358 57
2 9359 6
2 9360 82
2 9361 152
2 9362 7
2 9363 178
2 9364 322
2 9365 105
2 9366 107
2 9367 47
2 9368 5
2 9369 401
2 9370 119
2 9371 41
2 9372 1
2 9373 6
2 9374 5
2 9375 67
2 9376 4
2 9377 89
2 9378 4
2 9379 80
2 9380 983
2 9381 115
2 9382 5
2 9383 42
2 9384 6
2 9385 6
2 9386 161
2 9387 47
2 9388 165
2 9389 110
2 9390 59
2 9391 5
2 9392 6
2 9393 8
2 9394 46
2 9395 90
2 9396 839
2 9397 36
2 9398 2
2 9399 6
2 9400 25
2 9401 140
2 9402 43
2 9403 90
2 9404 3
2 9405 5
2 9406 138
2 9407 3
2 9408 15
2 9410 7
2 9411 4
2 9412 31
2 9413 100
2 9415 10
2 9416 37
2 9417 6
2 9418 59
2 9419 19
2 9420 21
2 9421 8
2 9422 10
2 9423 375
2 9424 34
2 9425 77
2 9426 9
2 9427 77
2 9428 11
2 9429 890
2 9430 47
2 9431 9
2 9432 10
2 9433 9
2 9434 11
2 9435 2
2 9436 63
2 9437 15
2 9438 47
2 9439 127
2 9440 14
2 9441 5
2 9442 6
2 9443 8
2 9444 7
2 9445 83
2 9446 46
2 9447 127
2 9448 41
2 9449 5
2 9450 815
2 9451 76
2 9452 1
2 9453 10
2 9454 100
2 9455 494
2 9456 6
2 9457 58
2 9458 73
2 9459 62
2 9460 5
2 9461 29
2 9462 10
2 9463 8
2 9464 174
2 9465 8
2 9466 10
2 9467 7
2 9468 79
2 9469 7
2 9470 3
2 9471 82
2 9472 5
2 9473 57
2 9474 125
2 9475 8
2 9476 1190
2 9477 48
2 9478 2
2 9479 980
2 9480 4
2 9481 8
2 9482 95
2 9483 3
2 9484 52
2 9485 138
2 9486 83
2 9487 1
2 9488 52
2 9489 13
2 9490 4
2 9491 2
2 9492 6
2 9493 81
2 9494 11
2 9495 10
2 9496 120
2 9497 5
2 9498 6
2 9499 39
2 9500 28
2 9501 39
2 9502 136
2 9503 6
2 9504 28
2 9505 46
2 9506 4
2 9507 14
2 9508 2
2 9509 48
2 9510 42
2 9511 10
2 9512 101
2 9513 105
2 9514 43
2 9515 36
2 9516 62
2 9517 73
2 9518 117
2 9519 140
2 9520 4
2 9521 81
2 9522 100
2 9523 242
2 9524 152
2 9525 8
2 9526 27
2 9527 22
2 9528 77
2 9529 7
2 9530 7
2 9531 76
2 9532 73
2 9533 83
2 9534 25
2 9535 100
2 9536 10
2 9537 122
2 9538 102
2 9539 5
2 9540 130
2 9541 5
2 9542 6
2 9543 442
2 9544 126
2 9545 45
2 9546 3
2 9547 7
2 9548 146
2 9549 65
2 9550 4
2 9551 144
2 9552 8
2 9553 71
2 9554 5
2 9555 958
2 9556 9
2 9557 133
2 9558 136
2 9559 11
2 9560 7
2 9561 862
2 9562 7
2 9563 101
2 9564 33
2 9565 71
2 9566 9
2 9567 4
2 9568 49
2 9569 144
2 9570 6
2 9571 14
2 9572 353
2 9573 71
2 9574 5
2 9575 139
2 9576 1163
2 9577 185
2 9578 97
2 9579 15
2 9580 83
2 9581 102
2 9582 120
2 9583 5
2 9584 78
2 9585 8
2 9586 42
2 9587 111
2 9588 7
2 9589 16
2 9590 63
2 9591 26
2 9592 39
2 9593 183
2 9594 70
2 9595 71
2 9596 48
2 9597 24
2 9598 64
2 9599 8
2 9600 140
2 9601 59
2 9603 38
2 9604 109
2 9605 40
2 9606 678
2 9607 179
2 9608 52
2 9609 31
2 9610 27
2 9611 3
2 9612 219
2 9613 17
2 9615 6
2 9616 159
2 9617 7
2 9618 10
2 9619 4
2 9620 6
2 9621 33
2 9622 39
2 9623 61
2 9624 7
2 9625 6
2 9626 3
2 9627 55
2 9628 49
2 9629 3
2 9630 75
2 9631 5
2 9632 113
2 9633 5
2 9634 1
2 9635 94
2 9636 5
2 9637 28
2 9638 62
2 9639 33
2 9640 202
2 9641 13
2 9642 77
2 9643 36
2 9644 35
2 9645 115
2 9646 3
2 9647 10
2 9648 9
2 9649 116
2 9650 23
2 9651 31
2 9652 42
2 9653 151
2 9654 56
2 9655 178
2 9656 9
2 9657 103
2 9658 316
2 9659 7
2 9660 137
2 9661 62
2 9662 51
2 9663 13
2 9664 63
2 9665 5
2 9666 21
2 9667 228
2 9668 4
2 9669 134
2 9670 121
2 9671 7
2 9672 83
2 9673 5
2 9674 7
2 9675 6
2 9676 4
2 9677 3
2 9678 13
2 9679 115
2 9680 132
2 9681 4
2 9682 1
2 9683 6
2 9684 721
2 9685 804
2 9686 54
2 9687 127
2 9688 100
2 9689 98
2 9690 8
2 9691 4
2 9692 64
2 9693 799
2 9694 15
2 9695 91
2 9696 50
2 9697 8
2 9698 4
2 9699 107
2 9700 1255
2 9701 86
2 9702 59
2 9703 3
2 9704 48
2 9705 2
2 9706 4
2 9707 110
2 9708 74
2 9709 132
2 9710 7
2 9711 100
2 9712 61
2 9713 2
2 9714 6
2 9715 9
2 9716 83
2 9717 37
2 9718 89
2 9719 123
2 9720 59
2 9721 6
2 9722 8
2 9723 5
2 9724 61
2 9725 7
2 9726 73
2 9727 14
2 9728 7
2 9729 34
2 9730 8
2 9731 4
2 9732 14
2 9733 46
2 9734 6
2 9735 5
2 9736 110
2 9737 2
2 9738 8
2 9739 88
2 9740 45
2 9741 78
2 9742 541
2 9743 99
2 9744 2
2 9745 2
2 9746 5
2 9747 33
2 9748 111
2 9749 4
2 9750 171
2 9751 5
2 9752 307
2 9753 27
2 9754 3
2 9755 105
2 9756 3
2 9757 131
2 9758 8
2 9759 56
2 9760 1169
2 9761 6
2 9762 164
2 9763 4
2 9764 199
2 9765 129
2 9766 37
2 9767 3
2 9768 170
2 9769 6
2 9770 81
2 9771 4
2 9772 8
2 9773 1054
2 9774 137
2 9775 112
2 9776 2
2 9777 101
2 9778 174
2 9779 6
2 9780 10
2 9781 20
2 9782 8
2 9783 6
2 9784 10
2 9785 100
2 9786 6
2 9787 12
2 9788 77
2 9789 8
2 9790 37
2 9791 101
2 9792 7
2 9793 20
2 9794 111
2 9795 80
2 9796 7
2 9797 5
2 9798 56
2 9799 2
2 9800 7
2 9801 120
2 9802 875
2 9803 12
2 9804 29
2 9805 112
2 9806 9
2 9807 1097
2 9808 110
2 9809 4
2 9810 94
2 9811 8
2 9812 55
2 9813 105
2 9814 7
2 9815 71
2 9816 4
2 9817 52
2 9818 24
2 9819 12
2 9820 9
2 9821 4
2 9822 40
2 9823 4
2 9824 8
2 9825 36
2 9826 92
2 9827 6
2 9828 69
2 9829 58
2 9830 135
2 9831 14
2 9832 5
2 9833 6
2 9834 80
2 9835 10
2 9836 8
2 9837 7
2 9838 7
2 9839 8
2 9840 68
2 9841 49
2 9842 58
2 9843 4
2 9844 9
2 9845 88
2 9846 1
2 9847 12
2 9848 72
2 9849 78
2 9850 6
2 9851 147
2 9852 7
2 9853 105
2 9854 11
2 9855 9
2 9856 6
2 9857 5
2 9858 15
2 9859 122
2 9860 58
2 9861 68
2 9862 98
2 9863 8
2 9864 4
2 9865 57
2 9866 142
2 9867 60
2 9868 186
2 9869 1103
2 9870 5
2 9871 60
2 9872 51
2 9873 1
2 9874 5
2 9875 62
2 9876 9
2 9877 7
2 9878 4
2 9879 6
2 9880 10
2 9881 7
2 9882 3
2 9883 43
2 9884 6
2 9885 214
2 9886 144
2 9887 94
2 9888 7
2 9889 6
2 9890 11
2 9891 76
2 9892 6
2 9893 3
2 9894 3
2 9895 5
2 9896 138
2 9897 104
2 9898 2
2 9899 69
2 9900 7
2 9901 5
2 9902 79
2 9903 128
2 9904 11
2 9905 71
2 9906 145
2 9907 43
2 9908 21
2 9909 6
2 9910 54
2 9911 66
2 9912 715
2 9913 110
2 9914 106
2 9915 48
2 9916 219
2 9917 8
2 9918 8
2 9919 140
2 9920 4
2 9921 83
2 9922 16
2 9923 156
2 9924 47
2 9925 5
2 9926 24
2 9927 8
2 9928 96
2 9929 93
2 9930 53
2 9931 62
2 9932 89
2 9933 65
2 9934 992
2 9935 6
2 9936 28
2 9937 4
2 9938 5
2 9939 4
2 9940 4
2 9941 2
2 9942 5
2 9943 5
2 9944 3
2 9945 4
2 9946 4
2 9947 8
2 9948 5
2 9949 113
2 9950 28
2 9951 40
2 9952 52
2 9953 9
2 9954 8
2 9955 38
2 9956 45
2 9957 9
2 9958 65
2 9959 37
2 9960 61
2 9961 106
2 9962 99
2 9963 5
2 9964 5
2 9965 49
2 9966 91
2 9967 5
2 9968 7
2 9969 87
2 9970 128
2 9971 6
2 9972 3
2 9973 4
2 9974 6
2 9975 22
2 9976 79
2 9977 11
2 9978 8
2 9979 3
2 9980 30
2 9981 3
2 9982 7
2 9983 42
2 9984 1
2 9985 6
2 9986 3
2 9987 59
2 9988 5
2 9989 17
2 9990 3
2 9991 99
2 9992 77
2 9993 2
2 9994 42
2 9995 24
2 9996 96
2 9997 31
2 9998 42
2 9999 59
2 10000 8
2 10001 104
2 10002 70
2 10003 7
2 10004 4
2 10005 60
2 10006 1
2 10007 2
2 10008 6
2 10009 75
2 10010 62
2 10011 69
2 10012 21
2 10013 5
2 10014 3
2 10015 15
2 10016 278
2 10017 92
2 10018 3
2 10019 4
2 10020 15
2 10021 3
2 10022 6
2 10023 30
2 10024 7
2 10025 856
2 10026 17
2 10027 7
2 10028 6
2 10029 6
2 10030 71
2 10031 6
2 10032 107
2 10033 78
2 10034 115
2 10035 164
2 10036 100
2 10037 4
2 10038 4
2 10039 178
2 10040 42
2 10041 56
2 10042 87
2 10043 22
2 10044 60
2 10045 1019
2 10046 87
2 10047 5
2 10048 230
2 10049 3
2 10050 7
2 10051 6
2 10052 4
2 10053 7
2 10054 87
2 10055 4
2 10056 127
2 10057 4
2 10058 80
2 10059 126
2 10060 59
2 10061 5
2 10062 3
2 10063 93
2 10064 128
2 10065 4
2 10066 32
2 10067 4
2 10068 64
2 10069 73
2 10070 208
2 10071 35
2 10072 159
2 10073 52
2 10074 35
2 10075 5
2 10076 61
2 10077 10
2 10078 93
2 10079 44
2 10080 3
2 10081 4
2 10082 87
2 10083 31
2 10084 1043
2 10085 13
2 10086 46
2 10087 60
2 10088 4
2 10089 32
2 10090 7
2 10091 97
2 10092 3
2 10093 7
2 10094 94
2 10095 12
2 10096 6
2 10097 122
2 10098 2
2 10099 79
2 10100 54
2 10101 46
2 10102 101
2 10103 57
2 10104 3
2 10105 7
2 10106 90
2 10107 66
2 10108 14
2 10109 15
2 10110 7
2 10111 6
2 10112 176
2 10113 4
2 10114 4
2 10115 3
2 10116 10
2 10117 53
2 10118 35
2 10119 13
2 10120 67
2 10121 18
2 10122 6
2 10123 70
2 10124 72
2 10125 5
2 10126 49
2 10127 35
2 10128 5
2 10129 78
2 10130 49
2 10131 64
2 10132 9
2 10133 170
2 10134 6
2 10135 57
2 10136 13
2 10137 150
2 10138 567
2 10139 4
2 10140 97
2 10141 6
2 10142 79
2 10143 11
2 10144 1
2 10145 83
2 10146 18
2 10147 84
2 10148 56
2 10149 173
2 10150 7
2 10151 134
2 10152 59
2 10153 185
2 10154 8
2 10155 3
2 10156 37
2 10157 43
2 10158 1
2 10159 55
2 10160 9
2 10161 154
2 10162 80
2 10163 7
2 10164 142
2 10165 4
2 10166 6
2 10167 2
2 10168 104
2 10169 5
2 10170 9
2 10171 70
2 10172 77
2 10173 75
2 10174 49
2 10175 7
2 10176 2
2 10177 9
2 10178 4
2 10179 56
2 10180 8
2 10181 9
2 10182 7
2 10183 129
2 10184 2
2 10185 4
2 10186 2
2 10187 131
2 10188 4
2 10189 8
2 10190 187
2 10191 89
2 10192 59
2 10193 5
2 10194 4
2 10195 6
2 10196 21
2 10197 10
2 10198 46
2 10199 7
2 10200 649
2 10201 4
2 10202 96
2 10203 80
2 10204 4
2 10205 57
2 10206 6
2 10207 6
2 10208 6
2 10209 8
2 10210 4
2 10211 7
2 10212 10
2 10213 56
2 10214 52
2 10215 870
2 10216 7
2 10217 3
2 10218 4
2 10219 131
2 10220 3
2 10221 12
2 10222 87
2 10223 97
2 10224 7
2 10225 7
2 10226 43
2 10227 4
2 10228 58
2 10229 4
2 10230 5
2 10231 8
2 10232 757
2 10233 7
2 10234 9
2 10235 54
2 10236 153
2 10237 6
2 10238 3
2 10239 98
2 10240 6
2 10241 39
2 10242 4
2 10243 8
2 10244 40
2 10245 8
2 10246 6
2 10247 2
2 10248 4
2 10249 41
2 10250 57
2 10251 2
2 10252 37
2 10253 3
2 10254 48
2 10255 11
2 10256 84
2 10257 78
2 10258 104
2 10259 3
2 10260 6
2 10261 8
2 10262 6
2 10263 5
2 10264 162
2 10265 3
2 10266 104
2 10267 134
2 10268 118
2 10269 459
2 10270 57
2 10271 46
2 10272 2
2 10273 95
2 10274 111
2 10275 2
2 10276 121
2 10277 5
2 10278 10
2 10279 76
2 10280 5
2 10281 109
2 10282 86
2 10283 6
2 10284 13
2 10285 9
2 10286 98
2 10287 11
2 10288 64
2 10289 18
2 10290 63
2 10291 91
2 10292 108
2 10293 32
2 10294 32
2 10295 28
2 10296 11
2 10297 3
2 10298 57
2 10299 2
2 10300 7
2 10301 62
2 10302 55
2 10303 4
2 10304 41
2 10305 2
2 10306 50
2 10307 69
2 10308 68
2 10309 3
2 10310 7
2 10311 16
2 10312 105
2 10313 118
2 10314 86
2 10315 6
2 10316 2
2 10317 4
2 10318 25
2 10319 32
2 10320 3
2 10321 2
2 10322 129
2 10323 89
2 10324 8
2 10325 119
2 10326 7
2 10327 51
2 10328 4
2 10329 11
2 10330 44
2 10331 50
2 10332 5
2 10333 105
2 10334 108
2 10335 72
2 10336 10
2 10337 7
2 10338 6
2 10339 41
2 10340 50
2 10341 21
2 10342 5
2 10343 28
2 10344 4
2 10345 10
2 10346 78
2 10347 6
2 10348 5
2 10349 44
2 10350 6
2 10351 69
2 10352 9
2 10353 233
2 10354 34
2 10355 48
2 10356 37
2 10357 7
2 10358 122
2 10359 11
2 10360 83
2 10361 3
2 10362 4
2 10363 5
2 10364 151
2 10366 952
2 10367 64
2 10368 7
2 10369 4
2 10370 13
2 10371 114
2 10372 4
2 10373 62
2 10374 109
2 10375 26
2 10376 5
2 10377 223
2 10378 78
2 10379 41
2 10380 37
2 10381 86
2 10382 143
2 10383 9
2 10384 5
2 10385 135
2 10386 87
2 10387 83
2 10388 70
2 10389 4
2 10390 20
2 10391 155
2 10392 47
2 10393 2
2 10394 37
2 10395 4
2 10396 18
2 10397 5
2 10398 4
2 10399 127
2 10400 7
2 10401 7
2 10402 7
2 10403 76
2 10404 926
2 10405 92
2 10406 7
2 10407 33
2 10408 4
2 10409 8
2 10410 8
2 10411 7
2 10412 148
2 10413 159
2 10414 2
2 10415 4
2 10416 9
2 10417 13
2 10418 79
2 10419 4
2 10420 44
2 10421 112
2 10422 185
2 10423 45
2 10424 5
2 10425 779
2 10426 36
2 10427 769
2 10428 4
2 10429 62
2 10430 1
2 10431 8
2 10432 74
2 10433 91
2 10434 55
2 10435 74
2 10436 6
2 10437 8
2 10438 52
2 10439 24
2 10440 135
2 10441 5
2 10442 8
2 10443 7
2 10444 198
2 10445 88
2 10446 72
2 10447 64
2 10448 3
2 10449 14
2 10450 7
2 10451 5
2 10452 12
2 10453 2
2 10454 98
2 10455 3
2 10456 8
2 10457 83
2 10458 20
2 10459 5
2 10460 3
2 10461 99
2 10462 34
2 10463 10
2 10464 10
2 10465 44
2 10466 2
2 10467 64
2 10468 7
2 10469 5
2 10470 41
2 10471 149
2 10472 39
2 10473 6
2 10474 5
2 10475 73
2 10476 7
2 10477 150
2 10478 53
2 10479 73
2 10480 65
2 10481 1119
2 10482 103
2 10483 6
2 10484 5
2 10485 6
2 10486 709
2 10487 6
2 10488 60
2 10489 56
2 10490 2
2 10491 6
2 10492 2
2 10493 6
2 10494 88
2 10495 350
2 10496 75
2 10497 5
2 10498 5
2 10499 37
2 10500 30
2 10501 132
2 10502 10
2 10503 9
2 10504 1172
2 10505 9
2 10506 17
2 10507 67
2 10508 41
2 10509 53
2 10510 6
2 10511 110
2 10512 25
2 10513 4
2 10514 47
2 10515 4
2 10516 87
2 10517 137
2 10518 48
2 10519 6
2 10520 72
2 10521 1002
2 10522 33
2 10523 38
2 10524 7
2 10525 10
2 10526 30
2 10527 24
2 10528 121
2 10529 10
2 10530 6
2 10531 317
2 10532 3
2 10533 48
2 10534 7
2 10535 163
2 10536 40
2 10537 8
2 10538 8
2 10539 149
2 10540 3
2 10541 197
2 10542 80
2 10543 5
2 10544 11
2 10545 101
2 10546 90
2 10547 7
2 10548 105
2 10549 8
2 10550 5
2 10551 3
2 10552 6
2 10553 16
2 10554 11
2 10555 2
2 10556 168
2 10557 71
2 10558 153
2 10559 1
2 10560 4
2 10561 19
2 10562 17
2 10563 98
2 10564 5
2 10565 9
2 10566 157
2 10567 67
2 10568 62
2 10569 4
2 10570 131
2 10571 260
2 10572 15
2 10573 37
2 10574 7
2 10575 46
2 10576 77
2 10577 9
2 10578 42
2 10579 141
2 10580 49
2 10581 7
2 10582 997
2 10583 5
2 10584 24
2 10585 127
2 10586 115
2 10587 115
2 10588 4
2 10589 6
2 10590 7
2 10591 95
2 10592 151
2 10593 20
2 10594 2
2 10595 5
2 10596 42
2 10597 9
2 10598 103
2 10599 9
2 10600 53
2 10601 5
2 10602 94
2 10603 251
2 10604 3
2 10605 126
2 10606 5
2 10607 1093
2 10608 12
2 10609 111
2 10610 9
2 10611 87
2 10612 9
2 10613 35
2 10614 94
2 10615 16
2 10616 5
2 10617 2
2 10618 77
2 10619 136
2 10620 1
2 10621 178
2 10622 71
2 10623 91
2 10624 214
2 10625 122
2 10626 28
2 10627 134
2 10628 8
2 10629 10
2 10630 11
2 10631 1067
2 10632 5
2 10633 33
2 10634 60
2 10635 6
2 10636 7
2 10637 89
2 10638 4
2 10639 1
2 10640 3
2 10641 6
2 10642 66
2 10643 852
2 10644 46
2 10645 77
2 10646 31
2 10647 1
2 10648 27
2 10649 6
2 10650 86
2 10651 125
2 10652 95
2 10653 7
2 10654 68
2 10655 137
2 10656 134
2 10657 24
2 10658 58
2 10659 3
2 10660 3
2 10661 29
2 10662 24
2 10663 89
2 10664 123
2 10665 63
2 10666 23
2 10667 9
2 10668 7
2 10669 14
2 10670 4
2 10671 8
2 10672 4
2 10673 87
2 10674 108
2 10675 76
2 10676 7
2 10677 210
2 10678 1196
2 10679 71
2 10680 1
2 10681 84
2 10682 4
2 10683 7
2 10684 132
2 10685 9
2 10686 163
2 10687 120
2 10688 8
2 10689 62
2 10690 6
2 10691 229
2 10692 3
2 10693 90
2 10694 4
2 10695 70
2 10696 67
2 10697 4
2 10698 9
2 10699 83
2 10700 181
2 10701 60
2 10702 85
2 10703 6
2 10704 167
2 10705 173
2 10706 8
2 10707 9
2 10708 7
2 10709 1094
2 10710 208
2 10711 649
2 10712 4
2 10713 2
2 10714 59
2 10715 141
2 10716 57
2 10717 105
2 10718 10
2 10719 117
2 10720 122
2 10721 15
2 10722 3
2 10723 8
2 10724 61
2 10725 93
2 10726 15
2 10727 84
2 10728 91
2 10729 66
2 10730 79
2 10731 126
2 10732 33
2 10733 1135
2 10734 6
2 10735 4
2 10736 115
2 10737 6
2 10738 11
2 10739 48
2 10740 10
2 10741 98
2 10742 6
2 10743 106
2 10744 5
2 10745 10
2 10746 5
2 10747 4
2 10748 11
2 10749 82
2 10750 134
2 10751 43
2 10752 142
2 10753 4
2 10754 40
2 10755 5
2 10756 5
2 10757 120
2 10758 4
2 10759 7
2 10760 82
2 10761 61
2 10762 3
2 10763 10
2 10764 5
2 10765 8
2 10766 9
2 10767 5
2 10768 41
2 10769 5
2 10770 21
2 10771 8
2 10772 63
2 10773 5
2 10774 139
2 10775 128
2 10776 8
2 10777 121
2 10778 5
2 10779 7
2 10780 377
2 10781 6
2 10782 62
2 10783 5
2 10784 1
2 10785 8
2 10786 4
2 10787 161
2 10788 90
2 10789 3
2 10790 76
2 10791 5
2 10792 107
2 10793 4
2 10795 5
2 10796 8
2 10797 122
2 10798 87
2 10799 197
2 10800 5
2 10801 42
2 10802 61
2 10803 81
2 10804 1242
2 10805 77
2 10806 116
2 10807 5
2 10808 104
2 10809 3
2 10810 5
2 10811 76
2 10812 65
2 10813 6
2 10814 61
2 10815 37
2 10816 5
2 10817 4
2 10818 124
2 10819 57
2 10820 40
2 10821 8
2 10822 94
2 10823 95
2 10824 123
2 10825 70
2 10826 6
2 10827 9
2 10828 35
2 10829 12
2 10830 5
2 10831 5
2 10832 162
2 10833 93
2 10834 73
2 10835 47
2 10836 1228
2 10837 6
2 10838 75
2 10839 8
2 10840 7
2 10841 81
2 10842 4
2 10843 3
2 10844 83
2 10845 4
2 10846 43
2 10847 5
2 10848 55
2 10849 98
2 10850 9
2 10851 7
2 10852 9
2 10853 22
2 10854 125
2 10855 64
2 10856 86
2 10857 28
2 10858 74
2 10859 1205
2 10860 39
2 10861 8
2 10862 187
2 10863 4
2 10864 46
2 10865 6
2 10866 61
2 10867 43
2 10868 5
2 10869 9
2 10870 21
2 10871 65
2 10872 3
2 10873 24
2 10874 7
2 10875 57
2 10876 5
2 10877 83
2 10878 97
2 10879 101
2 10880 17
2 10881 241
2 10882 61
2 10883 87
2 10884 67
2 10885 67
2 10886 8
2 10887 83
2 10888 6
2 10889 5
2 10890 5
2 10891 49
2 10892 41
2 10893 94
2 10894 48
2 10895 125
2 10896 35
2 10897 81
2 10898 10
2 10899 65
2 10900 48
2 10901 70
2 10902 53
2 10903 102
2 10904 63
2 10905 9
2 10906 24
2 10907 259
2 10908 54
2 10909 56
2 10910 85
2 10911 4
2 10912 3
2 10913 11
2 10914 54
2 10915 76
2 10916 10
2 10917 25
2 10918 6
2 10919 54
2 10920 5
2 10921 7
2 10922 40
2 10923 79
2 10924 7
2 10925 9
2 10926 102
2 10927 3
2 10928 42
2 10929 4
2 10930 61
2 10931 12
2 10932 50
2 10933 66
2 10934 5
2 10935 64
2 10936 8
2 10937 49
2 10938 155
2 10939 78
2 10940 1246
2 10941 99
2 10942 8
2 10943 4
2 10944 5
2 10945 88
2 10946 7
2 10947 75
2 10948 106
2 10949 7
2 10950 101
2 10951 85
2 10952 122
2 10953 6
2 10954 8
2 10955 5
2 10956 4
2 10957 46
2 10958 82
2 10959 154
2 10960 40
2 10961 58
2 10962 125
2 10963 78
2 10964 4
2 10965 3
2 10966 6
2 10967 29
2 10968 77
2 10969 5
2 10970 7
2 10971 55
2 10972 11
2 10973 9
2 10974 78
2 10975 180
2 10976 136
2 10977 47
2 10978 46
2 10979 10
2 10980 120
2 10981 10
2 10982 35
2 10983 4
2 10984 14
2 10985 58
2 10986 211
2 10987 37
2 10988 90
2 10989 5
2 10990 11
2 10991 2
2 10992 12
2 10993 160
2 10994 32
2 10995 3
2 10996 17
2 10997 74
2 10998 10
2 10999 511
2 11000 1164
2 11001 86
2 11002 84
2 11003 10
2 11004 4
2 11005 188
2 11006 10
2 11007 47
2 11008 8
2 11009 12
2 11010 8
2 11011 113
2 11012 107
2 11013 35
2 11014 17
2 11015 6
2 11016 68
2 11017 8
2 11018 9
2 11019 7
2 11020 7
2 11021 60
2 11022 80
2 11023 1010
2 11024 3
2 11025 107
2 11026 7
2 11027 105
2 11028 5
2 11029 5
2 11030 5
2 11031 9
2 11032 4
2 11033 11
2 11034 54
2 11035 2
2 11036 7
2 11037 5
2 11038 5
2 11039 3
2 11040 85
2 11041 2
2 11042 106
2 11043 113
2 11044 62
2 11045 6
2 11046 6
2 11048 43
2 11049 5
2 11050 10
2 11051 4
2 11052 36
2 11053 4
2 11054 56
2 11055 4
2 11056 58
2 11057 5
2 11058 48
2 11059 43
2 11060 4
2 11061 114
2 11062 178
2 11063 134
2 11064 7
2 11065 5
2 11066 30
2 11067 3
2 11068 26
2 11069 8
2 11070 3
2 11071 7
2 11072 64
2 11073 707
2 11074 5
2 11075 5
2 11076 112
2 11077 307
2 11078 7
2 11079 61
2 11080 4
2 11081 4
2 11082 144
2 11083 348
2 11084 8
2 11085 5
2 11086 5
2 11087 83
2 11088 190
2 11089 4
2 11090 215
2 11091 86
2 11092 2
2 11093 69
2 11094 5
2 11095 73
2 11096 2
2 11097 4
2 11098 71
2 11099 2
2 11100 50
2 11101 8
2 11102 81
2 11103 965
2 11104 8
2 11105 78
2 11106 6
2 11107 1
2 11108 11
2 11109 79
2 11110 4
2 11111 154
2 11112 47
2 11113 5
2 11114 125
2 11115 2
2 11116 5
2 11117 91
2 11118 7
2 11119 14
2 11120 103
2 11121 48
2 11122 74
2 11123 64
2 11124 7
2 11125 79
2 11126 40
2 11127 11
2 11128 34
2 11129 8
2 11130 4
2 11132 29
2 11133 62
2 11134 36
2 11135 104
2 11136 107
2 11137 83
2 11138 15
2 11139 26
2 11140 7
2 11141 103
2 11142 10
2 11143 78
2 11144 8
2 11145 5
2 11146 94
2 11147 50
2 11148 66
2 11149 45
2 11150 6
2 11151 107
2 11152 87
2 11153 122
2 11154 37
2 11155 5
2 11156 7
2 11157 114
2 11158 7
2 11159 59
2 11160 84
2 11161 11
2 11162 63
2 11163 224
2 11164 9
2 11165 90
2 11166 66
2 11167 6
2 11168 69
2 11169 155
2 11170 45
2 11171 77
2 11172 71
2 11173 6
2 11174 4
2 11175 9
2 11176 49
2 11177 148
2 11179 69
2 11180 54
2 11181 6
2 11182 45
2 11183 3
2 11184 7
2 11185 60
2 11186 7
2 11187 4
2 11188 36
2 11189 2
2 11190 77
2 11191 994
2 11192 95
2 11193 58
2 11194 36
2 11195 3
2 11196 65
2 11197 2
2 11198 78
2 11199 9
2 11200 207
2 11201 126
2 11202 1
2 11203 5
2 11204 71
2 11205 6
2 11206 2
2 11207 98
2 11208 57
2 11209 5
2 11210 133
2 11211 5
2 11212 41
2 11213 3
2 11214 9
2 11215 16
2 11216 42
2 11217 74
2 11218 281
2 11219 4
2 11220 8
2 11221 48
2 11222 2
2 11223 69
2 11224 9
2 11225 187
2 11226 107
2 11227 77
2 11228 6
2 11229 764
2 11230 95
2 11231 6
2 11232 46
2 11233 75
2 11234 1124
2 11235 6
2 11236 10
2 11237 12
2 11238 10
2 11239 13
2 11240 70
2 11241 6
2 11242 166
2 11243 11
2 11244 6
2 11245 9
2 11246 12
2 11247 14
2 11248 40
2 11249 5
2 11250 3
2 11251 124
2 11252 5
2 11253 11
2 11254 4
2 11255 87
2 11256 1191
2 11257 10
2 11258 1
2 11259 555
2 11260 6
2 11261 5
2 11262 4
2 11263 331
2 11264 10
2 11265 2
2 11266 47
2 11267 5
2 11268 5
2 11269 633
2 11270 19
2 11271 11
2 11272 1099
2 11273 151
2 11274 123
2 11275 3
2 11276 98
2 11277 9
2 11278 7
2 11279 2
2 11280 79
2 11281 55
2 11282 5
2 11283 4
2 11284 128
2 11285 10
2 11286 1032
2 11287 195
2 11288 142
2 11289 592
2 11290 5
2 11291 119
2 11292 10
2 11293 191
2 11294 9
2 11295 129
2 11296 98
2 11297 11
2 11298 3
2 11299 6
2 11300 71
2 11301 4
2 11302 117
2 11303 129
2 11304 9
2 11305 83
2 11306 7
2 11307 95
2 11308 68
2 11309 46
2 11310 73
2 11311 85
2 11312 45
2 11313 40
2 11314 29
2 11315 90
2 11316 13
2 11317 87
2 11318 14
2 11319 11
2 11320 9
2 11321 6
2 11322 10
2 11323 5
2 11324 35
2 11325 42
2 11326 12
2 11327 949
2 11328 6
2 11329 10
2 11330 6
2 11331 100
2 11332 7
2 11333 8
2 11334 8
2 11335 7
2 11336 7
2 11337 65
2 11338 68
2 11339 2
2 11341 5
2 11342 4
2 11343 141
2 11344 42
2 11345 1182
2 11346 6
2 11347 21
2 11348 2
2 11349 193
2 11350 103
2 11351 7
2 11352 1227
2 11353 134
2 11354 131
2 11355 6
2 11356 118
2 11357 3
2 11358 14
2 11359 945
2 11360 23
2 11361 96
2 11362 6
2 11363 49
2 11364 11
2 11365 104
2 11366 7
2 11367 39
2 11368 8
2 11369 64
2 11370 6
2 11371 41
2 11372 141
2 11373 68
2 11374 7
2 11375 6
2 11376 3
2 11377 92
2 11378 6
2 11379 4
2 11380 6
2 11381 91
2 11382 6
2 11383 130
2 11384 121
2 11385 174
2 11386 55
2 11387 1116
2 11388 161
2 11389 43
2 11390 3
2 11391 125
2 11392 1
2 11393 6
2 11394 6
2 11395 52
2 11396 4
2 11397 5
2 11398 1
2 11399 7
2 11400 67
2 11401 46
2 11402 150
2 11403 4
2 11404 96
2 11405 5
2 11406 28
2 11407 5
2 11408 4
2 11409 6
2 11410 56
2 11412 14
2 11413 158
2 11414 137
2 11415 13
2 11416 10
2 11417 4
2 11418 95
2 11419 3
2 11420 9
2 11421 5
2 11422 32
2 11423 68
2 11424 12
2 11425 22
2 11426 73
2 11427 181
2 11428 68
2 11429 270
2 11430 83
2 11431 7
2 11432 66
2 11433 80
2 11434 12
2 11435 24
2 11436 2
2 11437 104
2 11438 33
2 11439 110
2 11440 118
2 11441 12
2 11442 1295
2 11443 11
2 11444 24
2 11445 58
2 11446 23
2 11447 5
2 11448 130
2 11449 95
2 11450 9
2 11451 41
2 11452 71
2 11453 5
2 11454 42
2 11455 58
2 11456 1140
2 11457 57
2 11458 9
2 11459 59
2 11460 68
2 11461 66
2 11462 4
2 11463 100
2 11464 3
2 11465 204
2 11466 126
2 11467 9
2 11468 5
2 11469 5
2 11470 5
2 11471 82
2 11472 5
2 11473 622
2 11474 5
2 11475 11
2 11476 9
2 11477 12
2 11478 355
2 11479 98
2 11480 42
2 11481 118
2 11482 8
2 11483 39
2 11484 45
2 11485 53
2 11486 10
2 11487 93
2 11488 6
2 11489 7
2 11490 9
2 11491 7
2 11492 72
2 11493 10
2 11494 1213
2 11495 4
2 11496 153
2 11497 3
2 11498 38
2 11499 1075
2 11500 9
2 11501 9
2 11502 8
2 11503 42
2 11504 104
2 11505 138
2 11506 42
2 11507 90
2 11508 7
2 11509 7
2 11510 2
2 11511 6
2 11512 7
2 11513 73
2 11514 91
2 11515 392
2 11516 130
2 11517 7
2 11518 61
2 11519 117
2 11520 7
2 11521 33
2 11522 99
2 11523 8
2 11524 66
2 11525 444
2 11526 2
2 11527 52
2 11528 63
2 11529 93
2 11530 8
2 11531 103
2 11532 6
2 11534 6
2 11535 103
2 11536 54
2 11537 4
2 11538 1202
2 11539 106
2 11540 10
2 11541 6
2 11542 48
2 11543 8
2 11544 3
2 11545 99
2 11546 79
2 11547 72
2 11548 7
2 11549 3
2 11550 157
2 11551 126
2 11552 22
2 11553 13
2 11554 77
2 11555 92
2 11556 4
2 11557 4
2 11558 121
2 11559 2
2 11560 1093
2 11561 42
2 11562 82
2 11563 986
2 11564 73
2 11565 201
2 11566 137
2 11567 143
2 11568 4
2 11569 6
2 11570 101
2 11571 38
2 11572 53
2 11573 3
2 11574 13
2 11575 7
2 11576 3
2 11577 8
2 11578 25
2 11579 53
2 11580 106
2 11581 39
2 11582 55
2 11583 12
2 11584 66
2 11585 121
2 11586 157
2 11587 118
2 11588 110
2 11590 39
2 11591 4
2 11592 162
2 11593 103
2 11594 15
2 11595 23
2 11596 113
2 11597 9
2 11598 8
2 11599 7
2 11600 143
2 11601 9
2 11602 3
2 11603 6
2 11604 110
2 11605 47
2 11606 82
2 11607 56
2 11608 838
2 11609 48
2 11610 119
2 11611 855
2 11612 46
2 11613 95
2 11614 692
2 11615 82
2 11616 126
2 11617 50
2 11618 36
2 11619 6
2 11620 61
2 11621 42
2 11622 8
2 11623 2
2 11624 13
2 11625 76
2 11626 49
2 11627 81
2 11628 30
2 11629 31
2 11630 6
2 11631 66
2 11632 159
2 11633 9
2 11634 5
2 11635 6
2 11636 24
2 11637 80
2 11638 4
2 11639 5
2 11640 397
2 11641 8
2 11642 1244
2 11643 91
2 11644 4
2 11645 72
2 11646 4
2 11647 47
2 11648 4
2 11649 878
2 11650 6
2 11651 118
2 11652 196
2 11653 5
2 11654 123
2 11655 3
2 11656 65
2 11657 7
2 11658 7
2 11659 51
2 11660 3
2 11661 98
2 11662 10
2 11663 5
2 11664 3
2 11665 6
2 11666 910
2 11667 54
2 11668 98
2 11669 3
2 11670 46
2 11671 3
2 11672 43
2 11673 8
2 11674 1
2 11675 729
2 11676 97
2 11677 49
2 11678 51
2 11679 4
2 11680 51
2 11681 141
2 11682 75
2 11683 4
2 11684 42
2 11685 6
2 11686 6
2 11687 5
2 11688 1132
2 11689 7
2 11690 6
2 11691 7
2 11692 71
2 11693 4
2 11694 105
2 11695 39
2 11696 85
2 11697 57
2 11698 86
2 11699 4
2 11700 34
2 11701 12
2 11702 73
2 11703 50
2 11704 62
2 11705 61
2 11706 37
2 11707 5
2 11708 6
2 11709 16
2 11710 8
2 11711 12
2 11712 95
2 11713 4
2 11714 7
2 11715 4
2 11716 2
2 11717 13
2 11718 109
2 11719 5
2 11720 101
2 11721 72
2 11722 9
2 11723 7
2 11724 61
2 11725 8
2 11726 69
2 11727 81
2 11728 20
2 11729 7
2 11730 91
2 11731 43
2 11732 129
2 11733 14
2 11734 56
2 11735 11
2 11736 2
2 11737 1202
2 11738 157
2 11739 1196
2 11740 3
2 11741 8
2 11742 67
2 11743 77
2 11744 2
2 11745 3
2 11746 67
2 11747 1128
2 11748 7
2 11749 156
2 11750 115
2 11751 65
2 11752 48
2 11753 439
2 11754 64
2 11755 4
2 11756 761
2 11757 26
2 11758 45
2 11759 196
2 11760 6
2 11761 59
2 11762 7
2 11763 29
2 11764 43
2 11765 91
2 11766 38
2 11767 186
2 11768 76
2 11769 75
2 11770 1155
2 11771 4
2 11772 16
2 11773 82
2 11774 45
2 11775 3
2 11776 55
2 11777 48
2 11778 37
2 11779 61
2 11780 7
2 11781 5
2 11782 4
2 11783 57
2 11784 11
2 11785 74
2 11786 61
2 11787 52
2 11788 9
2 11789 3
2 11790 447
2 11791 88
2 11792 6
2 11793 56
2 11794 59
2 11795 74
2 11796 7
2 11797 7
2 11798 123
2 11799 36
2 11800 1335
2 11801 58
2 11802 4
2 11803 40
2 11804 107
2 11805 101
2 11806 8
2 11807 5
2 11808 27
2 11809 64
2 11810 10
2 11811 110
2 11812 4
2 11813 85
2 11814 5
2 11815 6
2 11816 3
2 11817 12
2 11818 91
2 11819 113
2 11820 13
2 11821 41
2 11822 7
2 11823 10
2 11824 99
2 11825 37
2 11826 54
2 11827 180
2 11828 102
2 11829 8
2 11830 16
2 11831 79
2 11832 4
2 11833 1
2 11834 39
2 11835 272
2 11836 192
2 11837 67
2 11838 194
2 11839 5
2 11840 45
2 11841 80
2 11842 71
2 11843 62
2 11844 126
2 11845 918
2 11846 11
2 11847 5
2 11848 2
2 11849 10
2 11850 9
2 11851 963
2 11852 8
2 11853 11
2 11854 141
2 11855 6
2 11856 612
2 11857 110
2 11858 39
2 11859 74
2 11860 11
2 11861 1228
2 11862 78
2 11864 143
2 11865 163
2 11866 4
2 11867 11
2 11868 74
2 11869 22
2 11870 80
2 11871 4
2 11872 109
2 11873 35
2 11874 110
2 11875 78
2 11876 104
2 11877 43
2 11878 4
2 11879 2
2 11880 130
2 11881 6
2 11882 141
2 11883 11
2 11884 63
2 11885 81
2 11886 2
2 11887 9
2 11888 5
2 11889 37
2 11890 164
2 11891 67
2 11892 3
2 11893 71
2 11894 7
2 11895 24
2 11896 64
2 11897 5
2 11898 6
2 11899 7
2 11900 47
2 11901 42
2 11902 98
2 11904 9
2 11905 6
2 11906 710
2 11907 260
2 11908 4
2 11909 9
2 11910 92
2 11911 94
2 11912 89
2 11913 2
2 11914 67
2 11915 158
2 11916 922
2 11917 2
2 11918 170
2 11919 279
2 11920 8
2 11921 124
2 11922 2
2 11923 32
2 11924 28
2 11925 94
2 11926 30
2 11927 58
2 11928 3
2 11929 6
2 11930 6
2 11931 33
2 11932 196
2 11933 188
2 11934 9
2 11935 101
2 11936 3
2 11937 53
2 11938 4
2 11939 62
2 11940 4
2 11941 6
2 11942 49
2 11943 13
2 11944 974
2 11945 368
2 11946 6
2 11947 3
2 11948 63
2 11949 8
2 11950 118
2 11951 5
2 11952 6
2 11953 7
2 11954 1
2 11955 50
2 11956 91
2 11957 26
2 11958 59
2 11959 6
2 11960 136
2 11961 61
2 11962 4
2 11963 8
2 11964 53
2 11965 13
2 11966 54
2 11967 1227
2 11968 27
2 11969 30
2 11970 48
2 11971 47
2 11972 5
2 11973 68
2 11974 224
2 11975 5
2 11976 2
2 11977 6
2 11978 38
2 11979 7
2 11980 55
2 11981 397
2 11982 17
2 11983 8
2 11984 1248
2 11985 836
2 11986 69
2 11987 1178
2 11988 76
2 11989 48
2 11990 6
2 11991 123
2 11992 7
2 11993 9
2 11994 93
2 11995 950
2 11996 8
2 11997 3
2 11998 6
2 11999 6
2 12000 190
2 12001 1
2 12002 153
2 12003 11
2 12004 51
2 12005 157
2 12006 77
2 12007 137
2 12008 60
2 12009 49
2 12010 7
2 12011 103
2 12012 7
2 12013 53
2 12014 75
2 12015 41
2 12016 7
2 12017 1
2 12018 9
2 12019 85
2 12020 87
2 12021 5
2 12022 109
2 12023 28
2 12024 3
2 12025 87
2 12026 11
2 12027 4
2 12028 4
2 12029 52
2 12030 7
2 12031 6
2 12032 66
2 12033 87
2 12034 7
2 12035 6
2 12036 89
2 12037 44
2 12038 33
2 12039 5
2 12040 61
2 12041 13
2 12042 8
2 12043 5
2 12044 109
2 12045 67
2 12046 50
2 12047 2
2 12048 8
2 12049 112
2 12050 5
2 12051 45
2 12052 3
2 12053 91
2 12054 11
2 12055 7
2 12056 43
2 12057 8
2 12058 7
2 12059 11
2 12060 123
2 12061 57
2 12062 64
2 12063 87
2 12065 35
2 12066 1
2 12067 32
2 12068 45
2 12069 99
2 12070 2
2 12071 11
2 12072 103
2 12073 4
2 12074 59
2 12075 5
2 12076 47
2 12077 8
2 12078 1
2 12079 101
2 12080 3
2 12081 4
2 12082 98
2 12083 103
2 12084 3
2 12085 5
2 12086 7
2 12087 1
2 12088 72
2 12089 4
2 12090 9
2 12091 80
2 12092 14
2 12093 4
2 12094 91
2 12095 104
2 12096 3
2 12097 6
2 12098 33
2 12099 5
2 12100 7
2 12101 24
2 12102 885
2 12103 23
2 12104 4
2 12105 4
2 12106 66
2 12107 25
2 12108 70
2 12109 3
2 12110 10
2 12111 46
2 12112 5
2 12113 33
2 12114 6
2 12115 61
2 12116 5
2 12117 3
2 12118 118
2 12119 43
2 12120 116
2 12121 139
2 12122 46
2 12123 211
2 12124 5
2 12125 31
2 12126 7
2 12127 1
2 12128 6
2 12129 5
2 12130 7
2 12131 5
2 12132 213
2 12133 101
2 12134 25
2 12135 2
2 12136 81
2 12137 35
2 12138 97
2 12139 45
2 12140 136
2 12141 10
2 12142 2
2 12143 201
2 12144 54
2 12145 10
2 12146 3
2 12147 332
2 12148 1042
2 12149 117
2 12150 2
2 12151 9
2 12152 8
2 12153 66
2 12154 109
2 12155 2
2 12156 975
2 12157 3
2 12158 6
2 12159 99
2 12160 80
2 12161 5
2 12162 3
2 12163 7
2 12164 29
2 12165 40
2 12166 2
2 12167 3
2 12168 90
2 12169 4
2 12170 124
2 12171 108
2 12172 32
2 12173 2
2 12174 5
2 12175 19
2 12176 96
2 12177 58
2 12178 32
2 12179 6
2 12180 8
2 12181 7
2 12182 8
2 12183 32
2 12184 86
2 12185 4
2 12186 8
2 12187 4
2 12188 77
2 12189 60
2 12190 4
2 12191 75
2 12192 3
2 12193 8
2 12194 3
2 12195 83
2 12196 89
2 12197 261
2 12198 99
2 12199 112
2 12200 12
2 12201 5
2 12202 143
2 12203 916
2 12204 31
2 12205 60
2 12206 100
2 12207 6
2 12208 9
2 12209 114
2 12210 23
2 12211 62
2 12212 76
2 12213 92
2 12214 6
2 12215 11
2 12216 5
2 12217 7
2 12218 120
2 12219 3
2 12220 67
2 12221 60
2 12222 6
2 12223 63
2 12224 6
2 12225 30
2 12226 3
2 12227 19
2 12228 133
2 12229 6
2 12230 28
2 12231 45
2 12232 30
2 12233 82
2 12234 67
2 12235 48
2 12236 6
2 12237 51
2 12238 36
2 12239 5
2 12240 1
2 12241 61
2 12242 95
2 12243 7
2 12244 3
2 12245 48
2 12246 108
2 12247 5
2 12248 66
2 12249 240
2 12250 7
2 12251 3
2 12252 1216
2 12253 63
2 12254 3
2 12255 22
2 12256 32
2 12257 621
2 12258 51
2 12259 77
2 12260 10
2 12261 52
2 12262 41
2 12263 3
2 12264 2
2 12265 8
2 12266 96
2 12267 4
2 12268 1
2 12269 31
2 12270 8
2 12271 2
2 12272 7
2 12273 73
2 12274 91
2 12275 60
2 12276 68
2 12277 98
2 12278 96
2 12279 189
2 12280 77
2 12281 3
2 12282 126
2 12283 91
2 12284 2
2 12285 6
2 12286 65
2 12287 6
2 12288 12
2 12289 6
2 12290 5
2 12291 30
2 12292 40
2 12293 74
2 12294 6
2 12295 70
2 12296 87
2 12297 6
2 12298 278
2 12299 63
2 12300 7
2 12301 11
2 12302 1
2 12303 2
2 12304 2
2 12305 6
2 12306 87
2 12307 6
2 12308 24
2 12309 35
2 12310 9
2 12311 100
2 12312 946
2 12313 47
2 12314 147
2 12315 6
2 12316 3
2 12317 20
2 12318 183
2 12319 50
2 12320 66
2 12321 568
2 12322 57
2 12323 4
2 12324 3
2 12325 7
2 12326 60
2 12327 9
2 12328 4
2 12329 117
2 12330 95
2 12331 2
2 12332 6
2 12333 85
2 12334 1
2 12335 8
2 12336 6
2 12337 16
2 12338 21
2 12339 3
2 12340 6
2 12341 2
2 12342 2
2 12343 64
2 12344 34
2 12345 97
2 12346 69
2 12347 6
2 12348 71
2 12349 5
2 12350 36
2 12351 5
2 12352 41
2 12353 101
2 12354 42
2 12355 4
2 12356 39
2 12357 7
2 12358 89
2 12359 83
2 12360 7
2 12361 213
2 12362 4
2 12363 2
2 12364 8
2 12367 88
2 12368 133
2 12369 49
2 12370 3
2 12371 3
2 12372 62
2 12373 139
2 12374 57
2 12375 4
2 12376 93
2 12377 55
2 12378 4
2 12379 7
2 12380 98
2 12381 23
2 12382 3
2 12383 4
2 12384 11
2 12385 4
2 12386 5
2 12387 8
2 12388 8
2 12389 1173
2 12390 49
2 12391 8
2 12392 11
2 12393 6
2 12394 51
2 12395 5
2 12396 8
2 12397 177
2 12398 52
2 12399 10
2 12400 889
2 12401 5
2 12402 4
2 12403 4
2 12404 4
2 12405 11
2 12406 110
2 12408 2
2 12409 4
2 12410 98
2 12411 7
2 12412 4
2 12413 4
2 12414 10
2 12415 789
2 12416 3
2 12417 111
2 12418 38
2 12419 12
2 12420 61
2 12421 5
2 12422 10
2 12423 6
2 12424 7
2 12425 126
2 12426 9
2 12427 66
2 12428 4
2 12429 5
2 12430 3
2 12431 14
2 12432 4
2 12433 12
2 12434 39
2 12435 1196
2 12436 88
2 12437 43
2 12438 8
2 12439 3
2 12440 73
2 12441 191
2 12442 79
2 12443 5
2 12444 12
2 12445 62
2 12446 5
2 12447 6
2 12448 5
2 12449 6
2 12450 7
2 12451 1
2 12452 6
2 12453 1246
2 12454 8
2 12455 9
2 12456 2
2 12457 6
2 12458 57
2 12459 7
2 12460 49
2 12461 59
2 12462 115
2 12463 35
2 12464 13
2 12465 66
2 12466 22
2 12467 3
2 12468 89
2 12469 1
2 12470 8
2 12471 25
2 12472 6
2 12473 50
2 12474 4
2 12475 5
2 12476 9
2 12477 7
2 12478 1238
2 12479 200
2 12480 29
2 12481 4
2 12482 73
2 12483 93
2 12484 7
2 12485 4
2 12486 109
2 12487 130
2 12488 484
2 12489 4
2 12490 8
2 12491 4
2 12492 56
2 12493 4
2 12494 5
2 12495 56
2 12496 67
2 12497 1
2 12498 3
2 12499 57
2 12500 69
2 12501 9
2 12502 2
2 12503 60
2 12504 103
2 12505 7
2 12506 3
2 12507 77
2 12508 4
2 12509 41
2 12510 36
2 12511 5
2 12512 9
2 12513 84
2 12514 85
2 12515 9
2 12516 12
2 12517 43
2 12518 56
2 12519 10
2 12520 140
2 12521 10
2 12522 13
2 12523 3
2 12524 3
2 12525 110
2 12526 78
2 12527 10
2 12528 87
2 12529 9
2 12530 12
2 12531 206
2 12532 83
2 12533 10
2 12534 37
2 12535 6
2 12536 28
2 12537 6
2 12538 910
2 12539 86
2 12540 9
2 12541 6
2 12542 5
2 12543 4
2 12544 64
2 12545 5
2 12546 5
2 12547 5
2 12548 29
2 12549 97
2 12550 13
2 12551 1
2 12552 87
2 12553 72
2 12554 84
2 12555 3
2 12556 5
2 12557 7
2 12558 10
2 12559 68
2 12560 373
2 12561 4
2 12562 499
2 12563 15
2 12564 149
2 12565 126
2 12566 87
2 12567 3
2 12568 9
2 12569 58
2 12570 8
2 12571 76
2 12572 67
2 12573 44
2 12574 11
2 12575 116
2 12576 21
2 12577 556
2 12578 4
2 12579 58
2 12580 25
2 12581 8
2 12582 125
2 12583 2
2 12584 3
2 12585 40
2 12586 79
2 12587 11
2 12588 1010
2 12589 126
2 12590 7
2 12591 2
2 12592 109
2 12593 181
2 12594 8
2 12595 3
2 12596 56
2 12597 6
2 12598 6
2 12599 84
2 12600 92
2 12601 74
2 12602 4
2 12603 2
2 12604 79
2 12605 6
2 12606 74
2 12607 133
2 12608 3
2 12609 78
2 12610 37
2 12611 40
2 12612 34
2 12613 86
2 12614 87
2 12615 10
2 12616 96
2 12617 43
2 12618 46
2 12619 23
2 12620 3
2 12621 9
2 12622 59
2 12623 105
2 12624 5
2 12625 100
2 12626 70
2 12627 6
2 12628 1
2 12629 3
2 12630 57
2 12631 5
2 12632 58
2 12633 1
2 12634 176
2 12635 1137
2 12636 4
2 12637 126
2 12638 40
2 12639 68
2 12640 193
2 12641 7
2 12642 6
2 12643 6
2 12644 66
2 12645 93
2 12646 8
2 12648 35
2 12649 7
2 12650 56
2 12651 78
2 12652 5
2 12653 52
2 12654 3
2 12655 109
2 12656 10
2 12657 1
2 12659 2
2 12660 43
2 12661 9
2 12662 7
2 12663 62
2 12664 4
2 12665 121
2 12666 15
2 12667 6
2 12668 336
2 12669 61
2 12670 30
2 12671 92
2 12672 40
2 12673 11
2 12674 5
2 12675 33
2 12676 149
2 12677 1195
2 12678 115
2 12679 175
2 12680 10
2 12681 20
2 12682 74
2 12683 4
2 12684 68
2 12685 107
2 12686 55
2 12687 67
2 12688 82
2 12689 583
2 12690 10
2 12691 9
2 12692 9
2 12693 55
2 12694 170
2 12695 760
2 12696 3
2 12697 16
2 12698 42
2 12699 207
2 12700 1
2 12701 31
2 12702 89
2 12703 9
2 12704 353
2 12705 48
2 12706 47
2 12707 130
2 12708 2
2 12709 30
2 12710 8
2 12711 3
2 12712 50
2 12713 31
2 12714 3
2 12715 4
2 12716 5
2 12717 9
2 12718 55
2 12719 46
2 12720 173
2 12721 5
2 12722 243
2 12723 37
2 12724 4
2 12725 3
2 12726 52
2 12727 18
2 12728 115
2 12729 3
2 12730 2
2 12731 6
2 12732 5
2 12733 14
2 12734 5
2 12735 16
2 12736 69
2 12737 93
2 12738 55
2 12739 48
2 12740 65
2 12741 10
2 12742 124
2 12743 142
2 12744 8
2 12745 18
2 12746 22
2 12747 105
2 12748 34
2 12749 41
2 12750 3
2 12751 34
2 12752 2
2 12753 71
2 12754 13
2 12755 69
2 12756 5
2 12757 76
2 12758 80
2 12759 105
2 12760 6
2 12762 58
2 12763 6
2 12764 9
2 12765 4
2 12766 1232
2 12767 55
2 12768 5
2 12769 107
2 12770 73
2 12771 35
2 12772 117
2 12773 19
2 12774 6
2 12775 3
2 12776 71
2 12777 111
2 12778 846
2 12779 6
2 12780 74
2 12781 67
2 12782 51
2 12783 43
2 12784 4
2 12785 176
2 12786 104
2 12787 290
2 12788 62
2 12789 9
2 12790 2
2 12791 78
2 12792 113
2 12793 41
2 12794 61
2 12795 51
2 12796 98
2 12797 162
2 12798 50
2 12799 115
2 12800 728
2 12801 75
2 12802 6
2 12803 11
2 12804 8
2 12805 279
2 12806 37
2 12807 139
2 12808 137
2 12809 76
2 12810 68
2 12811 4
2 12812 204
2 12813 5
2 12814 50
2 12815 150
2 12816 7
2 12817 44
2 12818 83
2 12819 136
2 12820 82
2 12821 33
2 12822 107
2 12823 11
2 12825 23
2 12826 96
2 12827 7
2 12828 73
2 12829 2
2 12830 132
2 12831 30
2 12832 7
2 12833 13
2 12834 5
2 12835 37
2 12836 50
2 12837 48
2 12838 103
2 12839 39
2 12840 8
2 12841 8
2 12842 4
2 12843 146
2 12844 90
2 12845 162
2 12846 5
2 12847 51
2 12848 4
2 12849 4
2 12850 8
2 12851 47
2 12852 3
2 12853 3
2 12854 188
2 12855 109
2 12856 70
2 12857 45
2 12858 7
2 12859 9
2 12860 3
2 12861 6
2 12862 46
2 12863 4
2 12864 9
2 12865 2
2 12866 42
2 12867 60
2 12868 57
2 12869 133
2 12870 223
2 12871 3
2 12872 162
2 12873 10
2 12874 19
2 12875 72
2 12876 75
2 12877 3
2 12878 6
2 12879 72
2 12880 5
2 12881 75
2 12882 155
2 12883 287
2 12884 803
2 12885 5
2 12886 14
2 12887 66
2 12888 39
2 12889 84
2 12890 88
2 12891 10
2 12892 5
2 12893 2
2 12894 11
2 12895 65
2 12896 8
2 12897 32
2 12898 114
2 12899 41
2 12900 12
2 12901 11
2 12902 11
2 12903 2
2 12904 134
2 12905 143
2 12906 25
2 12907 8
2 12908 27
2 12909 10
2 12910 8
2 12911 9
2 12912 1058
2 12913 6
2 12914 95
2 12915 5
2 12916 6
2 12917 11
2 12918 12
2 12919 35
2 12920 3
2 12921 6
2 12922 100
2 12923 411
2 12924 7
2 12925 1186
2 12926 84
2 12927 104
2 12928 5
2 12929 63
2 12930 77
2 12931 3
2 12932 91
2 12933 50
2 12934 56
2 12935 1090
2 12936 508
2 12937 17
2 12938 1
2 12939 7
2 12940 22
2 12941 118
2 12942 4
2 12943 100
2 12944 2
2 12945 46
2 12946 116
2 12947 5
2 12948 5
2 12949 4
2 12950 882
2 12951 8
2 12952 122
2 12953 4
2 12954 38
2 12955 40
2 12956 4
2 12957 6
2 12958 148
2 12959 4
2 12960 8
2 12961 72
2 12962 10
2 12963 7
2 12964 45
2 12965 121
2 12966 3
2 12967 101
2 12968 5
2 12969 130
2 12970 81
2 12971 2
2 12972 4
2 12973 64
2 12974 6
2 12975 7
2 12976 9
2 12977 28
2 12978 65
2 12979 27
2 12980 91
2 12981 6
2 12982 7
2 12983 9
2 12984 177
2 12985 3
2 12986 109
2 12987 94
2 12988 90
2 12989 100
2 12990 3
2 12991 17
2 12992 2
2 12993 58
2 12994 2
2 12995 81
2 12996 99
2 12997 8
2 12998 98
2 12999 8
2 13000 4
2 13001 6
2 13002 62
2 13003 4
2 13004 86
2 13005 27
2 13006 14
2 13007 26
2 13008 89
2 13009 11
2 13010 5
2 13011 23
2 13012 106
2 13013 5
2 13014 26
2 13015 55
2 13016 191
2 13017 74
2 13018 79
2 13019 105
2 13020 113
2 13021 7
2 13022 134
2 13023 9
2 13024 108
2 13025 124
2 13026 1
2 13027 3
2 13028 10
2 13029 6
2 13030 59
2 13031 192
2 13032 2
2 13033 80
2 13034 8
2 13035 4
2 13036 35
2 13037 7
2 13038 2
2 13039 7
2 13040 88
2 13041 5
2 13042 10
2 13043 191
2 13044 66
2 13045 7
2 13046 182
2 13047 80
2 13048 233
2 13049 62
2 13050 73
2 13051 84
2 13052 2
2 13053 138
2 13054 992
2 13055 46
2 13056 5
2 13057 65
2 13058 62
2 13059 11
2 13060 181
2 13061 51
2 13062 110
2 13063 144
2 13064 7
2 13065 4
2 13066 102
2 13067 95
2 13068 5
2 13069 11
2 13070 5
2 13071 10
2 13072 1053
2 13073 49
2 13074 5
2 13075 4
2 13076 151
2 13077 5
2 13078 106
2 13079 5
2 13080 130
2 13081 104
2 13082 8
2 13083 64
2 13084 37
2 13085 214
2 13086 7
2 13087 85
2 13088 843
2 13089 95
2 13090 31
2 13091 587
2 13092 4
2 13093 8
2 13094 159
2 13095 3
2 13096 8
2 13097 26
2 13098 69
2 13099 2
2 13100 90
2 13101 1
2 13102 4
2 13103 2
2 13104 5
2 13105 144
2 13106 113
2 13107 9
2 13108 4
2 13109 67
2 13110 135
2 13111 86
2 13112 6
2 13113 4
2 13114 88
2 13115 1
2 13116 121
2 13117 437
2 13118 6
2 13119 312
2 13120 3
2 13121 5
2 13122 91
2 13123 1
2 13124 18
2 13125 790
2 13126 9
2 13127 111
2 13128 48
2 13129 8
2 13130 3
2 13131 262
2 13132 11
2 13133 116
2 13134 3
2 13135 3
2 13136 183
2 13137 48
2 13138 11
2 13139 109
2 13140 322
2 13141 95
2 13142 75
2 13143 659
2 13144 4
2 13145 8
2 13146 12
2 13147 8
2 13148 7
2 13149 8
2 13150 7
2 13151 16
2 13152 5
2 13153 59
2 13154 1
2 13155 72
2 13157 99
2 13158 131
2 13159 8
2 13160 3
2 13161 72
2 13162 35
2 13163 7
2 13164 4
2 13165 9
2 13166 5
2 13167 6
2 13168 4
2 13169 57
2 13170 4
2 13171 9
2 13172 49
2 13173 680
2 13174 5
2 13175 3
2 13176 4
2 13177 54
2 13178 4
2 13179 6
2 13180 56
2 13181 1
2 13182 60
2 13183 4
2 13184 7
2 13185 3
2 13186 81
2 13187 43
2 13188 2
2 13189 7
2 13190 83
2 13191 5
2 13192 4
2 13193 37
2 13194 8
2 13195 3
2 13196 55
2 13197 158
2 13198 28
2 13199 4
2 13200 72
2 13201 10
2 13202 45
2 13203 8
2 13204 86
2 13205 47
2 13206 85
2 13207 1
2 13208 9
2 13209 1
2 13210 3
2 13211 69
2 13212 20
2 13213 5
2 13214 84
2 13215 5
2 13216 5
2 13217 44
2 13218 8
2 13219 40
2 13220 55
2 13221 20
2 13222 3
2 13223 117
2 13224 42
2 13225 50
2 13226 71
2 13227 49
2 13228 1231
2 13229 71
2 13230 5
2 13231 74
2 13232 104
2 13233 52
2 13234 4
2 13235 675
2 13236 89
2 13237 78
2 13238 73
2 13239 151
2 13240 5
2 13241 9
2 13242 49
2 13243 7
2 13244 35
2 13245 744
2 13246 103
2 13247 5
2 13248 7
2 13249 46
2 13250 35
2 13251 48
2 13252 3
2 13253 3
2 13254 3
2 13255 43
2 13256 9
2 13257 62
2 13258 112
2 13259 1
2 13260 3
2 13261 6
2 13262 76
2 13263 59
2 13264 67
2 13265 9
2 13266 127
2 13267 200
2 13268 26
2 13269 5
2 13270 11
2 13271 9
2 13272 1
2 13273 150
2 13274 7
2 13275 8
2 13276 7
2 13277 2
2 13278 144
2 13279 61
2 13280 64
2 13281 42
2 13282 137
2 13283 97
2 13284 7
2 13285 35
2 13286 50
2 13287 137
2 13288 116
2 13289 166
2 13290 97
2 13291 4
2 13292 151
2 13293 68
2 13294 31
2 13295 1252
2 13296 67
2 13297 42
2 13298 6
2 13299 5
2 13300 86
2 13301 6
2 13302 26
2 13303 69
2 13304 7
2 13305 10
2 13306 82
2 13307 3
2 13308 78
2 13309 1
2 13310 5
2 13311 7
2 13312 11
2 13313 59
2 13314 7
2 13315 47
2 13316 96
2 13317 75
2 13318 101
2 13319 9
2 13320 47
2 13321 103
2 13322 89
2 13323 4
2 13324 93
2 13325 1250
2 13326 55
2 13327 67
2 13328 5
2 13329 95
2 13330 85
2 13331 39
2 13332 144
2 13333 60
2 13334 29
2 13335 58
2 13336 9
2 13337 69
2 13338 97
2 13339 63
2 13340 4
2 13341 100
2 13342 8
2 13343 78
2 13344 6
2 13345 85
2 13346 3
2 13347 4
2 13348 75
2 13349 5
2 13350 10
2 13351 17
2 13352 7
2 13353 119
2 13354 16
2 13355 5
2 13356 137
2 13357 6
2 13358 88
2 13359 4
2 13360 3
2 13361 3
2 13362 6
2 13363 4
2 13364 8
2 13365 107
2 13366 49
2 13367 106
2 13368 187
2 13369 81
2 13370 4
2 13371 5
2 13372 104
2 13373 3
2 13374 1303
2 13375 7
2 13376 115
2 13377 1267
2 13378 108
2 13379 1191
2 13380 3
2 13381 53
2 13382 60
2 13383 238
2 13384 4
2 13385 6
2 13386 7
2 13387 7
2 13388 4
2 13389 104
2 13390 65
2 13391 123
2 13392 95
2 13393 1
2 13394 124
2 13395 3
2 13396 1149
2 13397 113
2 13398 6
2 13399 2
2 13400 6
2 13401 5
2 13402 161
2 13403 6
2 13404 55
2 13405 67
2 13406 3
2 13407 5
2 13408 6
2 13409 4
2 13410 4
2 13411 57
2 13412 72
2 13413 70
2 13414 6
2 13415 71
2 13416 3
2 13417 147
2 13418 23
2 13419 16
2 13420 95
2 13421 58
2 13422 3
2 13423 10
2 13424 6
2 13425 89
2 13426 59
2 13427 29
2 13428 40
2 13429 5
2 13430 131
2 13431 9
2 13432 6
2 13433 5
2 13434 116
2 13435 5
2 13436 42
2 13437 79
2 13438 7
2 13439 3
2 13440 15
2 13441 106
2 13442 5
2 13443 43
2 13444 6
2 13445 81
2 13446 5
2 13447 44
2 13448 63
2 13449 2
2 13450 80
2 13451 2
2 13452 5
2 13453 4
2 13454 1215
2 13455 61
2 13456 92
2 13457 3
2 13458 45
2 13459 4
2 13460 41
2 13461 71
2 13462 43
2 13463 12
2 13464 150
2 13465 97
2 13466 14
2 13467 5
2 13468 34
2 13469 3
2 13470 50
2 13471 5
2 13472 1202
2 13473 28
2 13474 642
2 13475 4
2 13476 4
2 13477 5
2 13478 4
2 13479 4
2 13480 29
2 13481 6
2 13482 1050
2 13483 7
2 13484 5
2 13485 2
2 13486 104
2 13487 5
2 13488 185
2 13489 77
2 13490 3
2 13491 69
2 13492 12
2 13493 24
2 13494 1256
2 13495 4
2 13496 6
2 13497 4
2 13498 85
2 13499 7
2 13500 69
2 13501 43
2 13502 6
2 13503 4
2 13504 5
2 13505 8
2 13506 4
2 13507 6
2 13508 168
2 13509 2
2 13510 57
2 13511 4
2 13512 7
2 13513 7
2 13514 126
2 13515 91
2 13516 5
2 13517 6
2 13518 27
2 13519 252
2 13520 6
2 13521 53
2 13522 100
2 13523 155
2 13524 94
2 13525 11
2 13526 634
2 13527 9
2 13528 190
2 13529 141
2 13530 7
2 13531 188
2 13532 7
2 13533 63
2 13534 14
2 13535 2
2 13536 12
2 13538 6
2 13539 87
2 13540 78
2 13541 5
2 13542 5
2 13543 753
2 13544 84
2 13545 84
2 13546 54
2 13547 5
2 13548 95
2 13549 5
2 13550 115
2 13551 3
2 13552 7
2 13553 15
2 13554 6
2 13555 121
2 13556 4
2 13557 6
2 13558 65
2 13559 13
2 13560 10
2 13561 8
2 13562 7
2 13563 8
2 13564 2
2 13565 1196
2 13566 6
2 13567 3
2 13568 55
2 13569 6
2 13570 9
2 13571 7
2 13572 9
2 13573 37
2 13574 8
2 13575 6
2 13576 1150
2 13577 45
2 13578 152
2 13579 1
2 13580 4
2 13581 4
2 13582 29
2 13583 126
2 13584 12
2 13585 11
2 13586 56
2 13587 4
2 13588 78
2 13589 3
2 13590 96
2 13591 43
2 13592 374
2 13593 2
2 13594 4
2 13595 5
2 13596 5
2 13597 52
2 13598 67
2 13599 12
2 13600 75
2 13601 5
2 13602 160
2 13603 32
2 13604 73
2 13605 7
2 13606 71
2 13607 5
2 13608 45
2 13609 4
2 13610 4
2 13611 89
2 13612 97
2 13613 12
2 13614 71
2 13615 7
2 13616 49
2 13617 90
2 13618 61
2 13619 7
2 13620 76
2 13621 89
2 13622 7
2 13623 4
2 13624 83
2 13625 131
2 13626 57
2 13627 84
2 13628 121
2 13629 335
2 13630 86
2 13631 9
2 13632 9
2 13633 45
2 13634 153
2 13635 18
2 13636 65
2 13637 7
2 13638 47
2 13639 14
2 13640 109
2 13641 4
2 13642 41
2 13643 6
2 13644 62
2 13645 7
2 13646 55
2 13647 25
2 13648 56
2 13649 88
2 13650 53
2 13651 3
2 13652 242
2 13653 6
2 13654 52
2 13655 47
2 13656 3
2 13657 112
2 13658 4
2 13659 38
2 13660 115
2 13661 125
2 13662 82
2 13663 238
2 13664 97
2 13665 5
2 13666 5
2 13667 62
2 13668 3
2 13669 176
2 13670 612
2 13671 7
2 13672 84
2 13673 39
2 13674 166
2 13675 84
2 13676 9
2 13677 65
2 13678 94
2 13679 66
2 13680 7
2 13681 5
2 13682 8
2 13683 41
2 13684 2
2 13685 61
2 13686 4
2 13688 71
2 13689 32
2 13690 5
2 13691 110
2 13692 3
2 13693 118
2 13694 60
2 13695 63
2 13696 1
2 13697 60
2 13698 4
2 13699 58
2 13700 5
2 13701 12
2 13702 11
2 13703 4
2 13704 4
2 13705 3
2 13706 3
2 13707 5
2 13708 47
2 13709 124
2 13710 44
2 13711 1100
2 13712 40
2 13713 68
2 13714 105
2 13715 54
2 13716 8
2 13717 55
2 13718 3
2 13719 62
2 13720 6
2 13721 99
2 13722 109
2 13723 8
2 13724 9
2 13725 5
2 13726 5
2 13727 5
2 13728 46
2 13729 110
2 13730 5
2 13731 3
2 13732 2
2 13733 110
2 13734 2
2 13735 55
2 13736 207
2 13737 66
2 13738 4
2 13739 6
2 13740 56
2 13741 7
2 13742 6
2 13743 71
2 13744 60
2 13745 6
2 13746 4
2 13747 6
2 13748 9
2 13749 4
2 13750 16
2 13751 753
2 13752 128
2 13753 4
2 13754 125
2 13755 203
2 13756 119
2 13757 38
2 13758 94
2 13759 8
2 13760 9
2 13761 167
2 13762 6
2 13763 71
2 13764 6
2 13765 6
2 13766 2
2 13767 21
2 13768 118
2 13769 104
2 13770 77
2 13771 45
2 13772 68
2 13773 27
2 13774 78
2 13775 88
2 13776 8
2 13777 140
2 13778 3
2 13779 914
2 13780 70
2 13781 251
2 13782 65
2 13783 62
2 13784 122
2 13785 77
2 13786 84
2 13787 5
2 13788 3
2 13789 3
2 13790 7
2 13791 79
2 13792 4
2 13793 59
2 13794 1
2 13795 2
2 13796 153
2 13797 81
2 13798 227
2 13799 134
2 13800 33
2 13801 8
2 13802 117
2 13803 59
2 13804 4
2 13805 16
2 13806 18
2 13807 7
2 13808 4
2 13809 1171
2 13810 157
2 13811 3
2 13812 31
2 13813 116
2 13814 4
2 13815 45
2 13816 6
2 13817 8
2 13818 161
2 13819 10
2 13820 70
2 13821 49
2 13822 854
2 13823 104
2 13824 32
2 13825 5
2 13826 2
2 13827 83
2 13828 151
2 13829 4
2 13830 6
2 13831 79
2 13832 2
2 13833 50
2 13834 9
2 13835 5
2 13836 8
2 13837 4
2 13838 64
2 13839 4
2 13840 8
2 13841 46
2 13842 138
2 13843 5
2 13844 11
2 13845 34
2 13846 57
2 13847 8
2 13848 155
2 13849 57
2 13850 31
2 13851 7
2 13852 2
2 13853 54
2 13854 92
2 13855 3
2 13856 125
2 13857 146
2 13858 34
2 13859 69
2 13860 6
2 13861 46
2 13862 37
2 13863 8
2 13864 1
2 13865 5
2 13866 57
2 13867 106
2 13868 6
2 13869 60
2 13870 85
2 13871 4
2 13872 81
2 13873 57
2 13874 5
2 13875 72
2 13876 1222
2 13877 129
2 13878 72
2 13879 6
2 13880 84
2 13881 58
2 13882 2
2 13883 32
2 13884 1240
2 13885 2
2 13886 10
2 13887 53
2 13888 44
2 13889 52
2 13890 31
2 13891 4
2 13892 8
2 13893 34
2 13894 10
2 13895 96
2 13896 55
2 13897 71
2 13898 35
2 13899 5
2 13900 101
2 13901 66
2 13902 6
2 13903 11
2 13904 112
2 13905 61
2 13906 3
2 13907 104
2 13908 108
2 13909 89
2 13910 134
2 13911 89
2 13912 74
2 13913 128
2 13914 9
2 13915 8
2 13916 88
2 13917 83
2 13918 16
2 13919 59
2 13920 137
2 13921 55
2 13922 6
2 13923 28
2 13924 223
2 13925 3
2 13926 7
2 13927 5
2 13928 136
2 13929 1
2 13930 4
2 13931 4
2 13932 146
2 13933 5
2 13934 147
2 13935 106
2 13936 86
2 13937 6
2 13938 32
2 13939 68
2 13940 2
2 13941 111
2 13942 1
2 13943 617
2 13944 143
2 13945 64
2 13946 128
2 13947 253
2 13948 93
2 13949 105
2 13950 5
2 13951 49
2 13952 36
2 13953 4
2 13954 9
2 13955 6
2 13956 3
2 13957 8
2 13958 54
2 13959 9
2 13960 7
2 13961 9
2 13962 3
2 13963 3
2 13964 726
2 13965 49
2 13966 77
2 13967 6
2 13968 26
2 13969 12
2 13970 62
2 13971 1
2 13972 33
2 13973 728
2 13974 5
2 13975 93
2 13976 94
2 13977 4
2 13978 7
2 13979 44
2 13980 14
2 13981 64
2 13982 14
2 13983 241
2 13984 4
2 13985 360
2 13986 7
2 13987 7
2 13988 7
2 13989 10
2 13990 78
2 13991 9
2 13992 1209
2 13993 79
2 13994 2
2 13995 6
2 13996 78
2 13997 2
2 13998 4
2 13999 84
2 14000 92
2 14001 4
2 14002 1174
2 14003 6
2 14004 89
2 14005 10
2 14006 8
2 14007 6
2 14008 7
2 14009 4
2 14010 1149
2 14011 11
2 14012 124
2 14013 7
2 14014 7
2 14015 108
2 14016 4
2 14017 46
2 14018 6
2 14019 26
2 14020 3
2 14021 53
2 14022 54
2 14023 46
2 14024 132
2 14025 73
2 14026 5
2 14027 79
2 14028 45
2 14029 2
2 14030 9
2 14031 4
2 14032 80
2 14033 114
2 14034 6
2 14035 651
2 14036 9
2 14037 1227
2 14039 97
2 14040 109
2 14041 104
2 14042 11
2 14043 39
2 14044 5
2 14045 61
2 14046 38
2 14047 62
2 14048 79
2 14049 11
2 14050 64
2 14051 10
2 14052 10
2 14053 27
2 14054 3
2 14055 128
2 14056 7
2 14057 68
2 14058 3
2 14059 37
2 14060 5
2 14061 63
2 14062 98
2 14063 7
2 14064 9
2 14065 5
2 14066 6
2 14067 9
2 14068 91
2 14069 99
2 14070 81
2 14071 4
2 14072 9
2 14073 4
2 14074 158
2 14075 8
2 14078 9
2 14080 182
2 14081 15
2 14082 35
2 14083 72
2 14084 5
2 14085 4
2 14086 5
2 14087 5
2 14088 2
2 14089 168
2 14090 4
2 14091 5
2 14092 23
2 14093 57
2 14094 99
2 14095 11
2 14096 25
2 14097 333
2 14098 134
2 14099 73
2 14100 147
2 14101 11
2 14102 73
2 14103 4
2 14104 160
2 14105 7
2 14106 71
2 14107 2
2 14108 35
2 14109 24
2 14110 5
2 14111 89
2 14112 92
2 14113 88
2 14114 899
2 14115 574
2 14116 7
2 14117 18
2 14118 105
2 14119 6
2 14120 123
2 14121 31
2 14122 50
2 14123 54
2 14124 4
2 14125 1
2 14126 54
2 14127 4
2 14128 3
2 14129 6
2 14130 8
2 14131 4
2 14132 73
2 14133 4
2 14134 4
2 14135 25
2 14136 13
2 14137 17
2 14138 2
2 14139 12
2 14140 2
2 14141 8
2 14142 106
2 14143 193
2 14144 7
2 14145 109
2 14146 70
2 14147 7
2 14148 90
2 14149 7
2 14150 3
2 14151 1102
2 14152 4
2 14153 5
2 14154 65
2 14155 128
2 14156 58
2 14157 77
2 14158 48
2 14159 37
2 14160 130
2 14161 28
2 14162 8
2 14163 4
2 14164 117
2 14165 3
2 14166 45
2 14167 4
2 14168 504
2 14169 132
2 14170 7
2 14171 131
2 14172 77
2 14173 2
2 14174 40
2 14175 52
2 14176 3
2 14177 9
2 14178 7
2 14179 69
2 14180 53
2 14181 41
2 14182 66
2 14183 3
2 14184 118
2 14185 121
2 14186 793
2 14187 34
2 14188 70
2 14189 3
2 14190 126
2 14191 126
2 14192 108
2 14193 48
2 14194 4
2 14195 4
2 14196 7
2 14197 1
2 14198 4
2 14199 11
2 14200 69
2 14201 44
2 14202 35
2 14203 5
2 14204 76
2 14205 11
2 14206 38
2 14207 14
2 14208 1
2 14209 57
2 14210 7
2 14211 56
2 14212 6
2 14213 5
2 14214 979
2 14215 122
2 14216 3
2 14217 66
2 14218 92
2 14219 100
2 14220 8
2 14221 82
2 14222 69
2 14223 129
2 14224 5
2 14225 62
2 14226 73
2 14227 4
2 14228 2
2 14229 6
2 14230 3
2 14231 94
2 14232 8
2 14233 4
2 14234 10
2 14235 7
2 14236 8
2 14237 2
2 14238 438
2 14239 6
2 14240 1
2 14241 78
2 14242 1142
2 14243 6
2 14244 57
2 14245 2
2 14246 66
2 14247 6
2 14248 2
2 14249 27
2 14250 17
2 14251 8
2 14252 28
2 14253 4
2 14254 33
2 14255 7
2 14256 6
2 14257 5
2 14258 69
2 14259 33
2 14260 58
2 14261 37
2 14262 5
2 14263 98
2 14264 128
2 14265 73
2 14266 6
2 14267 169
2 14268 5
2 14269 6
2 14270 4
2 14271 107
2 14272 49
2 14273 62
2 14274 54
2 14275 65
2 14276 29
2 14277 9
2 14278 28
2 14279 3
2 14280 14
2 14281 2
2 14282 5
2 14283 7
2 14284 931
2 14285 8
2 14286 7
2 14287 35
2 14288 15
2 14289 6
2 14290 23
2 14291 84
2 14292 5
2 14293 166
2 14294 19
2 14295 1019
2 14296 368
2 14297 175
2 14298 46
2 14299 6
2 14300 77
2 14301 5
2 14302 6
2 14303 94
2 14304 58
2 14305 2
2 14306 5
2 14307 2
2 14309 4
2 14310 6
2 14311 14
2 14312 28
2 14313 81
2 14314 8
2 14315 38
2 14316 5
2 14317 4
2 14318 139
2 14319 52
2 14320 2
2 14321 5
2 14322 8
2 14323 1
2 14324 4
2 14325 7
2 14326 88
2 14327 127
2 14328 55
2 14329 115
2 14330 5
2 14331 82
2 14332 60
2 14333 5
2 14334 90
2 14335 2
2 14336 24
2 14337 4
2 14338 6
2 14339 83
2 14340 11
2 14341 2
2 14342 65
2 14343 9
2 14344 57
2 14345 123
2 14346 63
2 14347 4
2 14348 2
2 14349 5
2 14350 20
2 14351 2
2 14352 94
2 14353 6
2 14354 72
2 14355 101
2 14356 45
2 14357 4
2 14358 7
2 14359 22
2 14360 114
2 14361 74
2 14362 5
2 14363 5
2 14364 7
2 14365 8
2 14366 1
2 14367 30
2 14368 1
2 14369 111
2 14370 48
2 14371 3
2 14372 9
2 14373 179
2 14374 105
2 14375 112
2 14376 50
2 14377 2
2 14378 5
2 14379 37
2 14380 43
2 14381 1196
2 14382 6
2 14383 74
2 14384 4
2 14385 98
2 14386 36
2 14387 870
2 14388 922
2 14389 127
2 14390 64
2 14391 8
2 14392 54
2 14393 191
2 14394 2
2 14395 1
2 14396 3
2 14397 80
2 14398 1161
2 14399 12
2 14400 1160
2 14401 11
2 14402 95
2 14403 7
2 14404 121
2 14405 6
2 14406 985
2 14407 63
2 14408 88
2 14409 49
2 14410 29
2 14411 94
2 14412 4
2 14413 126
2 14414 6
2 14415 7
2 14416 8
2 14417 5
2 14418 68
2 14419 75
2 14420 943
2 14421 4
2 14422 58
2 14423 7
2 14424 62
2 14425 5
2 14426 5
2 14427 1
2 14428 51
2 14429 75
2 14430 5
2 14431 6
2 14432 7
2 14433 4
2 14434 952
2 14435 7
2 14436 119
2 14437 100
2 14438 7
2 14439 85
2 14440 139
2 14441 26
2 14442 153
2 14443 19
2 14444 52
2 14445 3
2 14446 38
2 14447 5
2 14448 4
2 14449 37
2 14450 11
2 14451 23
2 14452 6
2 14453 29
2 14454 45
2 14455 4
2 14456 3
2 14457 34
2 14458 44
2 14459 9
2 14460 76
2 14461 1129
2 14462 11
2 14463 58
2 14464 546
2 14465 6
2 14466 1
2 14467 68
2 14468 52
2 14469 131
2 14470 127
2 14471 547
2 14472 5
2 14473 30
2 14474 17
2 14475 3
2 14476 107
2 14477 79
2 14478 4
2 14479 61
2 14480 2
2 14481 65
2 14482 2
2 14483 106
2 14484 5
2 14485 5
2 14486 2
2 14487 45
2 14488 7
2 14489 55
2 14490 6
2 14491 43
2 14492 4
2 14493 6
2 14494 99
2 14495 5
2 14496 7
2 14497 6
2 14498 63
2 14499 98
2 14500 7
2 14501 3
2 14502 7
2 14503 7
2 14504 58
2 14505 3
2 14506 46
2 14507 50
2 14508 164
2 14509 33
2 14510 36
2 14511 7
2 14512 6
2 14513 63
2 14514 6
2 14515 113
2 14516 6
2 14517 8
2 14518 44
2 14519 82
2 14520 507
2 14521 74
2 14522 89
2 14523 139
2 14524 20
2 14525 89
2 14526 2
2 14527 143
2 14528 6
2 14529 10
2 14530 3
2 14531 6
2 14532 3
2 14533 372
2 14534 31
2 14535 77
2 14536 103
2 14537 7
2 14538 7
2 14539 53
2 14540 12
2 14541 6
2 14542 94
2 14543 175
2 14544 129
2 14545 2
2 14546 83
2 14547 55
2 14548 2
2 14549 59
2 14550 108
2 14551 4
2 14552 58
2 14553 9
2 14554 3
2 14555 140
2 14556 9
2 14557 8
2 14558 124
2 14559 10
2 14560 124
2 14561 135
2 14562 119
2 14563 19
2 14564 72
2 14565 86
2 14566 7
2 14567 15
2 14568 7
2 14569 4
2 14570 4
2 14571 119
2 14572 193
2 14573 75
2 14574 115
2 14575 49
2 14576 1
2 14577 7
2 14578 32
2 14579 91
2 14580 70
2 14581 3
2 14582 7
2 14583 6
2 14584 99
2 14585 3
2 14586 3
2 14587 6
2 14588 8
2 14589 37
2 14590 39
2 14591 76
2 14592 12
2 14593 4
2 14594 95
2 14595 77
2 14596 23
2 14597 112
2 14598 65
2 14599 4
2 14600 2
2 14601 6
2 14602 153
2 14603 69
2 14604 19
2 14605 104
2 14606 134
2 14607 64
3 1 12
3 2 40
3 3 9
3 4 11
3 5 73
3 6 16
3 7 34
3 8 20
3 9 51
3 10 70
3 11 8
3 12 47
3 13 20
3 14 65
3 15 21
3 16 20
3 17 55
3 18 5
3 19 33
3 20 109
3 21 20
3 22 34
3 23 7
3 24 84
3 25 114
3 26 29
3 27 15
3 28 99
3 29 5
3 30 98
3 31 7
3 32 16
3 33 24
3 34 14
3 35 10
3 36 18
3 37 47
3 38 90
3 39 98
3 40 8
3 41 15
3 42 19
3 43 20
3 44 15
3 45 12
3 46 21
3 47 33
3 48 15
3 49 135
3 50 11
3 51 24
3 52 6
3 53 88
3 54 12
3 55 25
3 56 47
3 57 20
3 58 20
3 59 8
3 60 15
3 61 7
3 62 13
3 63 10
3 64 11
3 65 3
3 66 23
3 67 111
3 68 12
3 69 15
3 70 22
3 71 83
3 72 20
3 73 15
3 74 11
3 75 11
3 76 27
3 77 330
3 78 204
3 79 31
3 80 69
3 81 10
3 82 21
3 83 6
3 84 148
3 85 16
3 86 11
3 87 11
3 88 11
3 89 20
3 90 15
3 91 12
3 92 19
3 93 33
3 94 86
3 95 49
3 96 135
3 97 8
3 98 89
3 99 36
3 100 24
3 101 11
3 102 42
3 103 8
3 104 13
3 105 22
3 106 18
3 107 19
3 108 15
3 109 21
3 110 47
3 111 22
3 112 5
3 113 11
3 114 4
3 115 14
3 116 18
3 117 11
3 118 14
3 119 13
3 120 10
3 121 10
3 122 87
3 123 15
3 124 8
3 125 13
3 126 13
3 127 1195
3 128 10
3 129 27
3 130 11
3 131 7
3 132 31
3 133 45
3 134 12
3 135 10
3 136 136
3 137 14
3 138 146
3 139 11
3 140 22
3 141 173
3 142 17
3 143 16
3 144 99
3 145 22
3 146 67
3 147 17
3 148 39
3 149 90
3 150 25
3 151 75
3 152 13
3 153 105
3 154 191
3 155 32
3 156 16
3 157 15
3 158 20
3 159 111
3 160 12
3 161 7
3 162 14
3 163 9
3 164 7
3 165 9
3 166 97
3 167 11
3 168 24
3 169 69
3 170 20
3 171 43
3 172 19
3 173 64
3 174 18
3 175 18
3 176 16
3 177 14
3 178 43
3 179 14
3 180 128
3 181 36
3 182 68
3 183 7
3 184 7
3 185 17
3 186 16
3 187 17
3 188 16
3 189 12
3 190 65
3 191 10
3 192 9
3 193 82
3 194 13
3 195 18
3 196 27
3 197 23
3 198 46
3 199 10
3 200 11
3 201 73
3 202 76
3 203 10
3 204 28
3 205 22
3 206 19
3 207 66
3 208 22
3 209 19
3 210 272
3 211 18
3 212 76
3 213 15
3 214 38
3 215 19
3 216 16
3 217 13
3 218 23
3 219 26
3 220 72
3 221 14
3 222 13
3 223 17
3 224 40
3 225 14
3 226 1276
3 227 29
3 228 108
3 229 13
3 230 16
3 231 174
3 232 22
3 233 12
3 234 22
3 235 102
3 236 22
3 237 14
3 238 9
3 239 47
3 240 22
3 241 12
3 242 6
3 243 69
3 244 42
3 245 11
3 246 12
3 247 9
3 248 21
3 249 85
3 250 62
3 251 16
3 252 19
3 253 49
3 254 17
3 255 117
3 256 16
3 257 18
3 258 6
3 259 13
3 260 11
3 261 11
3 262 71
3 263 6
3 264 18
3 265 29
3 266 44
3 267 12
3 268 11
3 269 181
3 270 15
3 271 105
3 272 100
3 273 8
3 274 64
3 275 78
3 276 12
3 277 17
3 278 12
3 279 40
3 280 21
3 281 78
3 282 65
3 283 21
3 284 11
3 285 15
3 286 9
3 287 10
3 288 12
3 289 19
3 290 43
3 291 23
3 292 18
3 293 103
3 294 21
3 295 21
3 296 22
3 297 9
3 298 91
3 299 13
3 300 16
3 301 13
3 302 22
3 303 86
3 304 21
3 305 101
3 306 10
3 307 15
3 308 15
3 309 24
3 310 93
3 311 6
3 312 16
3 313 7
3 314 56
3 315 143
3 316 15
3 317 20
3 318 18
3 319 12
3 320 123
3 321 82
3 322 60
3 323 9
3 324 9
3 325 7
3 326 15
3 327 29
3 328 21
3 329 101
3 330 16
3 331 10
3 332 15
3 333 20
3 334 1108
3 335 12
3 336 14
3 337 15
3 338 24
3 339 134
3 340 107
3 341 15
3 342 9
3 343 25
3 344 12
3 345 96
3 346 36
3 347 7
3 348 31
3 349 13
3 350 7
3 351 29
3 352 39
3 353 15
3 354 19
3 355 82
3 356 12
3 357 55
3 358 43
3 359 18
3 360 13
3 361 23
3 362 14
3 363 126
3 364 20
3 365 162
3 366 84
3 367 10
3 368 11
3 369 1
3 370 9
3 371 16
3 372 23
3 373 19
3 374 13
3 375 45
3 376 22
3 377 38
3 378 26
3 379 17
3 380 53
3 381 51
3 382 32
3 383 14
3 384 109
3 385 62
3 386 28
3 387 119
3 388 6
3 389 15
3 390 25
3 391 16
3 392 13
3 393 16
3 394 8
3 395 19
3 396 14
3 397 11
3 398 10
3 399 18
3 400 39
3 401 15
3 402 23
3 403 14
3 404 17
3 405 57
3 406 92
3 407 56
3 408 14
3 409 15
3 410 11
3 411 17
3 412 18
3 413 13
3 414 89
3 415 14
3 416 23
3 417 16
3 418 18
3 419 45
3 420 10
3 421 25
3 422 33
3 423 117
3 424 19
3 425 9
3 426 16
3 427 122
3 428 12
3 429 67
3 430 10
3 431 16
3 432 10
3 433 16
3 434 7
3 435 11
3 436 8
3 437 91
3 438 59
3 439 19
3 440 17
3 441 10
3 442 105
3 443 108
3 444 26
3 445 26
3 446 20
3 447 15
3 448 37
3 449 10
3 450 31
3 451 8
3 452 7
3 453 9
3 454 108
3 455 18
3 456 25
3 457 14
3 458 16
3 459 90
3 460 13
3 461 56
3 462 10
3 463 34
3 464 46
3 465 17
3 466 47
3 467 6
3 468 39
3 469 92
3 470 74
3 471 28
3 472 113
3 473 19
3 474 48
3 475 16
3 476 89
3 477 24
3 478 41
3 479 12
3 480 97
3 481 130
3 482 8
3 483 25
3 484 15
3 485 94
3 486 16
3 487 41
3 488 13
3 489 56
3 490 97
3 491 10
3 492 68
3 493 5
3 494 12
3 495 20
3 496 38
3 497 17
3 498 77
3 499 6
3 500 12
3 501 85
3 502 100
3 503 7
3 504 18
3 505 7
3 506 45
3 507 20
3 508 50
3 509 22
3 510 10
3 511 17
3 512 10
3 513 17
3 514 32
3 515 12
3 516 94
3 517 97
3 518 16
3 519 18
3 520 20
3 521 69
3 522 16
3 523 17
3 524 39
3 525 76
3 526 7
3 527 13
3 528 23
3 529 13
3 530 80
3 531 17
3 532 59
3 533 108
3 534 16
3 535 14
3 536 11
3 537 129
3 538 15
3 539 71
3 540 66
3 541 12
3 542 10
3 543 23
3 544 12
3 545 18
3 546 13
3 547 47
3 548 6
3 549 92
3 550 41
3 551 18
3 552 77
3 553 9
3 554 10
3 555 9
3 556 60
3 557 18
3 558 1003
3 559 71
3 560 11
3 561 38
3 562 19
3 563 55
3 564 37
3 565 15
3 566 11
3 567 65
3 568 21
3 569 28
3 570 14
3 571 35
3 572 40
3 573 19
3 574 6
3 575 8
3 576 8
3 577 81
3 578 111
3 579 6
3 580 83
3 581 10
3 582 11
3 583 27
3 584 24
3 585 16
3 586 21
3 587 17
3 588 66
3 589 39
3 590 25
3 591 13
3 592 78
3 593 28
3 594 7
3 595 70
3 596 72
3 597 24
3 598 25
3 599 8
3 600 6
3 601 15
3 602 49
3 603 11
3 604 9
3 605 61
3 606 9
3 607 8
3 608 31
3 609 7
3 610 24
3 611 50
3 612 12
3 613 7
3 614 17
3 615 18
3 616 25
3 617 9
3 618 12
3 619 11
3 620 69
3 621 20
3 622 13
3 623 67
3 624 55
3 625 12
3 626 44
3 627 21
3 628 19
3 629 11
3 630 12
3 631 1036
3 632 48
3 633 13
3 634 79
3 635 172
3 636 3
3 637 8
3 638 128
3 639 8
3 640 16
3 641 61
3 642 16
3 643 47
3 644 28
3 645 19
3 646 16
3 647 59
3 648 14
3 649 18
3 650 66
3 651 7
3 652 87
3 653 26
3 654 10
3 655 4
3 656 15
3 657 8
3 658 10
3 659 5
3 660 21
3 661 10
3 662 15
3 663 12
3 664 10
3 665 18
3 666 51
3 667 7
3 668 23
3 669 6
3 670 16
3 671 11
3 672 8
3 673 22
3 674 8
3 675 14
3 676 16
3 677 61
3 678 23
3 679 27
3 680 18
3 681 7
3 682 23
3 683 79
3 684 18
3 685 23
3 686 22
3 687 15
3 688 24
3 689 105
3 690 9
3 691 17
3 692 15
3 693 22
3 694 56
3 695 1060
3 696 7
3 697 6
3 698 13
3 699 8
3 700 108
3 701 33
3 702 14
3 703 8
3 704 18
3 705 9
3 706 19
3 707 27
3 708 21
3 709 10
3 710 22
3 711 19
3 712 362
3 713 15
3 714 9
3 715 18
3 716 12
3 717 71
3 718 25
3 719 29
3 720 12
3 721 10
3 722 14
3 723 12
3 724 15
3 725 18
3 726 13
3 727 53
3 728 56
3 729 17
3 730 123
3 731 12
3 732 31
3 733 12
3 734 11
3 735 6
3 736 8
3 737 16
3 738 24
3 739 107
3 740 31
3 741 138
3 742 40
3 743 9
3 744 67
3 745 87
3 746 19
3 747 8
3 748 46
3 749 13
3 750 12
3 751 39
3 752 101
3 753 11
3 754 14
3 755 14
3 756 34
3 757 5
3 758 72
3 759 11
3 760 15
3 761 25
3 762 44
3 763 14
3 764 21
3 765 21
3 766 5
3 767 19
3 768 59
3 769 52
3 770 23
3 771 13
3 772 15
3 773 13
3 774 22
3 775 23
3 776 9
3 777 73
3 778 17
3 779 15
3 780 9
3 781 23
3 782 4
3 783 37
3 784 166
3 785 28
3 786 8
3 787 16
3 788 14
3 789 14
3 790 119
3 791 19
3 792 9
3 793 9
3 794 8
3 795 22
3 796 13
3 797 38
3 798 18
3 799 5
3 800 11
3 801 85
3 802 4
3 803 22
3 804 41
3 805 21
3 806 29
3 807 17
3 808 25
3 809 27
3 810 27
3 811 20
3 812 12
3 813 24
3 814 23
3 815 66
3 816 307
3 817 73
3 818 68
3 819 36
3 820 13
3 821 126
3 822 33
3 823 40
3 824 249
3 825 125
3 826 33
3 827 17
3 828 28
3 829 34
3 830 26
3 831 29
3 832 12
3 833 21
3 834 19
3 835 17
3 836 41
3 837 28
3 838 29
3 839 77
3 840 34
3 841 39
3 842 27
3 843 37
3 844 32
3 845 29
3 846 35
3 847 73
3 848 43
3 849 24
3 850 43
3 851 29
3 852 34
3 853 17
3 854 33
3 855 20
3 856 20
3 857 18
3 858 16
3 859 59
3 860 24
3 861 113
3 862 16
3 863 12
3 864 12
3 865 21
3 866 11
3 867 12
3 868 39
3 869 7
3 870 21
3 871 20
3 872 11
3 873 85
3 874 35
3 875 1204
3 876 48
3 877 19
3 878 49
3 879 30
3 880 19
3 881 16
3 882 103
3 883 53
3 884 54
3 885 31
3 886 20
3 887 8
3 888 22
3 889 69
3 890 9
3 891 29
3 892 20
3 893 21
3 894 9
3 895 97
3 896 32
3 897 13
3 898 17
3 899 113
3 900 11
3 901 15
3 902 67
3 903 44
3 904 6
3 905 21
3 906 15
3 907 25
3 908 23
3 909 15
3 910 15
3 911 20
3 912 26
3 913 9
3 914 40
3 915 17
3 916 20
3 917 14
3 918 17
3 919 14
3 920 29
3 921 12
3 922 10
3 923 28
3 924 138
3 925 21
3 926 16
3 927 98
3 928 8
3 929 13
3 930 19
3 931 225
3 932 12
3 933 9
3 934 10
3 935 13
3 936 11
3 937 81
3 938 12
3 939 23
3 940 39
3 941 11
3 942 8
3 943 122
3 944 15
3 945 19
3 946 9
3 947 14
3 948 24
3 949 22
3 950 71
3 951 10
3 952 127
3 953 15
3 954 14
3 955 16
3 956 28
3 957 20
3 958 8
3 959 77
3 960 4
3 961 9
3 962 17
3 963 229
3 964 12
3 965 16
3 966 23
3 967 122
3 968 18
3 969 30
3 970 17
3 971 10
3 972 14
3 973 18
3 974 14
3 975 71
3 976 19
3 977 21
3 978 25
3 979 123
3 980 23
3 981 15
3 982 56
3 983 24
3 984 8
3 985 6
3 986 63
3 987 28
3 988 15
3 989 28
3 990 68
3 991 18
3 992 32
3 993 18
3 994 22
3 995 12
3 996 43
3 997 14
3 998 21
3 999 71
3 1000 14
3 1001 51
3 1002 57
3 1003 14
3 1004 100
3 1005 8
3 1006 22
3 1007 8
3 1008 38
3 1009 13
3 1010 16
3 1011 82
3 1012 82
3 1013 120
3 1014 1298
3 1015 20
3 1016 25
3 1017 12
3 1018 24
3 1019 32
3 1020 208
3 1021 6
3 1022 48
3 1023 10
3 1024 36
3 1025 11
3 1026 18
3 1027 8
3 1028 11
3 1029 10
3 1030 23
3 1031 28
3 1032 7
3 1033 16
3 1034 20
3 1035 67
3 1036 9
3 1037 31
3 1038 13
3 1039 10
3 1040 28
3 1041 30
3 1042 27
3 1043 59
3 1044 10
3 1045 14
3 1046 19
3 1047 11
3 1048 6
3 1049 21
3 1050 5
3 1051 20
3 1052 42
3 1053 9
3 1054 14
3 1055 12
3 1056 16
3 1057 12
3 1058 14
3 1059 22
3 1060 50
3 1061 18
3 1062 73
3 1063 71
3 1064 16
3 1065 22
3 1066 16
3 1067 77
3 1068 8
3 1069 33
3 1070 9
3 1071 21
3 1072 9
3 1073 25
3 1074 19
3 1075 22
3 1076 17
3 1077 24
3 1078 85
3 1079 11
3 1080 20
3 1081 115
3 1082 57
3 1083 38
3 1084 14
3 1085 38
3 1086 24
3 1087 119
3 1088 34
3 1089 99
3 1090 29
3 1091 21
3 1092 22
3 1093 18
3 1094 82
3 1095 21
3 1096 14
3 1097 14
3 1098 54
3 1099 98
3 1100 10
3 1101 21
3 1102 9
3 1103 16
3 1104 46
3 1105 109
3 1106 19
3 1107 1290
3 1108 76
3 1109 127
3 1110 121
3 1111 7
3 1112 18
3 1113 14
3 1114 8
3 1115 17
3 1116 9
3 1117 11
3 1118 17
3 1119 87
3 1120 21
3 1121 29
3 1122 11
3 1123 15
3 1124 17
3 1125 14
3 1126 15
3 1127 12
3 1128 18
3 1129 19
3 1130 45
3 1131 2
3 1132 15
3 1133 16
3 1134 71
3 1135 33
3 1136 11
3 1137 211
3 1138 12
3 1139 13
3 1140 23
3 1141 120
3 1142 20
3 1143 7
3 1144 36
3 1145 73
3 1146 14
3 1147 10
3 1148 13
3 1149 19
3 1150 13
3 1151 14
3 1152 21
3 1153 30
3 1154 13
3 1155 70
3 1156 7
3 1157 13
3 1158 21
3 1159 1200
3 1160 12
3 1161 12
3 1162 21
3 1163 58
3 1164 6
3 1165 67
3 1166 15
3 1167 18
3 1168 86
3 1169 101
3 1170 30
3 1171 9
3 1172 56
3 1173 4
3 1174 13
3 1175 13
3 1176 113
3 1177 200
3 1178 7
3 1179 18
3 1180 93
3 1181 15
3 1182 7
3 1183 88
3 1184 19
3 1185 17
3 1186 21
3 1187 9
3 1188 13
3 1189 31
3 1190 19
3 1191 9
3 1192 23
3 1193 80
3 1194 54
3 1195 9
3 1196 12
3 1197 73
3 1198 99
3 1199 14
3 1200 17
3 1201 45
3 1202 75
3 1203 11
3 1204 14
3 1205 8
3 1206 9
3 1207 12
3 1208 9
3 1209 68
3 1210 9
3 1211 12
3 1212 47
3 1213 21
3 1214 31
3 1215 15
3 1216 90
3 1217 107
3 1218 5
3 1219 58
3 1220 8
3 1221 11
3 1222 15
3 1223 9
3 1224 78
3 1225 81
3 1226 12
3 1227 9
3 1228 12
3 1229 11
3 1230 48
3 1231 23
3 1232 11
3 1233 14
3 1234 62
3 1235 16
3 1236 9
3 1237 17
3 1238 16
3 1239 11
3 1240 15
3 1241 23
3 1242 26
3 1243 18
3 1244 10
3 1245 18
3 1246 11
3 1247 629
3 1248 12
3 1249 553
3 1250 101
3 1251 9
3 1252 7
3 1253 22
3 1254 1
3 1255 22
3 1256 56
3 1257 181
3 1258 38
3 1259 5
3 1260 13
3 1261 21
3 1262 11
3 1263 7
3 1264 9
3 1265 16
3 1266 116
3 1267 16
3 1268 15
3 1269 11
3 1270 16
3 1271 110
3 1272 10
3 1273 25
3 1274 32
3 1275 14
3 1276 9
3 1277 12
3 1278 81
3 1279 124
3 1280 12
3 1281 16
3 1282 19
3 1283 12
3 1284 26
3 1285 15
3 1286 9
3 1287 13
3 1288 9
3 1289 17
3 1290 8
3 1291 8
3 1292 64
3 1293 9
3 1294 3
3 1295 276
3 1296 16
3 1297 11
3 1298 10
3 1299 109
3 1300 10
3 1301 82
3 1302 1095
3 1303 12
3 1304 10
3 1305 59
3 1306 36
3 1307 49
3 1308 10
3 1309 11
3 1310 168
3 1311 61
3 1312 21
3 1313 170
3 1314 26
3 1315 16
3 1316 75
3 1317 28
3 1318 60
3 1319 26
3 1320 30
3 1321 67
3 1322 10
3 1323 12
3 1324 14
3 1325 27
3 1326 10
3 1327 17
3 1328 17
3 1329 22
3 1330 10
3 1331 13
3 1332 13
3 1333 86
3 1334 16
3 1335 5
3 1336 10
3 1337 52
3 1338 8
3 1339 146
3 1340 16
3 1341 10
3 1342 90
3 1343 13
3 1344 15
3 1345 12
3 1346 21
3 1347 13
3 1348 20
3 1349 17
3 1350 106
3 1351 17
3 1352 13
3 1353 12
3 1354 46
3 1355 10
3 1356 61
3 1357 129
3 1358 67
3 1359 106
3 1360 285
3 1361 14
3 1362 14
3 1363 13
3 1364 13
3 1365 89
3 1366 15
3 1367 64
3 1368 19
3 1369 37
3 1370 18
3 1371 10
3 1372 16
3 1373 27
3 1374 19
3 1375 8
3 1376 28
3 1377 12
3 1378 11
3 1379 12
3 1380 10
3 1381 7
3 1382 51
3 1383 50
3 1384 10
3 1385 12
3 1386 15
3 1387 8
3 1388 173
3 1389 154
3 1390 16
3 1391 9
3 1392 68
3 1393 14
3 1394 15
3 1395 69
3 1396 48
3 1397 1076
3 1398 159
3 1399 104
3 1400 31
3 1401 38
3 1402 55
3 1403 80
3 1404 13
3 1405 92
3 1406 17
3 1407 2
3 1408 20
3 1409 14
3 1410 5
3 1411 17
3 1412 17
3 1413 23
3 1414 21
3 1415 15
3 1416 1214
3 1417 16
3 1418 13
3 1419 15
3 1420 231
3 1421 12
3 1422 27
3 1423 55
3 1424 16
3 1425 81
3 1426 132
3 1427 22
3 1428 16
3 1429 133
3 1430 50
3 1431 88
3 1432 122
3 1433 19
3 1434 71
3 1435 72
3 1436 71
3 1437 37
3 1438 46
3 1439 15
3 1440 15
3 1441 15
3 1442 27
3 1443 24
3 1444 8
3 1445 26
3 1446 19
3 1447 6
3 1448 11
3 1449 5
3 1450 69
3 1451 29
3 1452 11
3 1453 18
3 1454 9
3 1455 25
3 1456 20
3 1457 15
3 1458 1321
3 1459 1214
3 1460 18
3 1461 22
3 1462 246
3 1463 31
3 1464 11
3 1465 20
3 1466 18
3 1467 22
3 1468 19
3 1469 19
3 1470 47
3 1471 29
3 1472 13
3 1473 12
3 1474 19
3 1475 26
3 1476 9
3 1477 10
3 1478 47
3 1479 20
3 1480 12
3 1481 14
3 1482 10
3 1483 17
3 1484 21
3 1485 34
3 1486 18
3 1487 143
3 1488 9
3 1489 24
3 1490 50
3 1491 22
3 1492 13
3 1493 11
3 1494 6
3 1495 10
3 1496 14
3 1497 10
3 1498 7
3 1499 23
3 1500 45
3 1501 28
3 1502 8
3 1503 11
3 1504 18
3 1505 42
3 1506 9
3 1507 78
3 1508 82
3 1509 86
3 1510 15
3 1511 23
3 1512 16
3 1513 44
3 1514 63
3 1515 17
3 1516 1
3 1517 10
3 1518 14
3 1519 5
3 1520 6
3 1521 103
3 1522 16
3 1523 18
3 1524 31
3 1525 10
3 1526 16
3 1527 12
3 1528 19
3 1529 9
3 1530 23
3 1531 7
3 1532 49
3 1533 18
3 1534 43
3 1535 16
3 1536 28
3 1537 81
3 1538 11
3 1539 45
3 1540 7
3 1541 6
3 1542 12
3 1543 35
3 1544 10
3 1545 6
3 1546 19
3 1547 8
3 1548 12
3 1549 11
3 1550 79
3 1551 20
3 1552 10
3 1553 16
3 1554 38
3 1555 37
3 1556 12
3 1557 71
3 1558 17
3 1559 13
3 1560 5
3 1561 17
3 1562 11
3 1563 22
3 1564 108
3 1565 208
3 1566 1086
3 1567 58
3 1568 6
3 1569 56
3 1570 14
3 1571 16
3 1572 111
3 1573 63
3 1574 12
3 1575 9
3 1576 99
3 1577 163
3 1578 74
3 1579 5
3 1580 7
3 1581 14
3 1582 102
3 1583 20
3 1584 8
3 1585 11
3 1586 24
3 1587 21
3 1588 21
3 1589 8
3 1590 25
3 1591 83
3 1592 87
3 1593 45
3 1594 28
3 1595 15
3 1596 9
3 1597 18
3 1598 20
3 1599 74
3 1600 15
3 1601 62
3 1602 12
3 1603 40
3 1604 11
3 1605 13
3 1606 114
3 1607 9
3 1608 12
3 1609 22
3 1610 21
3 1611 10
3 1612 9
3 1613 4
3 1614 20
3 1615 11
3 1616 27
3 1617 4
3 1618 34
3 1619 22
3 1620 9
3 1621 15
3 1622 21
3 1623 24
3 1624 22
3 1625 6
3 1626 40
3 1627 194
3 1628 17
3 1629 16
3 1630 17
3 1631 23
3 1632 8
3 1633 47
3 1634 5
3 1635 16
3 1636 14
3 1637 35
3 1638 27
3 1639 18
3 1640 20
3 1641 20
3 1642 97
3 1643 8
3 1644 1196
3 1645 6
3 1646 45
3 1647 16
3 1648 13
3 1649 12
3 1650 19
3 1651 11
3 1652 7
3 1653 125
3 1654 19
3 1655 15
3 1656 9
3 1657 38
3 1658 23
3 1659 14
3 1660 10
3 1661 22
3 1662 10
3 1663 75
3 1664 66
3 1665 107
3 1666 13
3 1667 11
3 1668 18
3 1669 17
3 1670 15
3 1671 20
3 1672 26
3 1673 9
3 1674 10
3 1675 11
3 1676 62
3 1677 15
3 1678 10
3 1679 24
3 1680 32
3 1681 25
3 1682 61
3 1683 54
3 1684 26
3 1685 23
3 1686 16
3 1687 16
3 1688 20
3 1689 58
3 1690 9
3 1691 19
3 1692 5
3 1693 17
3 1694 15
3 1695 5
3 1696 20
3 1697 12
3 1698 21
3 1699 23
3 1700 57
3 1701 11
3 1702 9
3 1703 11
3 1704 73
3 1705 13
3 1706 8
3 1707 19
3 1708 7
3 1709 10
3 1710 85
3 1711 66
3 1712 10
3 1713 7
3 1714 13
3 1715 12
3 1716 18
3 1717 55
3 1718 359
3 1719 6
3 1720 88
3 1721 72
3 1722 14
3 1723 85
3 1724 56
3 1725 18
3 1726 46
3 1727 22
3 1728 20
3 1729 12
3 1730 17
3 1731 17
3 1732 76
3 1733 16
3 1734 17
3 1735 1254
3 1736 16
3 1737 33
3 1738 45
3 1739 7
3 1740 15
3 1741 9
3 1742 23
3 1743 23
3 1744 23
3 1745 76
3 1746 12
3 1747 22
3 1748 21
3 1749 17
3 1750 15
3 1751 15
3 1752 18
3 1753 152
3 1754 57
3 1755 76
3 1756 13
3 1757 15
3 1758 66
3 1759 10
3 1760 10
3 1761 19
3 1762 16
3 1763 85
3 1764 93
3 1765 14
3 1766 13
3 1767 17
3 1768 16
3 1769 7
3 1770 6
3 1771 17
3 1772 85
3 1773 12
3 1774 19
3 1775 82
3 1776 38
3 1777 9
3 1778 69
3 1779 9
3 1780 17
3 1781 70
3 1782 141
3 1783 12
3 1784 19
3 1785 5
3 1786 9
3 1787 23
3 1788 74
3 1789 63
3 1790 11
3 1791 80
3 1792 101
3 1793 11
3 1794 17
3 1795 21
3 1796 33
3 1797 13
3 1798 48
3 1799 9
3 1800 70
3 1801 7
3 1802 31
3 1803 72
3 1804 54
3 1805 49
3 1806 9
3 1807 88
3 1808 17
3 1809 15
3 1810 15
3 1811 13
3 1812 6
3 1813 17
3 1814 15
3 1815 11
3 1816 12
3 1817 34
3 1818 16
3 1819 10
3 1820 13
3 1821 18
3 1822 10
3 1823 20
3 1824 21
3 1825 11
3 1826 16
3 1827 108
3 1828 24
3 1829 13
3 1830 116
3 1831 10
3 1832 3
3 1833 13
3 1834 14
3 1835 14
3 1836 9
3 1837 113
3 1838 17
3 1839 12
3 1840 49
3 1841 25
3 1842 9
3 1843 8
3 1844 27
3 1845 372
3 1846 31
3 1847 68
3 1848 73
3 1849 19
3 1850 79
3 1851 20
3 1852 28
3 1853 17
3 1854 11
3 1855 17
3 1856 15
3 1857 36
3 1858 8
3 1859 100
3 1860 19
3 1861 11
3 1862 12
3 1863 13
3 1864 82
3 1865 8
3 1866 22
3 1867 32
3 1868 6
3 1869 7
3 1870 5
3 1871 123
3 1872 13
3 1873 206
3 1874 10
3 1875 14
3 1876 9
3 1877 15
3 1878 15
3 1879 39
3 1880 15
3 1881 16
3 1882 334
3 1883 44
3 1884 15
3 1885 14
3 1886 96
3 1887 11
3 1888 99
3 1889 15
3 1890 40
3 1891 36
3 1892 7
3 1893 167
3 1894 18
3 1895 56
3 1896 18
3 1897 14
3 1898 7
3 1899 10
3 1900 13
3 1901 15
3 1902 12
3 1903 40
3 1904 173
3 1905 24
3 1906 77
3 1907 287
3 1908 5
3 1909 16
3 1910 283
3 1911 14
3 1912 16
3 1913 23
3 1914 13
3 1915 100
3 1916 10
3 1917 9
3 1918 10
3 1919 18
3 1920 19
3 1921 15
3 1922 190
3 1923 24
3 1924 63
3 1925 23
3 1926 8
3 1927 13
3 1928 13
3 1929 14
3 1930 84
3 1931 28
3 1932 10
3 1933 22
3 1934 9
3 1935 40
3 1936 24
3 1937 42
3 1938 1053
3 1939 36
3 1940 20
3 1941 19
3 1942 15
3 1943 60
3 1944 28
3 1945 8
3 1946 20
3 1947 21
3 1948 22
3 1949 342
3 1950 71
3 1951 29
3 1952 5
3 1953 12
3 1954 90
3 1955 38
3 1956 34
3 1957 12
3 1958 16
3 1959 21
3 1960 331
3 1961 19
3 1962 5
3 1963 12
3 1964 16
3 1965 10
3 1966 19
3 1967 29
3 1968 8
3 1969 16
3 1970 12
3 1971 45
3 1972 12
3 1973 37
3 1974 9
3 1975 34
3 1976 19
3 1977 17
3 1978 12
3 1979 84
3 1980 10
3 1981 18
3 1982 1094
3 1983 11
3 1984 16
3 1985 12
3 1986 7
3 1987 9
3 1988 42
3 1989 31
3 1990 14
3 1991 21
3 1992 16
3 1993 58
3 1994 4
3 1995 87
3 1996 11
3 1997 19
3 1998 9
3 1999 15
3 2000 11
3 2001 20
3 2002 10
3 2003 2
3 2005 7
3 2006 19
3 2007 9
3 2008 4
3 2009 6
3 2010 9
3 2011 6
3 2012 3
3 2013 4
3 2015 1
3 2016 1
3 2017 3
3 2018 82
3 2019 98
3 2020 11
3 2021 13
3 2022 73
3 2023 33
3 2024 15
3 2025 22
3 2026 10
3 2027 10
3 2028 56
3 2029 26
3 2030 22
3 2031 26
3 2032 25
3 2033 21
3 2034 19
3 2035 19
3 2036 10
3 2037 17
3 2038 44
3 2039 8
3 2040 14
3 2041 20
3 2042 8
3 2043 19
3 2044 11
3 2045 31
3 2046 18
3 2047 20
3 2048 75
3 2049 5
3 2050 26
3 2051 13
3 2052 19
3 2053 10
3 2054 24
3 2055 7
3 2056 4
3 2057 18
3 2058 24
3 2059 17
3 2060 24
3 2061 16
3 2062 7
3 2063 11
3 2064 12
3 2065 53
3 2066 16
3 2067 11
3 2068 8
3 2069 11
3 2070 70
3 2071 15
3 2072 6
3 2073 64
3 2074 15
3 2075 24
3 2076 39
3 2077 66
3 2078 20
3 2079 33
3 2080 36
3 2081 29
3 2082 14
3 2083 60
3 2084 70
3 2085 88
3 2086 12
3 2087 33
3 2088 7
3 2089 16
3 2090 13
3 2091 11
3 2092 9
3 2093 55
3 2094 53
3 2095 181
3 2096 16
3 2097 9
3 2098 10
3 2099 22
3 2100 12
3 2101 8
3 2102 12
3 2103 19
3 2104 14
3 2105 91
3 2106 2
3 2107 27
3 2108 17
3 2109 23
3 2110 11
3 2111 21
3 2112 12
3 2113 5
3 2114 56
3 2115 45
3 2116 28
3 2117 12
3 2118 41
3 2119 79
3 2120 62
3 2121 28
3 2122 48
3 2123 13
3 2124 7
3 2125 22
3 2126 1103
3 2127 40
3 2128 15
3 2129 20
3 2130 42
3 2131 55
3 2132 14
3 2133 72
3 2134 9
3 2135 45
3 2136 14
3 2137 15
3 2138 20
3 2139 17
3 2140 16
3 2141 6
3 2142 42
3 2143 14
3 2144 18
3 2145 9
3 2146 57
3 2147 11
3 2148 11
3 2149 8
3 2150 21
3 2151 16
3 2152 7
3 2153 5
3 2154 42
3 2155 8
3 2156 22
3 2157 22
3 2158 13
3 2159 7
3 2160 38
3 2161 11
3 2162 25
3 2163 11
3 2164 48
3 2165 9
3 2166 15
3 2167 18
3 2168 36
3 2169 14
3 2170 21
3 2171 84
3 2172 43
3 2173 21
3 2174 46
3 2175 9
3 2176 17
3 2177 10
3 2178 17
3 2179 8
3 2180 12
3 2181 26
3 2182 19
3 2183 19
3 2184 84
3 2185 74
3 2186 16
3 2187 10
3 2188 26
3 2189 9
3 2190 11
3 2191 14
3 2192 17
3 2193 130
3 2194 33
3 2195 71
3 2196 9
3 2197 14
3 2198 14
3 2199 55
3 2200 32
3 2201 9
3 2202 16
3 2203 16
3 2204 114
3 2205 7
3 2206 77
3 2207 24
3 2208 16
3 2209 67
3 2210 216
3 2211 17
3 2212 16
3 2213 14
3 2214 23
3 2215 17
3 2216 19
3 2217 9
3 2218 9
3 2219 23
3 2220 9
3 2221 10
3 2222 41
3 2223 12
3 2224 14
3 2225 13
3 2226 59
3 2227 36
3 2228 15
3 2229 11
3 2230 12
3 2231 15
3 2232 11
3 2233 26
3 2234 13
3 2235 13
3 2236 38
3 2237 112
3 2238 71
3 2239 57
3 2240 8
3 2241 7
3 2242 12
3 2243 70
3 2244 25
3 2245 23
3 2246 24
3 2247 7
3 2248 12
3 2249 47
3 2250 13
3 2251 8
3 2252 27
3 2253 47
3 2254 83
3 2255 63
3 2256 10
3 2257 14
3 2258 18
3 2259 20
3 2260 21
3 2261 77
3 2262 9
3 2263 6
3 2264 52
3 2265 11
3 2266 6
3 2267 7
3 2268 51
3 2269 19
3 2270 55
3 2271 137
3 2272 15
3 2273 3
3 2274 16
3 2275 13
3 2276 12
3 2277 15
3 2278 84
3 2279 12
3 2280 143
3 2281 13
3 2282 13
3 2283 8
3 2284 90
3 2285 33
3 2286 2
3 2287 17
3 2288 20
3 2289 17
3 2290 10
3 2291 13
3 2292 13
3 2293 9
3 2294 5
3 2295 89
3 2296 14
3 2297 9
3 2298 51
3 2299 7
3 2300 11
3 2301 51
3 2302 11
3 2303 82
3 2304 6
3 2305 13
3 2306 14
3 2307 21
3 2308 200
3 2309 6
3 2310 10
3 2311 19
3 2312 22
3 2313 22
3 2314 9
3 2315 15
3 2316 19
3 2317 405
3 2318 9
3 2319 11
3 2320 3
3 2321 91
3 2322 16
3 2323 19
3 2324 13
3 2325 31
3 2326 10
3 2327 29
3 2328 8
3 2329 94
3 2330 57
3 2331 17
3 2332 12
3 2333 4
3 2334 3
3 2335 21
3 2336 6
3 2337 112
3 2338 25
3 2339 19
3 2340 12
3 2341 88
3 2342 11
3 2343 11
3 2344 30
3 2345 9
3 2346 17
3 2347 19
3 2348 16
3 2349 14
3 2350 6
3 2351 51
3 2352 12
3 2353 32
3 2354 4
3 2355 22
3 2356 84
3 2357 19
3 2358 26
3 2359 11
3 2360 17
3 2361 301
3 2362 31
3 2363 68
3 2364 9
3 2365 11
3 2366 16
3 2367 33
3 2368 23
3 2369 10
3 2370 12
3 2371 11
3 2372 39
3 2373 29
3 2374 6
3 2375 15
3 2376 25
3 2377 11
3 2378 13
3 2379 15
3 2380 43
3 2381 38
3 2382 12
3 2383 17
3 2384 18
3 2385 13
3 2386 79
3 2387 494
3 2388 80
3 2389 21
3 2390 15
3 2391 17
3 2392 11
3 2393 830
3 2394 12
3 2395 12
3 2396 13
3 2397 619
3 2398 13
3 2399 7
3 2400 3
3 2401 41
3 2402 16
3 2403 1050
3 2404 138
3 2405 10
3 2406 299
3 2407 16
3 2408 7
3 2409 11
3 2410 44
3 2411 53
3 2412 4
3 2413 91
3 2414 59
3 2415 63
3 2416 15
3 2417 507
3 2418 21
3 2419 74
3 2420 125
3 2421 84
3 2422 14
3 2423 16
3 2424 14
3 2425 15
3 2426 5
3 2427 10
3 2428 5
3 2429 13
3 2430 32
3 2431 14
3 2432 15
3 2433 794
3 2434 72
3 2435 73
3 2436 14
3 2437 7
3 2438 10
3 2439 16
3 2440 49
3 2441 19
3 2442 93
3 2443 99
3 2444 28
3 2445 11
3 2446 60
3 2447 5
3 2448 13
3 2449 21
3 2450 20
3 2451 14
3 2452 35
3 2453 18
3 2454 24
3 2455 88
3 2456 11
3 2457 51
3 2458 16
3 2459 68
3 2460 12
3 2461 82
3 2462 8
3 2463 15
3 2464 10
3 2465 19
3 2466 14
3 2467 20
3 2468 44
3 2469 21
3 2470 25
3 2471 123
3 2472 12
3 2473 52
3 2474 24
3 2475 17
3 2476 48
3 2477 48
3 2478 20
3 2479 98
3 2480 10
3 2481 12
3 2482 7
3 2483 20
3 2484 12
3 2485 19
3 2486 14
3 2487 29
3 2488 67
3 2489 20
3 2490 5
3 2491 14
3 2492 17
3 2493 6
3 2494 101
3 2495 6
3 2496 25
3 2497 38
3 2498 17
3 2499 17
3 2500 16
3 2501 21
3 2502 18
3 2503 14
3 2504 12
3 2505 11
3 2506 12
3 2507 6
3 2508 41
3 2509 9
3 2510 12
3 2511 15
3 2512 38
3 2513 17
3 2514 17
3 2515 17
3 2516 20
3 2517 40
3 2518 61
3 2519 31
3 2520 12
3 2521 32
3 2522 90
3 2523 6
3 2524 133
3 2525 70
3 2526 14
3 2527 18
3 2528 12
3 2529 13
3 2530 12
3 2531 86
3 2532 22
3 2533 65
3 2534 19
3 2535 48
3 2536 9
3 2537 9
3 2538 7
3 2539 22
3 2540 60
3 2541 115
3 2542 9
3 2543 11
3 2544 11
3 2545 8
3 2546 7
3 2547 7
3 2548 85
3 2549 88
3 2550 16
3 2551 11
3 2552 113
3 2553 23
3 2554 43
3 2555 14
3 2557 27
3 2558 14
3 2559 17
3 2560 25
3 2561 28
3 2562 16
3 2563 88
3 2564 14
3 2565 12
3 2566 18
3 2567 18
3 2568 36
3 2569 32
3 2570 13
3 2571 20
3 2572 20
3 2573 22
3 2574 96
3 2575 15
3 2576 63
3 2577 3
3 2578 45
3 2579 117
3 2580 26
3 2581 178
3 2582 9
3 2583 9
3 2584 22
3 2585 61
3 2586 61
3 2587 40
3 2588 15
3 2589 11
3 2590 49
3 2591 17
3 2592 15
3 2593 9
3 2594 69
3 2595 66
3 2596 14
3 2597 7
3 2598 20
3 2599 25
3 2600 57
3 2601 66
3 2602 16
3 2603 11
3 2604 16
3 2605 14
3 2606 9
3 2607 16
3 2608 10
3 2609 70
3 2610 33
3 2611 14
3 2612 30
3 2613 19
3 2614 47
3 2615 42
3 2616 92
3 2617 43
3 2618 51
3 2619 4
3 2620 17
3 2621 18
3 2622 376
3 2623 5
3 2624 11
3 2625 125
3 2626 38
3 2627 22
3 2628 20
3 2629 87
3 2630 60
3 2631 7
3 2632 16
3 2633 41
3 2634 35
3 2635 20
3 2636 22
3 2637 20
3 2638 13
3 2639 21
3 2640 297
3 2641 17
3 2642 12
3 2643 152
3 2644 16
3 2645 17
3 2646 12
3 2647 18
3 2648 122
3 2649 108
3 2650 11
3 2651 7
3 2652 11
3 2653 12
3 2654 33
3 2655 85
3 2656 145
3 2657 44
3 2658 21
3 2659 11
3 2660 24
3 2661 16
3 2662 10
3 2663 10
3 2664 18
3 2665 18
3 2666 74
3 2667 16
3 2668 46
3 2669 9
3 2670 101
3 2671 10
3 2672 12
3 2673 12
3 2674 250
3 2675 141
3 2676 24
3 2677 12
3 2678 98
3 2679 9
3 2680 22
3 2681 14
3 2682 96
3 2683 19
3 2684 72
3 2685 9
3 2686 104
3 2687 15
3 2688 9
3 2689 28
3 2690 13
3 2691 54
3 2692 37
3 2693 9
3 2694 13
3 2695 12
3 2696 9
3 2697 7
3 2698 153
3 2699 49
3 2700 12
3 2701 83
3 2702 8
3 2703 25
3 2704 28
3 2705 18
3 2706 10
3 2707 14
3 2708 5
3 2709 19
3 2710 9
3 2711 52
3 2712 20
3 2713 11
3 2714 5
3 2715 30
3 2716 45
3 2717 11
3 2718 25
3 2719 8
3 2720 70
3 2721 2
3 2722 6
3 2723 14
3 2724 64
3 2725 13
3 2726 17
3 2727 138
3 2728 15
3 2729 75
3 2730 72
3 2731 138
3 2732 26
3 2733 16
3 2734 8
3 2735 15
3 2736 27
3 2737 72
3 2738 21
3 2739 92
3 2740 17
3 2741 96
3 2742 64
3 2743 20
3 2744 39
3 2745 27
3 2746 18
3 2747 42
3 2748 14
3 2749 16
3 2750 188
3 2751 14
3 2752 19
3 2753 13
3 2754 16
3 2755 51
3 2756 13
3 2757 27
3 2758 12
3 2759 69
3 2760 14
3 2761 8
3 2762 12
3 2763 350
3 2764 29
3 2765 22
3 2766 14
3 2767 22
3 2768 11
3 2769 63
3 2770 31
3 2771 17
3 2772 12
3 2773 44
3 2774 66
3 2775 50
3 2776 13
3 2777 30
3 2778 31
3 2779 18
3 2780 31
3 2781 18
3 2782 16
3 2783 69
3 2784 89
3 2785 189
3 2786 28
3 2787 6
3 2788 22
3 2789 17
3 2790 23
3 2791 17
3 2792 12
3 2793 1219
3 2794 24
3 2795 10
3 2796 12
3 2797 17
3 2798 14
3 2799 84
3 2800 49
3 2801 63
3 2802 8
3 2803 16
3 2804 18
3 2805 13
3 2806 50
3 2807 21
3 2808 138
3 2809 21
3 2810 19
3 2811 14
3 2812 52
3 2813 60
3 2814 85
3 2815 11
3 2816 14
3 2817 67
3 2818 6
3 2819 14
3 2820 144
3 2821 14
3 2822 159
3 2823 14
3 2824 17
3 2825 24
3 2826 93
3 2827 26
3 2828 18
3 2829 21
3 2830 216
3 2831 22
3 2832 23
3 2833 16
3 2834 70
3 2835 285
3 2836 17
3 2837 30
3 2838 12
3 2839 7
3 2840 14
3 2841 161
3 2842 11
3 2843 131
3 2844 13
3 2845 103
3 2846 92
3 2847 14
3 2848 1132
3 2849 11
3 2850 22
3 2851 15
3 2852 17
3 2853 23
3 2854 8
3 2855 53
3 2856 16
3 2857 86
3 2858 14
3 2859 17
3 2860 23
3 2861 22
3 2862 60
3 2863 20
3 2864 11
3 2865 15
3 2866 72
3 2867 26
3 2868 184
3 2869 91
3 2870 12
3 2871 140
3 2872 16
3 2873 12
3 2874 105
3 2875 92
3 2876 12
3 2877 87
3 2878 11
3 2879 16
3 2880 13
3 2881 57
3 2882 16
3 2883 19
3 2884 11
3 2885 15
3 2886 30
3 2887 69
3 2888 8
3 2889 16
3 2890 14
3 2891 20
3 2892 26
3 2893 17
3 2894 13
3 2895 14
3 2896 97
3 2897 11
3 2898 16
3 2899 13
3 2900 7
3 2901 39
3 2902 23
3 2903 21
3 2904 72
3 2905 4
3 2906 92
3 2907 48
3 2908 599
3 2909 11
3 2910 8
3 2911 12
3 2912 29
3 2913 84
3 2914 19
3 2915 61
3 2916 15
3 2917 10
3 2918 8
3 2919 11
3 2920 10
3 2921 24
3 2922 15
3 2923 12
3 2924 8
3 2925 55
3 2926 40
3 2927 22
3 2928 10
3 2929 9
3 2930 11
3 2931 14
3 2932 4
3 2933 9
3 2934 28
3 2935 98
3 2936 23
3 2937 6
3 2938 11
3 2939 969
3 2940 85
3 2941 108
3 2942 13
3 2943 162
3 2944 21
3 2945 83
3 2946 12
3 2947 10
3 2948 35
3 2949 12
3 2950 16
3 2951 22
3 2952 11
3 2953 52
3 2954 23
3 2955 14
3 2956 13
3 2957 9
3 2958 8
3 2959 11
3 2960 17
3 2961 12
3 2962 17
3 2963 49
3 2964 683
3 2965 19
3 2966 14
3 2967 13
3 2968 98
3 2969 14
3 2970 22
3 2971 57
3 2972 40
3 2973 18
3 2974 1172
3 2975 23
3 2976 291
3 2977 81
3 2978 55
3 2979 316
3 2980 12
3 2981 30
3 2982 39
3 2983 19
3 2984 12
3 2985 17
3 2986 285
3 2987 15
3 2988 2
3 2989 56
3 2990 16
3 2991 74
3 2992 1039
3 2993 8
3 2994 13
3 2995 104
3 2996 11
3 2997 3
3 2998 130
3 2999 116
3 3000 9
3 3001 9
3 3002 48
3 3003 66
3 3004 48
3 3005 15
3 3006 7
3 3007 15
3 3008 86
3 3009 68
3 3010 26
3 3011 6
3 3012 103
3 3013 48
3 3014 13
3 3015 7
3 3016 74
3 3017 28
3 3018 178
3 3019 11
3 3020 9
3 3021 51
3 3022 23
3 3023 83
3 3024 17
3 3025 74
3 3026 51
3 3027 21
3 3028 55
3 3029 8
3 3030 58
3 3031 11
3 3032 75
3 3033 12
3 3034 13
3 3035 25
3 3036 15
3 3037 18
3 3038 22
3 3039 32
3 3040 90
3 3041 10
3 3042 13
3 3043 20
3 3044 16
3 3045 1089
3 3046 20
3 3047 18
3 3048 13
3 3049 16
3 3050 12
3 3051 7
3 3052 11
3 3053 13
3 3054 67
3 3055 45
3 3056 15
3 3057 19
3 3058 9
3 3059 37
3 3060 54
3 3061 8
3 3062 9
3 3063 10
3 3064 9
3 3065 17
3 3066 12
3 3067 55
3 3068 114
3 3069 12
3 3070 125
3 3071 87
3 3072 18
3 3073 16
3 3074 32
3 3075 21
3 3076 112
3 3077 7
3 3078 13
3 3079 38
3 3080 165
3 3081 15
3 3082 13
3 3083 20
3 3084 80
3 3085 20
3 3086 21
3 3087 14
3 3088 18
3 3089 15
3 3090 55
3 3091 9
3 3092 13
3 3093 26
3 3094 61
3 3095 20
3 3096 15
3 3097 127
3 3098 17
3 3099 27
3 3100 11
3 3101 21
3 3102 15
3 3103 14
3 3104 22
3 3105 20
3 3106 76
3 3107 19
3 3108 16
3 3109 10
3 3110 88
3 3111 57
3 3112 27
3 3113 18
3 3114 13
3 3115 14
3 3116 40
3 3117 7
3 3118 57
3 3119 2
3 3120 26
3 3121 25
3 3122 8
3 3123 17
3 3124 57
3 3125 54
3 3126 12
3 3127 87
3 3128 29
3 3129 2
3 3130 78
3 3131 9
3 3132 23
3 3133 5
3 3134 13
3 3135 6
3 3136 19
3 3137 138
3 3138 15
3 3139 25
3 3140 10
3 3141 23
3 3142 9
3 3143 114
3 3144 18
3 3145 13
3 3146 11
3 3147 8
3 3148 31
3 3149 176
3 3150 15
3 3151 62
3 3152 18
3 3153 56
3 3154 27
3 3155 13
3 3156 13
3 3157 32
3 3158 100
3 3159 34
3 3160 161
3 3161 96
3 3162 16
3 3163 12
3 3164 31
3 3165 22
3 3166 10
3 3167 12
3 3168 53
3 3169 111
3 3170 7
3 3171 11
3 3172 16
3 3173 147
3 3174 9
3 3176 17
3 3177 10
3 3178 65
3 3179 124
3 3180 88
3 3181 36
3 3182 50
3 3183 13
3 3184 108
3 3185 44
3 3186 16
3 3187 31
3 3188 17
3 3189 7
3 3190 15
3 3191 10
3 3192 13
3 3193 7
3 3194 7
3 3195 99
3 3196 24
3 3197 44
3 3198 18
3 3199 4
3 3200 102
3 3201 17
3 3202 80
3 3203 19
3 3204 55
3 3205 13
3 3206 21
3 3207 67
3 3208 59
3 3209 9
3 3210 74
3 3211 12
3 3212 10
3 3213 83
3 3214 92
3 3215 18
3 3216 12
3 3217 11
3 3218 12
3 3219 19
3 3220 27
3 3221 20
3 3222 15
3 3223 68
3 3224 76
3 3225 16
3 3226 12
3 3227 17
3 3228 6
3 3229 15
3 3230 12
3 3231 61
3 3232 15
3 3233 11
3 3234 107
3 3235 16
3 3236 58
3 3237 35
3 3238 69
3 3239 10
3 3240 13
3 3241 76
3 3242 39
3 3243 4
3 3244 9
3 3245 19
3 3246 54
3 3247 12
3 3248 9
3 3249 144
3 3250 17
3 3251 102
3 3252 10
3 3253 27
3 3254 1016
3 3255 111
3 3256 114
3 3257 49
3 3258 12
3 3259 10
3 3260 11
3 3261 12
3 3262 13
3 3263 13
3 3264 21
3 3265 1082
3 3266 22
3 3267 12
3 3268 9
3 3269 35
3 3270 27
3 3271 20
3 3272 10
3 3273 36
3 3274 15
3 3275 16
3 3276 42
3 3277 48
3 3278 39
3 3279 21
3 3280 14
3 3281 45
3 3282 18
3 3283 15
3 3284 5
3 3285 8
3 3286 19
3 3287 19
3 3289 31
3 3290 28
3 3291 17
3 3292 4
3 3293 10
3 3294 168
3 3295 14
3 3296 6
3 3297 15
3 3298 20
3 3299 8
3 3300 13
3 3301 14
3 3302 19
3 3303 50
3 3304 79
3 3305 9
3 3306 116
3 3307 13
3 3308 28
3 3309 19
3 3310 23
3 3311 10
3 3312 39
3 3313 20
3 3314 18
3 3315 49
3 3316 13
3 3317 11
3 3318 38
3 3319 97
3 3320 19
3 3321 7
3 3322 110
3 3323 22
3 3324 6
3 3325 48
3 3326 5
3 3327 108
3 3328 27
3 3329 35
3 3330 13
3 3331 140
3 3332 54
3 3333 15
3 3334 39
3 3335 26
3 3336 14
3 3337 78
3 3338 13
3 3339 17
3 3340 79
3 3341 13
3 3342 17
3 3343 12
3 3344 69
3 3345 7
3 3346 12
3 3347 12
3 3348 11
3 3349 12
3 3350 8
3 3351 13
3 3352 161
3 3353 1041
3 3354 6
3 3355 13
3 3356 76
3 3357 158
3 3358 35
3 3359 83
3 3360 73
3 3361 16
3 3362 20
3 3363 10
3 3364 17
3 3365 14
3 3366 9
3 3367 13
3 3368 14
3 3369 13
3 3370 9
3 3371 7
3 3372 22
3 3373 11
3 3374 15
3 3375 65
3 3376 72
3 3377 14
3 3378 8
3 3379 28
3 3380 23
3 3381 27
3 3382 2
3 3383 20
3 3384 8
3 3385 54
3 3386 10
3 3387 205
3 3388 14
3 3389 13
3 3390 16
3 3391 16
3 3392 46
3 3393 70
3 3394 20
3 3395 5
3 3396 17
3 3397 27
3 3398 11
3 3399 48
3 3400 7
3 3401 108
3 3402 14
3 3403 12
3 3404 11
3 3405 47
3 3406 11
3 3407 70
3 3408 22
3 3409 13
3 3410 16
3 3411 61
3 3412 52
3 3413 87
3 3414 77
3 3415 21
3 3416 67
3 3417 13
3 3418 21
3 3419 16
3 3420 6
3 3421 30
3 3422 19
3 3423 15
3 3424 28
3 3425 10
3 3426 12
3 3427 20
3 3428 25
3 3429 127
3 3430 86
3 3431 59
3 3432 13
3 3433 33
3 3434 40
3 3435 11
3 3436 19
3 3437 9
3 3438 2
3 3439 55
3 3440 7
3 3441 14
3 3442 53
3 3443 11
3 3444 10
3 3445 21
3 3446 16
3 3447 17
3 3448 13
3 3449 93
3 3450 39
3 3451 14
3 3452 14
3 3453 15
3 3454 18
3 3455 16
3 3456 12
3 3457 13
3 3458 11
3 3459 10
3 3460 19
3 3461 16
3 3462 7
3 3463 9
3 3464 9
3 3465 59
3 3466 40
3 3467 13
3 3468 7
3 3469 14
3 3470 16
3 3471 6
3 3472 16
3 3473 110
3 3474 16
3 3475 12
3 3476 11
3 3477 11
3 3478 14
3 3479 117
3 3480 11
3 3481 52
3 3483 9
3 3484 11
3 3485 170
3 3486 79
3 3487 13
3 3488 10
3 3489 13
3 3490 35
3 3491 12
3 3492 35
3 3493 25
3 3494 13
3 3495 20
3 3496 14
3 3497 18
3 3498 33
3 3499 51
3 3500 8
3 3501 20
3 3502 21
3 3503 63
3 3504 20
3 3505 6
3 3506 30
3 3507 16
3 3508 90
3 3509 17
3 3510 625
3 3511 8
3 3512 7
3 3513 10
3 3514 17
3 3515 107
3 3516 18
3 3517 60
3 3518 74
3 3519 8
3 3520 4
3 3521 33
3 3522 15
3 3523 12
3 3524 46
3 3525 10
3 3526 29
3 3527 71
3 3528 29
3 3529 13
3 3530 11
3 3531 16
3 3532 4
3 3533 145
3 3534 67
3 3535 16
3 3536 12
3 3537 18
3 3538 25
3 3539 9
3 3540 7
3 3541 40
3 3542 38
3 3543 24
3 3544 56
3 3545 16
3 3546 54
3 3547 11
3 3548 11
3 3549 18
3 3550 13
3 3551 6
3 3552 4
3 3553 15
3 3554 11
3 3555 15
3 3556 21
3 3557 170
3 3558 12
3 3559 10
3 3560 105
3 3561 139
3 3562 10
3 3563 8
3 3564 108
3 3565 6
3 3566 16
3 3567 99
3 3568 30
3 3569 14
3 3570 161
3 3571 15
3 3572 59
3 3573 18
3 3574 29
3 3575 17
3 3576 7
3 3577 74
3 3578 24
3 3579 6
3 3580 23
3 3581 9
3 3582 105
3 3583 55
3 3584 2
3 3585 37
3 3586 367
3 3587 12
3 3588 106
3 3589 17
3 3590 8
3 3591 91
3 3592 10
3 3593 9
3 3594 84
3 3595 95
3 3596 54
3 3597 16
3 3598 16
3 3599 45
3 3600 10
3 3601 18
3 3602 13
3 3603 28
3 3604 15
3 3605 119
3 3606 16
3 3607 12
3 3608 3
3 3609 71
3 3610 20
3 3611 22
3 3612 17
3 3613 16
3 3614 12
3 3615 6
3 3616 59
3 3617 8
3 3618 77
3 3619 23
3 3620 86
3 3621 27
3 3622 25
3 3623 34
3 3624 14
3 3625 7
3 3626 16
3 3627 6
3 3628 4
3 3629 42
3 3630 48
3 3631 27
3 3632 30
3 3633 6
3 3634 9
3 3635 6
3 3636 23
3 3637 16
3 3638 75
3 3639 80
3 3640 43
3 3641 7
3 3642 92
3 3643 50
3 3644 7
3 3645 34
3 3646 12
3 3647 18
3 3648 31
3 3649 10
3 3650 93
3 3651 13
3 3652 16
3 3653 173
3 3654 9
3 3655 14
3 3656 61
3 3657 18
3 3658 20
3 3659 74
3 3660 13
3 3661 5
3 3662 10
3 3663 6
3 3664 14
3 3665 14
3 3666 166
3 3667 14
3 3668 86
3 3669 47
3 3670 24
3 3671 12
3 3672 86
3 3673 23
3 3674 9
3 3675 16
3 3676 55
3 3677 12
3 3678 9
3 3679 22
3 3680 12
3 3681 14
3 3682 8
3 3683 12
3 3684 75
3 3685 7
3 3686 5
3 3687 15
3 3688 20
3 3689 22
3 3690 171
3 3691 30
3 3692 14
3 3693 15
3 3694 6
3 3695 12
3 3696 17
3 3697 19
3 3698 8
3 3699 47
3 3700 8
3 3701 38
3 3702 9
3 3703 39
3 3704 8
3 3705 26
3 3706 15
3 3707 11
3 3708 45
3 3709 10
3 3710 49
3 3711 19
3 3712 39
3 3713 11
3 3714 65
3 3715 15
3 3716 20
3 3717 12
3 3718 5
3 3719 13
3 3720 12
3 3721 29
3 3722 22
3 3723 78
3 3724 16
3 3725 13
3 3726 31
3 3727 11
3 3728 321
3 3729 5
3 3730 12
3 3731 18
3 3732 100
3 3733 18
3 3734 18
3 3735 13
3 3736 10
3 3737 21
3 3738 236
3 3739 12
3 3740 13
3 3741 7
3 3742 11
3 3743 13
3 3744 13
3 3745 16
3 3746 15
3 3747 9
3 3748 78
3 3749 19
3 3750 17
3 3751 17
3 3752 25
3 3753 21
3 3754 14
3 3755 20
3 3756 17
3 3757 147
3 3758 14
3 3759 11
3 3760 95
3 3761 8
3 3762 76
3 3763 11
3 3764 5
3 3765 12
3 3766 20
3 3767 9
3 3768 18
3 3769 11
3 3770 18
3 3771 10
3 3772 24
3 3773 15
3 3774 13
3 3775 98
3 3776 24
3 3777 19
3 3778 27
3 3779 20
3 3780 27
3 3781 94
3 3782 11
3 3783 36
3 3784 14
3 3785 82
3 3786 14
3 3787 19
3 3788 10
3 3789 16
3 3790 25
3 3791 15
3 3792 25
3 3793 11
3 3794 35
3 3795 20
3 3796 52
3 3797 17
3 3798 188
3 3799 14
3 3800 12
3 3801 10
3 3802 8
3 3803 14
3 3804 1211
3 3805 14
3 3806 113
3 3807 23
3 3808 21
3 3809 16
3 3810 59
3 3811 52
3 3812 61
3 3813 19
3 3814 19
3 3815 108
3 3816 68
3 3817 19
3 3818 14
3 3819 6
3 3820 77
3 3821 5
3 3822 17
3 3823 10
3 3824 93
3 3825 14
3 3826 16
3 3827 88
3 3828 24
3 3829 23
3 3830 84
3 3831 24
3 3832 38
3 3833 23
3 3834 40
3 3835 62
3 3836 7
3 3837 24
3 3838 32
3 3839 81
3 3840 14
3 3841 22
3 3842 9
3 3843 16
3 3844 19
3 3845 47
3 3846 16
3 3847 22
3 3848 14
3 3849 150
3 3850 14
3 3851 20
3 3852 12
3 3853 13
3 3854 86
3 3855 26
3 3856 12
3 3857 16
3 3858 12
3 3859 13
3 3860 12
3 3861 15
3 3862 16
3 3863 11
3 3864 15
3 3865 53
3 3866 43
3 3867 15
3 3868 26
3 3869 21
3 3870 27
3 3871 67
3 3872 23
3 3873 16
3 3874 42
3 3875 32
3 3876 13
3 3877 90
3 3878 94
3 3879 14
3 3880 18
3 3881 20
3 3882 22
3 3883 12
3 3884 14
3 3885 14
3 3886 18
3 3887 8
3 3888 12
3 3889 12
3 3890 92
3 3891 6
3 3892 21
3 3893 14
3 3894 14
3 3895 12
3 3896 80
3 3897 120
3 3898 12
3 3899 13
3 3900 27
3 3901 83
3 3902 13
3 3903 5
3 3904 13
3 3905 13
3 3906 16
3 3907 15
3 3908 11
3 3909 16
3 3910 162
3 3911 65
3 3912 69
3 3913 14
3 3914 15
3 3915 9
3 3916 31
3 3917 116
3 3918 15
3 3919 24
3 3920 13
3 3921 315
3 3922 9
3 3923 172
3 3924 9
3 3925 27
3 3926 62
3 3927 6
3 3928 51
3 3929 14
3 3930 4
3 3931 10
3 3932 3
3 3933 52
3 3934 12
3 3935 11
3 3936 11
3 3937 29
3 3938 10
3 3939 6
3 3940 46
3 3941 43
3 3942 16
3 3943 17
3 3944 110
3 3945 7
3 3946 18
3 3947 15
3 3948 80
3 3949 40
3 3950 92
3 3951 16
3 3952 18
3 3953 11
3 3954 18
3 3955 9
3 3956 11
3 3957 13
3 3958 22
3 3959 68
3 3960 47
3 3961 26
3 3962 8
3 3963 10
3 3964 13
3 3965 56
3 3966 72
3 3967 19
3 3968 15
3 3969 18
3 3970 49
3 3971 18
3 3972 14
3 3973 9
3 3974 11
3 3975 8
3 3976 76
3 3977 25
3 3978 36
3 3979 17
3 3980 12
3 3981 195
3 3982 29
3 3983 13
3 3984 68
3 3985 9
3 3986 9
3 3987 18
3 3988 41
3 3989 10
3 3990 35
3 3991 272
3 3992 17
3 3993 19
3 3994 17
3 3995 11
3 3996 1147
3 3997 20
3 3998 82
3 3999 19
3 4000 56
3 4001 26
3 4002 26
3 4003 18
3 4004 24
3 4005 101
3 4006 40
3 4007 8
3 4008 7
3 4009 16
3 4010 10
3 4011 21
3 4012 12
3 4013 15
3 4014 8
3 4015 67
3 4016 6
3 4017 13
3 4018 23
3 4019 16
3 4020 104
3 4021 16
3 4022 8
3 4023 26
3 4024 16
3 4025 59
3 4026 16
3 4027 484
3 4028 44
3 4029 14
3 4030 10
3 4031 22
3 4032 50
3 4033 17
3 4034 34
3 4035 12
3 4036 23
3 4037 11
3 4038 12
3 4039 11
3 4040 29
3 4041 8
3 4042 82
3 4043 8
3 4044 16
3 4045 77
3 4046 12
3 4047 15
3 4048 17
3 4049 17
3 4050 11
3 4051 50
3 4052 33
3 4053 20
3 4054 35
3 4055 18
3 4056 11
3 4057 17
3 4058 6
3 4059 43
3 4060 22
3 4061 56
3 4062 95
3 4063 107
3 4064 72
3 4065 15
3 4066 13
3 4067 50
3 4068 51
3 4069 18
3 4070 7
3 4071 44
3 4072 74
3 4073 24
3 4074 91
3 4075 15
3 4076 35
3 4077 30
3 4078 53
3 4079 110
3 4080 136
3 4081 10
3 4082 12
3 4083 28
3 4084 16
3 4085 5
3 4086 28
3 4087 9
3 4088 13
3 4089 13
3 4090 14
3 4091 78
3 4092 160
3 4093 15
3 4094 27
3 4095 38
3 4096 14
3 4097 22
3 4098 8
3 4099 43
3 4100 13
3 4101 28
3 4102 63
3 4103 9
3 4104 10
3 4105 46
3 4106 22
3 4107 42
3 4108 85
3 4109 18
3 4110 15
3 4111 14
3 4112 11
3 4113 7
3 4114 49
3 4115 12
3 4116 7
3 4117 10
3 4118 13
3 4119 10
3 4120 46
3 4121 5
3 4122 9
3 4123 11
3 4124 21
3 4125 7
3 4126 67
3 4127 15
3 4128 12
3 4129 11
3 4130 27
3 4131 15
3 4132 7
3 4133 8
3 4134 4
3 4135 19
3 4136 292
3 4137 9
3 4138 12
3 4139 101
3 4140 82
3 4141 8
3 4142 10
3 4143 192
3 4144 15
3 4145 5
3 4146 22
3 4147 58
3 4148 18
3 4149 12
3 4150 22
3 4151 34
3 4152 14
3 4153 4
3 4154 136
3 4155 50
3 4156 28
3 4157 12
3 4158 20
3 4159 7
3 4160 12
3 4161 8
3 4162 8
3 4163 18
3 4164 13
3 4165 56
3 4166 19
3 4167 17
3 4168 42
3 4169 12
3 4170 10
3 4171 32
3 4172 92
3 4173 15
3 4174 13
3 4175 119
3 4176 14
3 4177 10
3 4178 15
3 4179 36
3 4180 27
3 4181 14
3 4182 26
3 4183 30
3 4184 73
3 4185 57
3 4186 216
3 4187 13
3 4188 61
3 4189 11
3 4190 12
3 4191 9
3 4192 84
3 4193 40
3 4194 461
3 4195 39
3 4196 9
3 4197 11
3 4198 15
3 4199 24
3 4200 72
3 4201 17
3 4202 23
3 4203 6
3 4204 13
3 4205 18
3 4206 14
3 4207 18
3 4208 11
3 4209 17
3 4210 19
3 4211 10
3 4212 10
3 4213 8
3 4214 9
3 4215 6
3 4216 157
3 4217 20
3 4218 48
3 4219 38
3 4220 8
3 4221 8
3 4222 24
3 4223 50
3 4224 61
3 4225 15
3 4226 68
3 4227 18
3 4228 9
3 4229 7
3 4230 13
3 4231 63
3 4232 11
3 4233 30
3 4234 130
3 4235 9
3 4236 116
3 4237 91
3 4238 14
3 4239 40
3 4240 10
3 4241 11
3 4242 10
3 4243 14
3 4244 81
3 4245 12
3 4246 509
3 4247 79
3 4248 126
3 4249 13
3 4250 9
3 4251 18
3 4252 6
3 4253 5
3 4254 39
3 4255 10
3 4256 11
3 4257 99
3 4258 26
3 4259 22
3 4260 10
3 4261 11
3 4262 8
3 4263 104
3 4264 11
3 4265 25
3 4266 15
3 4267 17
3 4268 16
3 4269 13
3 4270 59
3 4271 14
3 4272 44
3 4273 16
3 4274 28
3 4275 49
3 4276 64
3 4277 16
3 4278 25
3 4279 15
3 4280 8
3 4281 17
3 4282 18
3 4283 11
3 4284 66
3 4285 7
3 4286 21
3 4287 13
3 4288 4
3 4289 26
3 4290 18
3 4291 987
3 4292 13
3 4293 6
3 4294 9
3 4295 98
3 4296 11
3 4297 24
3 4298 13
3 4299 24
3 4300 10
3 4301 14
3 4302 16
3 4303 90
3 4304 222
3 4305 10
3 4306 12
3 4307 14
3 4308 42
3 4309 11
3 4310 4
3 4311 21
3 4312 78
3 4313 19
3 4314 41
3 4315 17
3 4316 5
3 4317 14
3 4318 23
3 4319 17
3 4320 22
3 4321 14
3 4322 17
3 4323 7
3 4324 16
3 4325 15
3 4326 14
3 4327 25
3 4328 19
3 4329 6
3 4330 56
3 4331 12
3 4332 61
3 4333 17
3 4334 17
3 4335 77
3 4336 18
3 4337 13
3 4338 86
3 4339 44
3 4340 8
3 4341 67
3 4342 78
3 4343 18
3 4344 20
3 4345 14
3 4346 73
3 4347 51
3 4348 14
3 4349 83
3 4350 1
3 4351 141
3 4352 16
3 4353 13
3 4354 73
3 4355 18
3 4356 12
3 4357 2
3 4358 93
3 4359 19
3 4360 7
3 4361 9
3 4362 23
3 4363 30
3 4364 14
3 4365 13
3 4366 56
3 4367 11
3 4368 10
3 4369 18
3 4370 15
3 4371 28
3 4372 19
3 4373 26
3 4374 9
3 4375 14
3 4376 27
3 4377 21
3 4379 59
3 4380 9
3 4381 11
3 4382 30
3 4383 14
3 4384 9
3 4385 17
3 4386 3
3 4387 21
3 4388 11
3 4389 8
3 4390 12
3 4391 16
3 4392 18
3 4393 15
3 4394 20
3 4395 10
3 4396 45
3 4397 13
3 4398 9
3 4399 18
3 4400 25
3 4401 10
3 4402 9
3 4403 1
3 4404 15
3 4405 4
3 4406 26
3 4407 18
3 4408 16
3 4409 18
3 4410 195
3 4411 140
3 4412 34
3 4413 94
3 4414 15
3 4415 11
3 4416 9
3 4417 3
3 4418 14
3 4419 88
3 4420 9
3 4421 16
3 4422 16
3 4423 11
3 4424 30
3 4425 5
3 4426 14
3 4427 14
3 4428 19
3 4429 13
3 4430 22
3 4431 90
3 4432 23
3 4433 28
3 4434 9
3 4435 17
3 4436 15
3 4437 23
3 4438 20
3 4439 11
3 4440 31
3 4441 37
3 4442 21
3 4443 61
3 4444 13
3 4445 11
3 4446 18
3 4447 11
3 4448 11
3 4449 17
3 4450 9
3 4451 8
3 4452 15
3 4453 15
3 4454 9
3 4455 4
3 4456 83
3 4457 17
3 4458 18
3 4459 25
3 4460 15
3 4461 56
3 4462 17
3 4463 104
3 4464 24
3 4465 14
3 4466 11
3 4467 59
3 4468 5
3 4469 12
3 4470 5
3 4471 110
3 4472 7
3 4473 8
3 4474 14
3 4475 40
3 4476 17
3 4477 29
3 4478 19
3 4479 43
3 4480 11
3 4481 16
3 4482 18
3 4483 35
3 4484 16
3 4485 214
3 4486 10
3 4487 20
3 4488 180
3 4489 15
3 4490 11
3 4491 13
3 4492 7
3 4493 99
3 4494 61
3 4495 122
3 4496 44
3 4497 278
3 4498 11
3 4499 15
3 4500 55
3 4501 3
3 4502 67
3 4503 14
3 4504 19
3 4505 10
3 4506 58
3 4507 28
3 4508 24
3 4509 67
3 4510 40
3 4511 73
3 4512 14
3 4513 74
3 4514 77
3 4515 45
3 4516 12
3 4517 21
3 4518 64
3 4519 15
3 4520 7
3 4521 86
3 4522 57
3 4523 464
3 4524 18
3 4525 10
3 4526 80
3 4527 11
3 4528 16
3 4529 43
3 4530 15
3 4531 16
3 4532 81
3 4533 90
3 4534 48
3 4535 13
3 4536 12
3 4537 21
3 4538 32
3 4539 15
3 4540 17
3 4541 52
3 4542 43
3 4543 12
3 4544 67
3 4545 85
3 4546 17
3 4547 115
3 4548 18
3 4549 28
3 4550 40
3 4551 6
3 4552 20
3 4553 17
3 4554 16
3 4555 14
3 4556 106
3 4557 7
3 4558 14
3 4559 31
3 4560 23
3 4561 15
3 4562 9
3 4563 82
3 4564 14
3 4565 17
3 4566 6
3 4567 10
3 4568 20
3 4569 11
3 4570 16
3 4571 29
3 4572 17
3 4573 15
3 4574 12
3 4575 5
3 4576 14
3 4577 14
3 4578 21
3 4579 55
3 4580 24
3 4581 11
3 4582 7
3 4583 18
3 4584 79
3 4585 10
3 4586 7
3 4587 19
3 4588 12
3 4589 7
3 4590 8
3 4591 7
3 4592 15
3 4593 2
3 4594 13
3 4595 10
3 4596 4
3 4597 12
3 4598 181
3 4599 159
3 4600 174
3 4601 7
3 4602 87
3 4603 22
3 4604 15
3 4605 8
3 4606 18
3 4607 68
3 4608 134
3 4609 8
3 4610 172
3 4611 38
3 4612 18
3 4613 27
3 4614 9
3 4615 9
3 4616 25
3 4617 35
3 4618 11
3 4619 102
3 4620 25
3 4621 128
3 4622 29
3 4623 3
3 4624 1
3 4625 63
3 4626 17
3 4627 47
3 4628 23
3 4629 18
3 4630 7
3 4631 11
3 4632 24
3 4633 1
3 4634 22
3 4635 20
3 4636 53
3 4637 14
3 4638 44
3 4639 8
3 4640 13
3 4641 16
3 4642 33
3 4643 118
3 4644 22
3 4645 17
3 4646 16
3 4647 29
3 4648 133
3 4649 11
3 4650 9
3 4651 8
3 4652 1
3 4653 6
3 4654 502
3 4655 57
3 4656 4
3 4657 1
3 4658 28
3 4659 15
3 4660 15
3 4661 14
3 4662 22
3 4663 23
3 4664 57
3 4665 6
3 4666 26
3 4667 12
3 4668 45
3 4669 175
3 4670 70
3 4671 17
3 4672 21
3 4673 18
3 4674 10
3 4675 16
3 4676 12
3 4677 70
3 4678 16
3 4679 11
3 4680 14
3 4681 43
3 4682 17
3 4683 52
3 4684 24
3 4685 56
3 4686 86
3 4687 14
3 4688 72
3 4689 27
3 4690 61
3 4691 11
3 4692 55
3 4693 8
3 4694 9
3 4695 131
3 4696 22
3 4697 23
3 4698 13
3 4699 10
3 4700 9
3 4701 10
3 4702 22
3 4703 10
3 4704 54
3 4705 52
3 4706 46
3 4707 10
3 4708 14
3 4709 8
3 4710 20
3 4711 87
3 4712 19
3 4713 21
3 4714 15
3 4715 25
3 4716 27
3 4717 20
3 4718 6
3 4719 129
3 4720 19
3 4721 107
3 4722 21
3 4723 13
3 4724 13
3 4725 14
3 4726 97
3 4727 52
3 4728 11
3 4729 20
3 4730 5
3 4731 15
3 4732 37
3 4733 18
3 4734 19
3 4735 55
3 4736 30
3 4737 26
3 4738 31
3 4739 8
3 4740 21
3 4741 15
3 4742 25
3 4743 14
3 4744 8
3 4745 109
3 4746 19
3 4747 24
3 4748 12
3 4749 145
3 4750 5
3 4751 32
3 4752 92
3 4753 18
3 4754 18
3 4755 15
3 4756 63
3 4757 22
3 4758 56
3 4759 28
3 4760 8
3 4761 19
3 4762 5
3 4763 23
3 4764 49
3 4765 24
3 4766 45
3 4767 7
3 4768 12
3 4769 87
3 4770 12
3 4771 12
3 4772 91
3 4773 18
3 4774 22
3 4775 12
3 4776 65
3 4777 10
3 4778 21
3 4779 15
3 4780 24
3 4781 22
3 4782 19
3 4783 16
3 4784 18
3 4785 30
3 4786 70
3 4787 17
3 4788 8
3 4789 8
3 4790 9
3 4791 50
3 4792 12
3 4793 13
3 4794 8
3 4795 16
3 4796 8
3 4797 28
3 4798 10
3 4799 11
3 4800 7
3 4801 287
3 4802 15
3 4803 17
3 4804 4
3 4805 103
3 4806 52
3 4807 16
3 4808 12
3 4809 54
3 4810 9
3 4811 46
3 4812 40
3 4813 52
3 4814 22
3 4815 14
3 4816 111
3 4817 16
3 4818 95
3 4819 9
3 4820 30
3 4821 16
3 4822 100
3 4823 22
3 4824 23
3 4825 83
3 4826 11
3 4827 9
3 4828 12
3 4829 7
3 4830 13
3 4831 13
3 4832 47
3 4833 9
3 4834 66
3 4835 15
3 4836 11
3 4837 24
3 4838 25
3 4839 52
3 4840 42
3 4841 71
3 4842 34
3 4843 12
3 4844 10
3 4845 8
3 4846 29
3 4847 21
3 4848 18
3 4849 12
3 4850 18
3 4851 77
3 4852 511
3 4853 9
3 4854 11
3 4855 9
3 4856 11
3 4857 6
3 4858 14
3 4859 16
3 4860 14
3 4861 16
3 4862 18
3 4863 11
3 4864 11
3 4865 15
3 4866 20
3 4867 18
3 4868 12
3 4869 10
3 4870 16
3 4871 8
3 4872 95
3 4873 9
3 4874 42
3 4875 153
3 4876 18
3 4877 59
3 4878 20
3 4879 16
3 4880 45
3 4881 11
3 4882 14
3 4883 63
3 4884 19
3 4885 6
3 4886 12
3 4887 9
3 4888 22
3 4889 10
3 4890 12
3 4891 85
3 4892 20
3 4893 21
3 4894 13
3 4895 21
3 4896 29
3 4897 11
3 4898 85
3 4899 63
3 4900 5
3 4901 31
3 4902 17
3 4903 21
3 4904 9
3 4905 20
3 4906 111
3 4907 138
3 4908 7
3 4909 13
3 4910 69
3 4911 16
3 4912 9
3 4913 6
3 4914 14
3 4915 9
3 4916 24
3 4917 52
3 4918 9
3 4919 34
3 4920 6
3 4921 12
3 4922 12
3 4923 20
3 4924 16
3 4925 16
3 4926 9
3 4927 14
3 4928 25
3 4929 16
3 4930 138
3 4931 2
3 4932 75
3 4934 20
3 4935 90
3 4936 39
3 4937 24
3 4938 15
3 4939 19
3 4940 66
3 4941 24
3 4942 89
3 4943 12
3 4944 16
3 4945 139
3 4946 10
3 4947 14
3 4948 21
3 4949 28
3 4950 12
3 4951 11
3 4952 13
3 4953 6
3 4954 8
3 4955 15
3 4956 34
3 4957 14
3 4958 30
3 4959 27
3 4960 25
3 4961 7
3 4962 11
3 4963 13
3 4964 75
3 4965 33
3 4966 40
3 4967 11
3 4968 8
3 4969 57
3 4970 68
3 4971 12
3 4972 24
3 4973 14
3 4974 6
3 4975 15
3 4976 52
3 4977 11
3 4978 13
3 4979 54
3 4980 12
3 4981 67
3 4982 26
3 4983 8
3 4984 80
3 4985 20
3 4986 17
3 4987 8
3 4988 7
3 4989 18
3 4990 8
3 4991 12
3 4992 9
3 4993 16
3 4994 178
3 4995 11
3 4996 49
3 4997 94
3 4998 19
3 4999 241
3 5000 13
3 5001 58
3 5002 75
3 5003 15
3 5004 110
3 5005 15
3 5006 15
3 5007 7
3 5008 14
3 5009 47
3 5010 74
3 5011 16
3 5012 28
3 5013 17
3 5014 37
3 5015 12
3 5016 28
3 5017 17
3 5018 6
3 5019 6
3 5020 39
3 5021 8
3 5022 7
3 5023 10
3 5024 23
3 5025 7
3 5026 8
3 5027 27
3 5028 10
3 5029 20
3 5030 17
3 5031 78
3 5032 36
3 5033 21
3 5034 130
3 5035 42
3 5036 37
3 5037 54
3 5038 14
3 5039 9
3 5040 14
3 5041 104
3 5042 16
3 5043 12
3 5044 25
3 5045 6
3 5046 6
3 5047 12
3 5048 12
3 5049 22
3 5050 81
3 5051 18
3 5052 6
3 5053 189
3 5054 27
3 5055 14
3 5056 14
3 5057 15
3 5058 33
3 5059 10
3 5060 20
3 5061 23
3 5062 31
3 5063 11
3 5064 13
3 5065 26
3 5066 45
3 5067 14
3 5068 12
3 5069 15
3 5070 26
3 5071 45
3 5072 76
3 5073 11
3 5074 5
3 5075 2
3 5076 83
3 5077 15
3 5078 8
3 5079 11
3 5080 10
3 5081 4
3 5082 36
3 5083 51
3 5084 99
3 5085 12
3 5086 13
3 5087 9
3 5088 48
3 5089 96
3 5090 10
3 5091 12
3 5092 28
3 5093 47
3 5094 1061
3 5095 7
3 5096 88
3 5097 9
3 5098 37
3 5099 33
3 5100 63
3 5101 81
3 5102 12
3 5103 11
3 5104 29
3 5105 18
3 5106 44
3 5107 13
3 5108 167
3 5109 7
3 5110 15
3 5111 79
3 5112 14
3 5113 6
3 5114 164
3 5115 61
3 5116 9
3 5117 239
3 5118 15
3 5119 5
3 5120 100
3 5121 21
3 5122 20
3 5123 22
3 5124 80
3 5125 13
3 5126 26
3 5127 16
3 5128 67
3 5129 11
3 5130 8
3 5131 30
3 5132 13
3 5133 72
3 5134 10
3 5135 11
3 5136 14
3 5137 8
3 5138 11
3 5139 9
3 5140 9
3 5141 11
3 5142 42
3 5143 22
3 5144 60
3 5145 9
3 5146 116
3 5147 55
3 5148 110
3 5149 47
3 5150 14
3 5151 14
3 5152 79
3 5153 26
3 5154 26
3 5155 26
3 5156 9
3 5157 10
3 5158 21
3 5159 10
3 5160 70
3 5161 22
3 5162 39
3 5163 13
3 5164 49
3 5165 13
3 5166 7
3 5167 25
3 5168 29
3 5169 12
3 5170 19
3 5171 50
3 5172 8
3 5173 9
3 5174 21
3 5175 24
3 5176 19
3 5177 11
3 5178 81
3 5179 18
3 5180 104
3 5181 20
3 5182 26
3 5183 8
3 5184 18
3 5185 83
3 5186 22
3 5187 26
3 5188 9
3 5189 19
3 5190 27
3 5191 22
3 5192 11
3 5193 19
3 5194 11
3 5195 15
3 5196 13
3 5197 16
3 5198 12
3 5199 13
3 5200 10
3 5201 12
3 5202 14
3 5203 37
3 5204 15
3 5205 7
3 5206 43
3 5207 13
3 5208 6
3 5209 18
3 5210 21
3 5211 29
3 5212 13
3 5213 7
3 5214 22
3 5215 106
3 5216 7
3 5217 27
3 5218 55
3 5219 22
3 5220 22
3 5221 31
3 5222 14
3 5223 17
3 5224 8
3 5225 14
3 5226 15
3 5227 1041
3 5228 15
3 5229 11
3 5230 18
3 5231 198
3 5232 17
3 5233 60
3 5234 12
3 5235 10
3 5236 16
3 5237 17
3 5238 4
3 5239 19
3 5240 14
3 5241 59
3 5242 14
3 5243 13
3 5244 7
3 5245 9
3 5246 6
3 5247 33
3 5248 41
3 5249 9
3 5250 42
3 5251 8
3 5252 42
3 5253 55
3 5254 9
3 5255 15
3 5256 17
3 5257 21
3 5258 15
3 5259 7
3 5260 14
3 5261 11
3 5262 14
3 5263 7
3 5264 976
3 5265 52
3 5266 30
3 5267 36
3 5268 11
3 5269 26
3 5270 78
3 5271 15
3 5272 13
3 5273 11
3 5274 13
3 5275 15
3 5276 56
3 5277 44
3 5278 8
3 5279 10
3 5280 80
3 5281 50
3 5282 8
3 5283 10
3 5284 22
3 5285 91
3 5286 11
3 5287 10
3 5288 17
3 5289 91
3 5290 17
3 5291 7
3 5292 16
3 5293 150
3 5294 19
3 5295 24
3 5296 287
3 5297 8
3 5298 18
3 5299 13
3 5300 39
3 5301 11
3 5302 16
3 5303 58
3 5304 9
3 5305 14
3 5306 18
3 5307 14
3 5308 18
3 5309 11
3 5310 11
3 5311 81
3 5312 28
3 5313 6
3 5314 12
3 5315 14
3 5316 10
3 5317 228
3 5318 20
3 5319 15
3 5320 8
3 5321 19
3 5322 57
3 5323 1077
3 5324 42
3 5325 1164
3 5326 17
3 5327 11
3 5328 8
3 5329 53
3 5330 21
3 5331 5
3 5332 149
3 5333 42
3 5334 15
3 5335 13
3 5336 12
3 5337 8
3 5338 18
3 5339 41
3 5340 18
3 5341 26
3 5342 19
3 5343 16
3 5344 67
3 5345 12
3 5346 16
3 5347 14
3 5348 23
3 5349 19
3 5350 23
3 5351 49
3 5352 48
3 5353 29
3 5354 14
3 5355 11
3 5356 22
3 5357 75
3 5358 37
3 5359 17
3 5360 40
3 5361 18
3 5362 16
3 5363 19
3 5364 7
3 5365 92
3 5366 96
3 5367 9
3 5368 11
3 5369 12
3 5370 12
3 5371 91
3 5372 15
3 5373 68
3 5374 12
3 5375 9
3 5376 137
3 5377 77
3 5378 10
3 5379 19
3 5380 68
3 5381 11
3 5382 25
3 5383 33
3 5384 11
3 5385 36
3 5386 13
3 5387 154
3 5388 10
3 5389 13
3 5390 10
3 5391 15
3 5392 58
3 5393 32
3 5394 71
3 5395 9
3 5396 45
3 5397 16
3 5398 7
3 5399 1104
3 5400 50
3 5401 9
3 5402 9
3 5403 14
3 5404 12
3 5405 13
3 5406 14
3 5407 8
3 5408 26
3 5409 10
3 5410 19
3 5411 10
3 5412 10
3 5413 68
3 5414 31
3 5415 58
3 5416 12
3 5417 18
3 5418 16
3 5419 177
3 5420 10
3 5421 12
3 5422 90
3 5423 7
3 5424 17
3 5425 8
3 5426 16
3 5427 73
3 5428 11
3 5429 39
3 5430 15
3 5431 68
3 5432 73
3 5433 153
3 5434 11
3 5435 14
3 5436 16
3 5437 9
3 5438 19
3 5439 45
3 5440 17
3 5441 14
3 5442 11
3 5443 41
3 5444 22
3 5445 70
3 5446 96
3 5447 14
3 5448 9
3 5449 34
3 5450 68
3 5451 16
3 5452 100
3 5453 18
3 5454 15
3 5455 12
3 5456 10
3 5457 21
3 5458 8
3 5459 21
3 5460 10
3 5461 279
3 5462 14
3 5463 90
3 5464 9
3 5465 18
3 5466 10
3 5467 13
3 5468 10
3 5469 124
3 5470 59
3 5471 21
3 5472 15
3 5473 23
3 5474 31
3 5475 48
3 5476 13
3 5477 16
3 5478 4
3 5479 10
3 5480 10
3 5481 8
3 5482 14
3 5483 98
3 5484 13
3 5485 65
3 5486 6
3 5487 5
3 5488 17
3 5489 20
3 5490 57
3 5491 3
3 5492 15
3 5493 18
3 5494 22
3 5495 14
3 5496 22
3 5497 203
3 5498 145
3 5499 15
3 5500 75
3 5501 10
3 5502 223
3 5503 10
3 5504 12
3 5505 11
3 5506 14
3 5507 33
3 5508 28
3 5509 15
3 5510 19
3 5511 53
3 5512 62
3 5513 18
3 5514 45
3 5515 53
3 5516 7
3 5517 18
3 5518 8
3 5519 10
3 5520 12
3 5521 174
3 5522 17
3 5523 72
3 5524 11
3 5525 9
3 5526 12
3 5527 167
3 5528 13
3 5529 13
3 5530 11
3 5531 37
3 5532 16
3 5533 73
3 5534 7
3 5535 12
3 5536 8
3 5537 5
3 5538 11
3 5539 9
3 5540 14
3 5541 5
3 5542 11
3 5543 15
3 5544 34
3 5545 3
3 5546 30
3 5547 21
3 5548 87
3 5549 12
3 5550 58
3 5551 80
3 5552 4
3 5553 5
3 5554 5
3 5555 4
3 5556 13
3 5557 61
3 5558 15
3 5559 65
3 5560 16
3 5561 84
3 5562 52
3 5563 14
3 5564 13
3 5565 3
3 5566 6
3 5567 4
3 5568 41
3 5569 7
3 5570 54
3 5571 15
3 5572 148
3 5573 7
3 5574 12
3 5575 8
3 5576 12
3 5577 1161
3 5578 68
3 5579 6
3 5580 18
3 5581 19
3 5582 12
3 5583 15
3 5584 18
3 5585 27
3 5586 69
3 5587 27
3 5588 12
3 5589 12
3 5590 14
3 5591 35
3 5592 107
3 5593 25
3 5594 11
3 5595 14
3 5596 8
3 5597 20
3 5598 21
3 5599 20
3 5600 28
3 5601 4
3 5602 11
3 5603 39
3 5604 42
3 5605 24
3 5606 17
3 5607 14
3 5608 20
3 5609 6
3 5610 16
3 5611 14
3 5612 111
3 5613 100
3 5614 10
3 5615 16
3 5616 15
3 5617 13
3 5618 40
3 5619 6
3 5620 17
3 5621 3
3 5622 23
3 5623 22
3 5624 16
3 5625 6
3 5626 6
3 5627 17
3 5628 19
3 5629 8
3 5630 16
3 5631 17
3 5632 17
3 5633 13
3 5634 168
3 5635 21
3 5636 9
3 5637 109
3 5638 17
3 5639 57
3 5640 9
3 5641 4
3 5642 7
3 5643 17
3 5644 13
3 5645 100
3 5646 71
3 5647 74
3 5648 95
3 5649 7
3 5650 55
3 5651 22
3 5652 9
3 5653 47
3 5654 19
3 5655 11
3 5656 25
3 5657 121
3 5658 4
3 5659 12
3 5660 9
3 5661 10
3 5662 17
3 5663 49
3 5664 7
3 5665 42
3 5666 19
3 5667 17
3 5668 32
3 5669 130
3 5670 3
3 5671 71
3 5672 90
3 5673 22
3 5674 13
3 5675 44
3 5676 42
3 5677 10
3 5678 15
3 5679 12
3 5680 13
3 5681 11
3 5682 10
3 5683 10
3 5684 21
3 5685 13
3 5686 11
3 5687 24
3 5688 8
3 5689 6
3 5690 11
3 5691 17
3 5692 7
3 5693 35
3 5694 1030
3 5695 13
3 5696 30
3 5697 9
3 5698 28
3 5699 13
3 5700 1
3 5701 17
3 5702 42
3 5703 8
3 5704 13
3 5705 26
3 5706 20
3 5707 523
3 5708 19
3 5709 10
3 5710 13
3 5711 10
3 5712 5
3 5713 19
3 5714 163
3 5715 9
3 5716 61
3 5717 5
3 5718 7
3 5719 17
3 5720 14
3 5721 10
3 5722 11
3 5723 14
3 5724 4
3 5725 51
3 5726 79
3 5727 201
3 5728 11
3 5729 7
3 5730 5
3 5731 12
3 5732 11
3 5733 16
3 5734 12
3 5735 6
3 5736 15
3 5737 34
3 5738 13
3 5739 9
3 5740 15
3 5741 57
3 5742 5
3 5743 71
3 5744 53
3 5745 9
3 5746 7
3 5747 7
3 5748 18
3 5749 25
3 5750 11
3 5751 18
3 5752 54
3 5753 77
3 5754 26
3 5755 14
3 5756 24
3 5757 9
3 5758 4
3 5759 16
3 5760 7
3 5761 10
3 5762 14
3 5763 91
3 5764 6
3 5765 13
3 5766 11
3 5767 157
3 5768 6
3 5769 10
3 5770 50
3 5771 55
3 5772 68
3 5773 46
3 5774 3
3 5775 68
3 5776 20
3 5777 12
3 5778 50
3 5779 21
3 5780 66
3 5781 3
3 5782 6
3 5783 7
3 5784 8
3 5785 177
3 5786 9
3 5787 6
3 5788 5
3 5789 4
3 5790 7
3 5791 17
3 5792 35
3 5793 56
3 5794 5
3 5795 15
3 5796 6
3 5797 5
3 5798 7
3 5799 66
3 5800 15
3 5801 2
3 5802 41
3 5803 60
3 5804 8
3 5805 5
3 5806 4
3 5807 11
3 5808 30
3 5809 8
3 5810 8
3 5811 100
3 5812 13
3 5813 8
3 5814 13
3 5815 12
3 5816 11
3 5817 8
3 5818 6
3 5819 16
3 5820 10
3 5821 93
3 5822 12
3 5823 22
3 5824 7
3 5825 19
3 5826 7
3 5827 8
3 5828 8
3 5829 39
3 5830 3
3 5831 39
3 5832 41
3 5833 6
3 5834 11
3 5835 17
3 5836 10
3 5837 627
3 5838 16
3 5839 21
3 5840 9
3 5841 13
3 5842 58
3 5843 9
3 5844 22
3 5845 18
3 5846 16
3 5847 9
3 5848 35
3 5849 44
3 5850 21
3 5851 14
3 5852 16
3 5853 1158
3 5854 102
3 5855 36
3 5856 11
3 5857 88
3 5858 38
3 5859 21
3 5860 65
3 5861 17
3 5862 21
3 5863 4
3 5864 11
3 5865 18
3 5866 32
3 5867 77
3 5868 25
3 5869 28
3 5870 69
3 5871 16
3 5872 76
3 5873 7
3 5874 51
3 5875 23
3 5876 10
3 5877 22
3 5878 21
3 5879 12
3 5880 9
3 5881 150
3 5882 14
3 5883 72
3 5884 16
3 5885 4
3 5886 17
3 5887 100
3 5888 15
3 5889 51
3 5890 320
3 5891 39
3 5892 109
3 5893 32
3 5894 36
3 5895 4
3 5896 44
3 5897 18
3 5898 1151
3 5899 15
3 5900 31
3 5901 7
3 5902 11
3 5903 10
3 5904 56
3 5905 19
3 5906 25
3 5907 19
3 5908 14
3 5909 16
3 5910 11
3 5911 11
3 5912 159
3 5913 54
3 5914 21
3 5915 30
3 5916 20
3 5917 5
3 5918 5
3 5919 11
3 5920 6
3 5921 63
3 5922 21
3 5923 13
3 5924 5
3 5925 17
3 5926 7
3 5927 69
3 5928 15
3 5929 30
3 5930 6
3 5931 10
3 5932 44
3 5933 60
3 5934 6
3 5935 48
3 5936 6
3 5937 85
3 5938 41
3 5939 10
3 5940 11
3 5941 16
3 5942 18
3 5943 18
3 5944 47
3 5945 13
3 5946 98
3 5947 9
3 5948 22
3 5949 4
3 5950 63
3 5951 8
3 5952 12
3 5953 12
3 5954 13
3 5955 9
3 5956 4
3 5957 11
3 5958 15
3 5959 6
3 5960 47
3 5961 9
3 5962 18
3 5963 25
3 5964 58
3 5965 60
3 5966 14
3 5967 22
3 5968 20
3 5969 15
3 5970 6
3 5971 15
3 5972 15
3 5973 16
3 5974 73
3 5975 72
3 5976 7
3 5977 12
3 5978 18
3 5979 12
3 5980 51
3 5981 91
3 5982 104
3 5983 79
3 5984 79
3 5985 13
3 5986 18
3 5987 22
3 5988 66
3 5989 55
3 5990 23
3 5991 16
3 5992 16
3 5993 12
3 5994 76
3 5995 70
3 5996 26
3 5997 16
3 5998 15
3 5999 6
3 6000 6
3 6001 13
3 6002 9
3 6003 34
3 6004 5
3 6005 11
3 6006 20
3 6007 42
3 6008 18
3 6009 7
3 6010 103
3 6011 9
3 6012 42
3 6013 17
3 6014 45
3 6015 7
3 6016 12
3 6017 9
3 6018 55
3 6019 8
3 6020 13
3 6021 113
3 6022 10
3 6023 12
3 6024 23
3 6025 73
3 6026 169
3 6027 23
3 6028 10
3 6029 17
3 6030 38
3 6031 6
3 6032 11
3 6033 8
3 6034 59
3 6035 18
3 6036 11
3 6037 51
3 6038 60
3 6039 8
3 6040 11
3 6041 11
3 6042 9
3 6043 18
3 6044 8
3 6045 15
3 6046 4
3 6047 35
3 6048 20
3 6049 11
3 6050 14
3 6051 20
3 6052 17
3 6053 62
3 6054 41
3 6055 15
3 6056 24
3 6057 42
3 6058 67
3 6059 44
3 6060 37
3 6061 13
3 6062 15
3 6063 18
3 6064 8
3 6065 17
3 6066 16
3 6067 68
3 6068 73
3 6069 14
3 6070 8
3 6071 12
3 6072 6
3 6073 58
3 6074 14
3 6075 10
3 6076 7
3 6077 18
3 6078 29
3 6079 9
3 6080 20
3 6081 78
3 6082 103
3 6083 21
3 6084 20
3 6085 20
3 6086 16
3 6087 11
3 6088 11
3 6089 26
3 6090 13
3 6091 63
3 6092 12
3 6093 147
3 6094 77
3 6095 35
3 6096 7
3 6097 12
3 6098 65
3 6099 28
3 6100 14
3 6101 773
3 6102 108
3 6103 7
3 6104 18
3 6105 9
3 6106 21
3 6107 14
3 6108 49
3 6109 16
3 6110 16
3 6111 11
3 6112 13
3 6113 29
3 6114 10
3 6115 38
3 6116 8
3 6117 24
3 6118 5
3 6119 98
3 6120 103
3 6121 5
3 6122 12
3 6123 21
3 6124 21
3 6125 31
3 6126 16
3 6127 2
3 6128 12
3 6129 14
3 6130 16
3 6131 6
3 6132 91
3 6133 22
3 6134 10
3 6135 9
3 6136 18
3 6137 9
3 6138 58
3 6139 12
3 6140 16
3 6141 82
3 6142 17
3 6143 59
3 6144 16
3 6145 18
3 6146 38
3 6147 10
3 6148 12
3 6149 6
3 6150 16
3 6151 28
3 6152 11
3 6153 20
3 6154 48
3 6155 19
3 6156 106
3 6157 12
3 6158 7
3 6159 15
3 6160 90
3 6161 81
3 6162 14
3 6163 3
3 6164 11
3 6165 25
3 6166 27
3 6167 21
3 6168 19
3 6169 6
3 6170 14
3 6171 58
3 6172 15
3 6173 18
3 6174 31
3 6175 8
3 6176 20
3 6177 11
3 6178 14
3 6179 17
3 6180 8
3 6181 49
3 6182 17
3 6183 12
3 6184 18
3 6185 3
3 6186 9
3 6187 113
3 6188 13
3 6189 13
3 6190 5
3 6191 23
3 6192 34
3 6193 42
3 6194 5
3 6195 72
3 6196 37
3 6197 19
3 6198 90
3 6199 17
3 6200 67
3 6201 13
3 6202 19
3 6203 17
3 6204 8
3 6205 17
3 6206 11
3 6207 19
3 6208 16
3 6209 63
3 6210 71
3 6211 17
3 6212 16
3 6213 59
3 6214 13
3 6215 11
3 6216 15
3 6217 2
3 6218 46
3 6219 9
3 6220 6
3 6221 17
3 6222 11
3 6223 7
3 6224 25
3 6225 17
3 6226 13
3 6227 19
3 6228 15
3 6229 88
3 6230 85
3 6231 16
3 6232 19
3 6233 73
3 6234 49
3 6235 9
3 6236 34
3 6237 54
3 6238 14
3 6239 12
3 6240 10
3 6241 8
3 6242 21
3 6243 17
3 6244 9
3 6245 14
3 6246 49
3 6247 195
3 6248 11
3 6249 76
3 6250 70
3 6251 12
3 6252 22
3 6253 15
3 6254 135
3 6255 12
3 6256 9
3 6257 20
3 6258 15
3 6259 974
3 6260 9
3 6261 94
3 6262 15
3 6263 28
3 6264 618
3 6265 7
3 6266 8
3 6267 14
3 6268 6
3 6269 19
3 6270 13
3 6271 1199
3 6272 12
3 6273 17
3 6274 8
3 6275 8
3 6276 14
3 6277 43
3 6278 8
3 6279 15
3 6280 12
3 6281 13
3 6282 17
3 6283 14
3 6284 13
3 6285 25
3 6286 90
3 6287 9
3 6288 17
3 6289 81
3 6290 16
3 6291 12
3 6292 59
3 6293 46
3 6294 6
3 6295 17
3 6296 83
3 6297 17
3 6298 35
3 6299 9
3 6300 59
3 6301 94
3 6302 24
3 6303 13
3 6304 138
3 6305 29
3 6306 6
3 6307 65
3 6308 27
3 6309 53
3 6310 10
3 6311 6
3 6312 7
3 6313 13
3 6314 19
3 6315 28
3 6316 8
3 6317 19
3 6318 11
3 6319 52
3 6320 37
3 6321 105
3 6322 14
3 6323 13
3 6324 14
3 6325 13
3 6326 11
3 6327 11
3 6328 6
3 6329 46
3 6330 43
3 6331 45
3 6332 5
3 6333 14
3 6334 9
3 6335 141
3 6336 110
3 6337 20
3 6338 6
3 6339 11
3 6340 8
3 6341 30
3 6342 71
3 6343 186
3 6344 16
3 6345 99
3 6346 109
3 6347 103
3 6348 24
3 6349 15
3 6350 11
3 6351 49
3 6352 7
3 6353 34
3 6354 106
3 6355 18
3 6356 9
3 6357 23
3 6358 16
3 6359 26
3 6360 257
3 6361 93
3 6362 38
3 6363 81
3 6364 41
3 6365 17
3 6366 61
3 6367 145
3 6368 13
3 6369 14
3 6370 9
3 6371 18
3 6372 9
3 6373 64
3 6374 16
3 6375 9
3 6376 10
3 6377 20
3 6378 16
3 6379 25
3 6380 23
3 6381 19
3 6382 80
3 6383 59
3 6384 21
3 6385 39
3 6386 10
3 6387 8
3 6388 85
3 6389 56
3 6390 16
3 6391 7
3 6392 6
3 6393 21
3 6394 18
3 6395 20
3 6396 13
3 6397 12
3 6398 11
3 6399 14
3 6400 74
3 6401 79
3 6402 25
3 6403 12
3 6404 13
3 6405 28
3 6406 49
3 6407 15
3 6408 156
3 6409 122
3 6410 23
3 6411 20
3 6412 12
3 6413 168
3 6414 15
3 6415 13
3 6416 8
3 6417 21
3 6418 6
3 6419 143
3 6420 14
3 6421 50
3 6422 65
3 6423 56
3 6424 9
3 6425 37
3 6426 21
3 6427 16
3 6428 6
3 6429 35
3 6430 10
3 6431 7
3 6432 13
3 6433 15
3 6434 7
3 6435 6
3 6436 64
3 6437 17
3 6438 26
3 6439 10
3 6440 69
3 6441 18
3 6442 24
3 6443 116
3 6444 18
3 6445 92
3 6446 15
3 6447 13
3 6448 7
3 6449 67
3 6450 8
3 6451 28
3 6452 10
3 6453 15
3 6454 26
3 6455 5
3 6456 116
3 6457 25
3 6458 7
3 6459 52
3 6460 14
3 6461 77
3 6462 9
3 6463 14
3 6464 24
3 6465 20
3 6466 15
3 6467 59
3 6468 29
3 6469 6
3 6470 9
3 6471 15
3 6472 11
3 6473 78
3 6474 14
3 6475 3
3 6476 47
3 6477 8
3 6479 22
3 6480 38
3 6481 7
3 6482 46
3 6483 8
3 6484 12
3 6485 12
3 6486 13
3 6487 19
3 6488 5
3 6489 17
3 6490 81
3 6491 100
3 6492 18
3 6493 16
3 6494 13
3 6495 17
3 6496 11
3 6497 20
3 6498 28
3 6499 7
3 6500 15
3 6501 14
3 6502 4
3 6503 32
3 6504 10
3 6505 133
3 6506 158
3 6507 12
3 6508 2
3 6509 144
3 6510 9
3 6511 9
3 6512 8
3 6513 20
3 6514 15
3 6515 11
3 6516 15
3 6517 6
3 6518 32
3 6519 11
3 6520 125
3 6521 41
3 6522 12
3 6523 10
3 6524 11
3 6525 8
3 6526 10
3 6527 6
3 6528 108
3 6529 7
3 6530 11
3 6531 8
3 6532 15
3 6533 46
3 6534 16
3 6535 7
3 6536 7
3 6537 13
3 6538 16
3 6539 3
3 6540 12
3 6541 11
3 6542 19
3 6543 14
3 6544 29
3 6545 21
3 6546 10
3 6547 16
3 6548 16
3 6549 17
3 6550 104
3 6551 15
3 6552 19
3 6553 16
3 6554 76
3 6555 11
3 6556 53
3 6557 72
3 6558 8
3 6559 10
3 6560 16
3 6561 10
3 6562 28
3 6563 196
3 6564 17
3 6565 18
3 6566 67
3 6567 5
3 6568 18
3 6569 74
3 6570 76
3 6571 17
3 6572 40
3 6573 45
3 6574 27
3 6575 43
3 6576 12
3 6577 9
3 6578 11
3 6579 22
3 6580 48
3 6581 12
3 6582 13
3 6583 9
3 6584 78
3 6585 381
3 6586 10
3 6587 82
3 6588 29
3 6589 19
3 6590 13
3 6591 7
3 6592 17
3 6593 11
3 6594 15
3 6595 8
3 6596 19
3 6597 14
3 6598 10
3 6599 39
3 6600 940
3 6601 10
3 6602 22
3 6603 9
3 6604 131
3 6605 22
3 6606 497
3 6607 13
3 6608 13
3 6609 10
3 6610 68
3 6611 40
3 6612 76
3 6613 14
3 6614 16
3 6615 3
3 6616 14
3 6617 11
3 6618 9
3 6619 39
3 6620 13
3 6621 23
3 6622 29
3 6623 56
3 6624 103
3 6625 31
3 6626 10
3 6627 16
3 6628 10
3 6629 12
3 6630 88
3 6631 12
3 6632 9
3 6633 117
3 6634 9
3 6635 11
3 6636 16
3 6637 26
3 6638 12
3 6639 62
3 6640 13
3 6641 61
3 6642 30
3 6643 34
3 6644 18
3 6645 12
3 6646 69
3 6647 65
3 6648 38
3 6649 24
3 6650 50
3 6651 13
3 6652 14
3 6653 11
3 6654 112
3 6655 6
3 6656 6
3 6657 11
3 6658 11
3 6659 13
3 6660 67
3 6661 9
3 6662 44
3 6663 31
3 6664 26
3 6665 9
3 6666 12
3 6667 10
3 6668 25
3 6669 11
3 6670 10
3 6671 22
3 6672 14
3 6673 14
3 6674 13
3 6675 8
3 6676 15
3 6677 26
3 6678 22
3 6679 24
3 6680 9
3 6681 14
3 6682 10
3 6683 13
3 6684 5
3 6685 11
3 6686 9
3 6687 68
3 6688 8
3 6689 108
3 6690 68
3 6691 15
3 6692 17
3 6693 16
3 6694 15
3 6695 67
3 6696 19
3 6697 7
3 6698 40
3 6699 93
3 6700 69
3 6701 78
3 6702 10
3 6703 15
3 6704 13
3 6705 108
3 6706 27
3 6707 48
3 6708 10
3 6709 7
3 6710 7
3 6711 3
3 6712 18
3 6713 27
3 6714 10
3 6715 78
3 6716 13
3 6717 17
3 6718 17
3 6719 36
3 6720 14
3 6721 11
3 6722 16
3 6723 7
3 6725 10
3 6726 11
3 6727 27
3 6728 17
3 6729 12
3 6730 47
3 6731 43
3 6732 14
3 6733 34
3 6734 10
3 6735 30
3 6736 24
3 6737 104
3 6738 5
3 6739 19
3 6740 9
3 6741 8
3 6742 36
3 6743 19
3 6744 11
3 6745 20
3 6746 34
3 6747 227
3 6748 14
3 6749 50
3 6750 9
3 6751 13
3 6752 11
3 6753 12
3 6754 18
3 6755 21
3 6756 8
3 6757 32
3 6758 14
3 6759 16
3 6760 88
3 6761 15
3 6762 50
3 6763 10
3 6764 13
3 6765 7
3 6766 12
3 6767 12
3 6768 66
3 6769 14
3 6770 10
3 6771 10
3 6772 6
3 6773 7
3 6774 117
3 6775 6
3 6776 32
3 6777 108
3 6778 11
3 6779 13
3 6780 16
3 6781 37
3 6782 21
3 6783 62
3 6784 5
3 6785 7
3 6786 13
3 6787 14
3 6788 8
3 6789 186
3 6790 4
3 6791 5
3 6792 5
3 6793 8
3 6794 5
3 6795 9
3 6796 11
3 6797 4
3 6798 17
3 6799 14
3 6800 79
3 6801 12
3 6802 11
3 6803 9
3 6804 17
3 6805 37
3 6806 65
3 6807 9
3 6808 117
3 6809 41
3 6810 13
3 6811 12
3 6812 97
3 6813 14
3 6814 3
3 6815 12
3 6816 4
3 6817 8
3 6818 22
3 6819 266
3 6820 34
3 6821 14
3 6822 15
3 6823 16
3 6824 15
3 6825 7
3 6826 43
3 6827 8
3 6828 10
3 6829 10
3 6830 31
3 6831 11
3 6832 17
3 6833 178
3 6834 112
3 6835 19
3 6836 16
3 6837 31
3 6838 12
3 6839 65
3 6840 19
3 6841 17
3 6842 20
3 6843 9
3 6844 20
3 6845 25
3 6846 14
3 6847 8
3 6848 19
3 6849 22
3 6850 10
3 6851 16
3 6852 13
3 6853 63
3 6854 41
3 6855 13
3 6856 61
3 6857 21
3 6858 15
3 6859 10
3 6860 15
3 6861 27
3 6862 65
3 6863 55
3 6864 18
3 6865 45
3 6866 9
3 6867 28
3 6868 6
3 6869 672
3 6870 73
3 6871 91
3 6872 75
3 6873 38
3 6874 8
3 6875 6
3 6876 12
3 6877 182
3 6878 10
3 6879 9
3 6880 71
3 6881 32
3 6882 13
3 6883 101
3 6884 8
3 6885 1
3 6886 94
3 6887 29
3 6888 9
3 6890 5
3 6891 38
3 6892 15
3 6893 9
3 6894 8
3 6895 14
3 6896 9
3 6897 4
3 6898 8
3 6899 23
3 6900 22
3 6901 125
3 6902 15
3 6903 5
3 6904 30
3 6905 14
3 6906 20
3 6907 22
3 6908 5
3 6909 8
3 6910 13
3 6911 23
3 6912 7
3 6913 14
3 6914 4
3 6915 19
3 6916 87
3 6917 23
3 6918 228
3 6919 25
3 6920 14
3 6921 14
3 6922 13
3 6923 50
3 6924 10
3 6925 83
3 6926 15
3 6927 13
3 6928 10
3 6929 20
3 6930 24
3 6931 11
3 6932 49
3 6933 13
3 6934 14
3 6935 8
3 6936 10
3 6937 72
3 6938 11
3 6939 11
3 6940 13
3 6941 90
3 6942 9
3 6943 134
3 6944 20
3 6945 241
3 6946 10
3 6947 34
3 6948 96
3 6949 11
3 6950 11
3 6951 9
3 6952 18
3 6953 7
3 6954 27
3 6955 9
3 6956 11
3 6957 9
3 6958 74
3 6959 12
3 6960 12
3 6961 112
3 6962 11
3 6963 14
3 6964 14
3 6965 12
3 6966 5
3 6967 15
3 6968 61
3 6969 11
3 6970 21
3 6971 29
3 6972 14
3 6973 11
3 6974 8
3 6975 51
3 6976 6
3 6977 14
3 6978 4
3 6979 16
3 6980 11
3 6981 13
3 6982 38
3 6983 13
3 6984 23
3 6985 15
3 6986 11
3 6987 53
3 6988 18
3 6989 31
3 6990 9
3 6991 63
3 6992 17
3 6993 50
3 6994 15
3 6995 14
3 6996 25
3 6997 101
3 6998 15
3 6999 5
3 7000 90
3 7001 11
3 7002 12
3 7003 18
3 7004 12
3 7005 48
3 7006 18
3 7007 34
3 7008 18
3 7009 20
3 7010 9
3 7011 76
3 7012 17
3 7013 32
3 7014 8
3 7015 137
3 7016 46
3 7017 62
3 7018 5
3 7019 14
3 7020 24
3 7021 29
3 7022 6
3 7023 16
3 7024 19
3 7025 15
3 7026 23
3 7027 9
3 7028 17
3 7029 86
3 7030 12
3 7031 21
3 7032 16
3 7033 20
3 7034 13
3 7035 15
3 7036 31
3 7037 19
3 7038 17
3 7039 14
3 7040 10
3 7041 80
3 7042 15
3 7043 154
3 7044 19
3 7045 12
3 7046 19
3 7047 11
3 7048 16
3 7049 11
3 7050 8
3 7051 20
3 7052 45
3 7053 7
3 7054 58
3 7055 25
3 7056 19
3 7057 7
3 7058 56
3 7059 10
3 7060 9
3 7061 7
3 7062 15
3 7063 1054
3 7064 16
3 7065 64
3 7066 25
3 7067 56
3 7068 10
3 7069 17
3 7070 19
3 7071 36
3 7072 8
3 7073 13
3 7074 29
3 7075 26
3 7076 16
3 7077 49
3 7078 23
3 7079 41
3 7080 19
3 7081 6
3 7082 7
3 7083 14
3 7084 16
3 7085 8
3 7086 79
3 7087 39
3 7088 17
3 7089 108
3 7090 4
3 7091 3
3 7092 36
3 7093 8
3 7094 24
3 7095 16
3 7096 7
3 7097 12
3 7098 71
3 7099 59
3 7100 15
3 7101 16
3 7102 15
3 7103 16
3 7104 202
3 7105 13
3 7106 196
3 7107 73
3 7108 6
3 7109 9
3 7110 41
3 7111 23
3 7112 20
3 7113 14
3 7114 21
3 7115 19
3 7116 22
3 7117 16
3 7118 6
3 7119 85
3 7120 116
3 7121 16
3 7122 13
3 7123 18
3 7124 77
3 7125 15
3 7126 7
3 7127 18
3 7128 17
3 7129 14
3 7130 11
3 7131 40
3 7132 82
3 7133 8
3 7134 15
3 7135 82
3 7136 42
3 7137 20
3 7138 10
3 7139 11
3 7140 9
3 7141 12
3 7142 8
3 7143 23
3 7144 90
3 7145 7
3 7146 11
3 7147 11
3 7148 18
3 7149 27
3 7150 23
3 7151 20
3 7152 16
3 7153 14
3 7154 5
3 7155 52
3 7156 89
3 7157 8
3 7158 68
3 7159 9
3 7160 31
3 7161 9
3 7162 8
3 7163 15
3 7164 11
3 7165 21
3 7166 11
3 7167 12
3 7168 40
3 7169 16
3 7170 70
3 7171 20
3 7172 135
3 7173 42
3 7174 1
3 7175 23
3 7176 14
3 7177 19
3 7178 53
3 7179 91
3 7180 10
3 7181 166
3 7182 13
3 7183 59
3 7184 14
3 7185 10
3 7186 12
3 7187 13
3 7188 8
3 7189 16
3 7190 21
3 7191 4
3 7192 22
3 7193 12
3 7194 29
3 7195 15
3 7196 11
3 7197 11
3 7198 9
3 7199 50
3 7200 14
3 7201 12
3 7202 5
3 7203 21
3 7204 42
3 7205 120
3 7206 25
3 7207 15
3 7208 8
3 7209 81
3 7210 17
3 7211 15
3 7212 17
3 7213 105
3 7214 27
3 7215 14
3 7216 20
3 7217 22
3 7218 41
3 7219 17
3 7220 58
3 7221 11
3 7222 21
3 7223 18
3 7224 16
3 7225 25
3 7226 18
3 7227 100
3 7228 9
3 7229 5
3 7230 29
3 7231 6
3 7232 13
3 7233 11
3 7234 8
3 7235 14
3 7236 16
3 7237 52
3 7238 91
3 7239 13
3 7240 15
3 7241 21
3 7242 52
3 7243 98
3 7244 39
3 7245 1209
3 7246 11
3 7247 13
3 7248 22
3 7249 18
3 7250 9
3 7251 75
3 7252 24
3 7253 10
3 7254 8
3 7255 26
3 7256 12
3 7257 24
3 7258 2
3 7259 3
3 7260 22
3 7261 1064
3 7262 17
3 7263 13
3 7264 27
3 7265 63
3 7266 17
3 7267 10
3 7268 14
3 7269 10
3 7270 16
3 7271 57
3 7272 69
3 7273 16
3 7274 4
3 7275 14
3 7276 7
3 7277 45
3 7278 15
3 7279 9
3 7280 21
3 7281 3
3 7282 7
3 7283 127
3 7284 10
3 7285 9
3 7286 3
3 7287 15
3 7288 15
3 7289 16
3 7290 16
3 7291 14
3 7292 30
3 7293 25
3 7294 19
3 7295 14
3 7296 24
3 7297 55
3 7298 12
3 7299 45
3 7300 73
3 7301 24
3 7302 20
3 7303 17
3 7304 9
3 7305 25
3 7306 546
3 7307 9
3 7308 17
3 7309 18
3 7310 10
3 7311 19
3 7312 12
3 7313 51
3 7315 19
3 7316 34
3 7317 15
3 7318 44
3 7319 10
3 7320 19
3 7321 7
3 7322 4
3 7323 8
3 7324 17
3 7325 21
3 7326 3
3 7327 29
3 7328 10
3 7329 59
3 7330 63
3 7331 9
3 7332 17
3 7333 19
3 7334 9
3 7335 9
3 7336 13
3 7337 89
3 7338 15
3 7339 8
3 7340 14
3 7341 21
3 7342 23
3 7343 67
3 7344 70
3 7345 16
3 7346 100
3 7347 13
3 7348 31
3 7349 5
3 7350 17
3 7351 23
3 7352 11
3 7353 15
3 7354 7
3 7355 183
3 7356 92
3 7357 113
3 7358 5
3 7359 18
3 7360 25
3 7361 8
3 7362 26
3 7363 12
3 7364 17
3 7365 52
3 7366 82
3 7367 82
3 7368 8
3 7369 117
3 7370 70
3 7371 73
3 7372 5
3 7373 17
3 7374 14
3 7375 51
3 7376 30
3 7377 20
3 7378 6
3 7379 12
3 7380 10
3 7381 17
3 7382 22
3 7383 64
3 7384 64
3 7385 24
3 7386 16
3 7387 59
3 7388 64
3 7389 15
3 7390 12
3 7391 44
3 7392 17
3 7393 14
3 7394 7
3 7395 23
3 7396 31
3 7397 107
3 7398 41
3 7399 23
3 7400 112
3 7401 15
3 7402 12
3 7403 12
3 7404 47
3 7405 59
3 7406 45
3 7407 87
3 7408 19
3 7409 14
3 7410 24
3 7411 8
3 7412 16
3 7413 82
3 7414 27
3 7415 16
3 7416 13
3 7417 26
3 7418 79
3 7419 16
3 7420 18
3 7421 7
3 7422 10
3 7423 38
3 7424 60
3 7425 12
3 7426 26
3 7427 14
3 7428 13
3 7429 11
3 7430 9
3 7431 61
3 7432 16
3 7433 54
3 7434 68
3 7435 24
3 7436 12
3 7437 16
3 7438 19
3 7439 18
3 7440 86
3 7441 13
3 7442 6
3 7443 89
3 7444 5
3 7445 17
3 7446 49
3 7447 49
3 7448 19
3 7449 31
3 7450 760
3 7451 108
3 7452 18
3 7453 7
3 7454 12
3 7455 73
3 7456 18
3 7457 44
3 7458 15
3 7459 15
3 7460 11
3 7461 23
3 7462 7
3 7463 36
3 7464 10
3 7465 98
3 7466 19
3 7467 21
3 7468 23
3 7469 14
3 7470 11
3 7471 51
3 7472 14
3 7473 10
3 7474 20
3 7475 7
3 7476 19
3 7477 65
3 7478 45
3 7479 4
3 7480 14
3 7481 8
3 7482 14
3 7483 19
3 7484 61
3 7485 18
3 7486 8
3 7487 13
3 7488 73
3 7489 30
3 7490 19
3 7491 7
3 7492 13
3 7493 10
3 7494 83
3 7495 29
3 7496 16
3 7497 11
3 7498 38
3 7499 79
3 7500 15
3 7501 36
3 7502 23
3 7503 12
3 7504 17
3 7505 45
3 7506 8
3 7507 11
3 7508 8
3 7509 83
3 7510 17
3 7511 19
3 7512 8
3 7513 18
3 7514 75
3 7515 166
3 7516 11
3 7517 15
3 7518 5
3 7519 9
3 7520 48
3 7521 8
3 7522 6
3 7523 9
3 7524 15
3 7525 10
3 7526 21
3 7527 81
3 7528 63
3 7529 52
3 7530 65
3 7531 7
3 7532 7
3 7533 17
3 7534 102
3 7535 17
3 7536 9
3 7537 17
3 7538 12
3 7539 32
3 7540 13
3 7541 32
3 7542 12
3 7543 56
3 7544 21
3 7545 73
3 7546 14
3 7547 11
3 7548 7
3 7549 98
3 7550 17
3 7551 22
3 7552 24
3 7553 6
3 7554 13
3 7555 13
3 7556 45
3 7557 16
3 7558 14
3 7559 8
3 7560 13
3 7561 14
3 7562 89
3 7563 11
3 7564 15
3 7565 5
3 7566 17
3 7567 13
3 7568 21
3 7569 17
3 7570 21
3 7571 13
3 7572 26
3 7573 29
3 7574 8
3 7575 14
3 7576 20
3 7577 62
3 7578 20
3 7579 24
3 7580 46
3 7581 28
3 7582 46
3 7583 14
3 7584 18
3 7585 13
3 7586 16
3 7587 16
3 7588 12
3 7589 19
3 7590 5
3 7591 42
3 7592 11
3 7593 58
3 7594 7
3 7595 15
3 7596 86
3 7597 11
3 7598 14
3 7599 365
3 7600 7
3 7601 17
3 7602 34
3 7603 75
3 7604 57
3 7605 6
3 7606 18
3 7607 11
3 7608 9
3 7609 31
3 7610 16
3 7611 14
3 7612 10
3 7613 55
3 7614 19
3 7615 9
3 7616 71
3 7617 21
3 7618 20
3 7619 8
3 7620 101
3 7621 14
3 7622 25
3 7623 55
3 7624 15
3 7625 34
3 7626 17
3 7627 7
3 7628 15
3 7629 77
3 7630 82
3 7631 15
3 7632 10
3 7633 35
3 7634 20
3 7635 8
3 7636 11
3 7637 1154
3 7638 15
3 7639 8
3 7640 29
3 7641 13
3 7642 17
3 7643 8
3 7644 12
3 7645 1174
3 7646 29
3 7647 18
3 7648 14
3 7649 14
3 7650 17
3 7651 109
3 7652 6
3 7653 26
3 7654 62
3 7655 17
3 7656 8
3 7657 26
3 7658 11
3 7659 117
3 7660 22
3 7661 41
3 7662 11
3 7663 12
3 7664 19
3 7665 14
3 7666 25
3 7667 7
3 7668 8
3 7669 63
3 7670 16
3 7671 10
3 7672 5
3 7673 75
3 7674 16
3 7675 21
3 7676 35
3 7677 5
3 7678 9
3 7679 10
3 7680 15
3 7681 8
3 7682 15
3 7683 24
3 7684 15
3 7685 16
3 7686 27
3 7687 31
3 7688 1161
3 7689 14
3 7690 14
3 7691 17
3 7692 15
3 7693 9
3 7694 9
3 7695 16
3 7696 19
3 7697 16
3 7698 46
3 7699 10
3 7700 18
3 7701 135
3 7702 15
3 7703 32
3 7704 20
3 7705 7
3 7706 10
3 7707 8
3 7708 17
3 7709 14
3 7710 8
3 7711 42
3 7712 32
3 7713 59
3 7714 8
3 7715 156
3 7716 12
3 7717 132
3 7718 13
3 7719 8
3 7720 43
3 7721 17
3 7722 12
3 7723 10
3 7724 24
3 7725 10
3 7726 118
3 7727 24
3 7728 104
3 7729 9
3 7730 6
3 7731 8
3 7732 61
3 7733 24
3 7734 73
3 7735 16
3 7736 82
3 7737 12
3 7738 25
3 7739 68
3 7740 19
3 7741 67
3 7742 15
3 7743 6
3 7744 8
3 7745 15
3 7746 46
3 7747 57
3 7748 22
3 7749 9
3 7750 11
3 7751 15
3 7752 18
3 7753 73
3 7754 32
3 7755 8
3 7756 11
3 7757 35
3 7758 59
3 7759 19
3 7760 13
3 7761 6
3 7762 57
3 7763 18
3 7764 7
3 7765 17
3 7766 15
3 7767 71
3 7768 13
3 7769 11
3 7770 17
3 7771 12
3 7772 84
3 7773 12
3 7774 91
3 7775 10
3 7776 40
3 7777 12
3 7778 15
3 7779 37
3 7780 4
3 7781 324
3 7782 15
3 7783 183
3 7784 13
3 7785 28
3 7786 33
3 7787 15
3 7788 89
3 7789 13
3 7790 178
3 7791 12
3 7792 143
3 7793 11
3 7794 15
3 7795 53
3 7796 300
3 7797 14
3 7798 8
3 7799 54
3 7800 1112
3 7801 56
3 7802 21
3 7803 9
3 7804 20
3 7805 68
3 7806 13
3 7807 13
3 7808 10
3 7809 10
3 7810 141
3 7811 21
3 7812 11
3 7813 15
3 7814 7
3 7815 14
3 7816 9
3 7817 53
3 7818 6
3 7819 27
3 7820 9
3 7821 54
3 7822 36
3 7823 44
3 7824 63
3 7825 26
3 7826 81
3 7827 62
3 7828 14
3 7829 23
3 7830 68
3 7831 20
3 7832 17
3 7833 36
3 7834 82
3 7835 18
3 7836 103
3 7837 41
3 7838 19
3 7839 9
3 7840 129
3 7841 11
3 7842 210
3 7843 115
3 7844 7
3 7845 7
3 7846 20
3 7847 99
3 7848 18
3 7849 6
3 7850 20
3 7851 13
3 7852 118
3 7853 5
3 7854 17
3 7855 11
3 7856 10
3 7857 33
3 7858 9
3 7859 67
3 7860 15
3 7861 19
3 7862 13
3 7863 13
3 7864 19
3 7865 115
3 7866 11
3 7867 15
3 7868 28
3 7869 80
3 7870 12
3 7871 7
3 7872 1084
3 7873 9
3 7874 12
3 7875 115
3 7876 23
3 7877 41
3 7878 10
3 7879 10
3 7880 8
3 7881 75
3 7882 83
3 7883 16
3 7884 9
3 7885 19
3 7886 7
3 7887 15
3 7888 111
3 7889 13
3 7890 24
3 7891 38
3 7892 14
3 7893 25
3 7894 6
3 7895 13
3 7896 118
3 7897 48
3 7898 21
3 7899 13
3 7900 16
3 7901 19
3 7902 10
3 7903 8
3 7904 16
3 7905 18
3 7906 53
3 7907 32
3 7908 261
3 7909 13
3 7910 9
3 7911 9
3 7912 98
3 7913 23
3 7914 6
3 7915 17
3 7916 12
3 7917 12
3 7918 9
3 7919 102
3 7920 16
3 7921 15
3 7922 22
3 7923 20
3 7924 11
3 7925 99
3 7926 194
3 7927 8
3 7928 12
3 7929 9
3 7930 9
3 7931 98
3 7932 18
3 7933 20
3 7934 11
3 7935 135
3 7936 99
3 7937 13
3 7938 70
3 7939 7
3 7940 16
3 7941 144
3 7942 86
3 7943 19
3 7944 14
3 7945 20
3 7946 103
3 7947 38
3 7948 24
3 7949 14
3 7950 13
3 7951 11
3 7952 19
3 7953 22
3 7954 15
3 7955 43
3 7956 3
3 7957 50
3 7958 19
3 7959 8
3 7960 8
3 7961 24
3 7962 13
3 7963 12
3 7964 104
3 7965 14
3 7966 8
3 7967 9
3 7968 11
3 7969 85
3 7970 9
3 7971 8
3 7972 67
3 7973 7
3 7974 42
3 7975 67
3 7976 8
3 7977 18
3 7978 11
3 7979 129
3 7980 18
3 7981 11
3 7982 11
3 7983 20
3 7984 47
3 7985 14
3 7986 10
3 7987 8
3 7988 12
3 7989 106
3 7990 15
3 7991 14
3 7992 17
3 7993 52
3 7994 11
3 7995 15
3 7996 13
3 7997 126
3 7998 10
3 7999 12
3 8000 121
3 8001 23
3 8002 12
3 8003 30
3 8004 8
3 8005 12
3 8006 10
3 8007 68
3 8008 3
3 8009 11
3 8010 15
3 8011 28
3 8012 162
3 8013 11
3 8014 22
3 8015 40
3 8016 15
3 8017 22
3 8018 11
3 8019 58
3 8020 45
3 8021 9
3 8022 8
3 8023 20
3 8024 12
3 8025 77
3 8026 24
3 8027 24
3 8028 9
3 8029 91
3 8030 108
3 8031 31
3 8032 52
3 8033 129
3 8034 93
3 8035 4
3 8036 118
3 8037 176
3 8038 22
3 8039 43
3 8040 16
3 8041 6
3 8042 18
3 8043 19
3 8044 10
3 8045 6
3 8046 17
3 8047 17
3 8048 32
3 8049 75
3 8050 10
3 8051 13
3 8052 15
3 8053 49
3 8054 23
3 8055 16
3 8056 9
3 8057 7
3 8058 8
3 8059 122
3 8060 18
3 8061 6
3 8062 146
3 8063 42
3 8064 34
3 8065 18
3 8066 26
3 8067 4
3 8068 24
3 8069 86
3 8070 4
3 8071 19
3 8072 14
3 8073 18
3 8074 9
3 8075 58
3 8076 2
3 8077 8
3 8078 67
3 8079 58
3 8080 14
3 8081 38
3 8082 15
3 8083 11
3 8084 11
3 8085 5
3 8086 13
3 8087 18
3 8088 25
3 8089 14
3 8090 14
3 8091 19
3 8092 58
3 8093 60
3 8094 8
3 8095 18
3 8096 107
3 8097 8
3 8098 6
3 8099 71
3 8100 52
3 8101 20
3 8102 38
3 8103 18
3 8104 7
3 8105 46
3 8106 17
3 8107 48
3 8108 75
3 8109 13
3 8110 2
3 8111 241
3 8112 12
3 8113 13
3 8114 37
3 8115 20
3 8116 8
3 8117 33
3 8118 632
3 8119 13
3 8120 19
3 8121 529
3 8122 78
3 8123 98
3 8124 8
3 8125 14
3 8126 22
3 8127 23
3 8128 16
3 8129 10
3 8130 57
3 8131 63
3 8132 15
3 8133 12
3 8134 12
3 8135 10
3 8136 54
3 8137 20
3 8138 10
3 8139 16
3 8140 13
3 8141 18
3 8142 65
3 8143 10
3 8144 8
3 8145 13
3 8146 10
3 8147 20
3 8148 24
3 8149 10
3 8150 12
3 8151 67
3 8152 14
3 8153 21
3 8154 16
3 8155 17
3 8156 68
3 8157 14
3 8158 56
3 8159 11
3 8160 49
3 8161 81
3 8162 61
3 8163 12
3 8164 11
3 8165 28
3 8166 94
3 8167 14
3 8168 20
3 8169 9
3 8170 20
3 8171 12
3 8172 16
3 8173 22
3 8174 9
3 8175 22
3 8176 8
3 8177 16
3 8178 6
3 8179 70
3 8180 31
3 8181 86
3 8182 24
3 8183 9
3 8184 212
3 8185 16
3 8186 13
3 8187 20
3 8188 18
3 8189 13
3 8190 25
3 8191 18
3 8192 40
3 8193 9
3 8194 33
3 8195 19
3 8196 18
3 8197 12
3 8198 11
3 8199 31
3 8200 20
3 8201 24
3 8202 17
3 8203 21
3 8204 242
3 8205 15
3 8206 87
3 8207 14
3 8208 12
3 8209 28
3 8210 13
3 8211 8
3 8212 48
3 8213 56
3 8214 39
3 8215 17
3 8216 88
3 8217 12
3 8218 14
3 8219 10
3 8220 15
3 8221 23
3 8222 10
3 8223 64
3 8224 83
3 8225 7
3 8226 121
3 8227 17
3 8228 43
3 8229 23
3 8230 7
3 8231 23
3 8232 39
3 8233 65
3 8234 7
3 8235 66
3 8236 18
3 8237 17
3 8238 21
3 8239 27
3 8240 20
3 8241 6
3 8242 46
3 8243 11
3 8244 12
3 8245 4
3 8246 9
3 8247 72
3 8248 34
3 8249 17
3 8250 14
3 8251 9
3 8252 17
3 8253 9
3 8254 111
3 8255 9
3 8256 57
3 8257 85
3 8258 15
3 8259 55
3 8260 8
3 8261 38
3 8262 62
3 8263 13
3 8264 12
3 8265 28
3 8266 8
3 8267 15
3 8268 9
3 8269 90
3 8270 17
3 8271 18
3 8272 15
3 8273 26
3 8274 46
3 8275 28
3 8276 17
3 8277 10
3 8278 10
3 8279 21
3 8280 10
3 8281 14
3 8282 27
3 8283 43
3 8284 12
3 8285 47
3 8286 19
3 8287 26
3 8288 89
3 8289 34
3 8290 41
3 8291 14
3 8292 14
3 8293 14
3 8294 6
3 8295 9
3 8296 29
3 8297 7
3 8298 12
3 8299 14
3 8300 25
3 8301 4
3 8302 17
3 8303 12
3 8304 1070
3 8305 21
3 8306 38
3 8307 21
3 8308 60
3 8309 5
3 8310 69
3 8311 12
3 8312 4
3 8313 65
3 8314 50
3 8315 12
3 8316 14
3 8317 11
3 8318 23
3 8319 10
3 8320 20
3 8321 64
3 8322 16
3 8323 13
3 8324 66
3 8325 8
3 8326 78
3 8327 10
3 8328 13
3 8329 12
3 8330 12
3 8331 20
3 8332 7
3 8333 8
3 8334 11
3 8335 19
3 8336 32
3 8337 17
3 8338 17
3 8339 16
3 8340 7
3 8341 8
3 8342 10
3 8343 9
3 8344 8
3 8345 1028
3 8346 12
3 8347 39
3 8348 16
3 8349 21
3 8350 13
3 8351 7
3 8352 18
3 8353 10
3 8354 13
3 8355 68
3 8356 12
3 8357 11
3 8358 92
3 8359 19
3 8360 48
3 8361 15
3 8362 9
3 8363 8
3 8364 12
3 8365 1221
3 8366 14
3 8367 4
3 8368 21
3 8369 58
3 8370 22
3 8371 15
3 8372 52
3 8373 18
3 8374 16
3 8375 28
3 8376 16
3 8377 20
3 8378 12
3 8379 7
3 8380 26
3 8381 53
3 8382 104
3 8383 99
3 8384 15
3 8385 9
3 8386 10
3 8387 38
3 8388 13
3 8389 13
3 8390 10
3 8391 12
3 8392 13
3 8393 40
3 8394 29
3 8395 7
3 8396 17
3 8397 133
3 8398 9
3 8399 15
3 8400 112
3 8401 35
3 8402 13
3 8403 17
3 8404 12
3 8405 13
3 8406 15
3 8407 18
3 8408 290
3 8409 10
3 8410 49
3 8411 11
3 8412 12
3 8413 77
3 8414 14
3 8415 101
3 8416 6
3 8417 86
3 8418 8
3 8419 3
3 8420 16
3 8421 18
3 8422 11
3 8423 7
3 8424 28
3 8425 21
3 8426 12
3 8427 11
3 8428 12
3 8429 23
3 8430 87
3 8431 46
3 8432 9
3 8433 25
3 8434 6
3 8435 15
3 8436 20
3 8437 18
3 8438 7
3 8439 16
3 8440 24
3 8441 9
3 8442 8
3 8443 8
3 8444 35
3 8445 61
3 8446 9
3 8447 42
3 8448 16
3 8449 16
3 8450 15
3 8451 8
3 8452 7
3 8453 15
3 8454 83
3 8455 42
3 8456 34
3 8457 25
3 8458 10
3 8459 28
3 8460 10
3 8461 28
3 8462 75
3 8463 94
3 8464 9
3 8465 14
3 8466 6
3 8467 43
3 8468 11
3 8469 14
3 8470 22
3 8471 25
3 8472 46
3 8473 4
3 8474 47
3 8475 52
3 8476 3
3 8477 16
3 8478 19
3 8479 16
3 8480 98
3 8481 13
3 8482 19
3 8483 1099
3 8484 10
3 8485 118
3 8486 12
3 8487 40
3 8488 87
3 8489 10
3 8490 7
3 8491 9
3 8492 6
3 8493 102
3 8494 43
3 8495 9
3 8496 34
3 8497 9
3 8498 19
3 8499 75
3 8500 51
3 8501 19
3 8502 45
3 8503 23
3 8504 289
3 8505 27
3 8506 19
3 8507 13
3 8508 65
3 8509 24
3 8510 208
3 8511 20
3 8512 13
3 8513 11
3 8514 21
3 8515 9
3 8516 136
3 8517 11
3 8518 6
3 8519 15
3 8520 56
3 8521 23
3 8522 194
3 8523 33
3 8524 15
3 8525 91
3 8526 77
3 8527 10
3 8528 12
3 8529 123
3 8530 10
3 8531 21
3 8532 8
3 8533 12
3 8534 69
3 8535 8
3 8536 27
3 8537 16
3 8538 10
3 8539 11
3 8540 19
3 8541 37
3 8542 13
3 8543 13
3 8544 5
3 8545 32
3 8546 142
3 8547 9
3 8548 25
3 8549 77
3 8550 12
3 8551 74
3 8552 11
3 8553 14
3 8554 13
3 8555 159
3 8556 25
3 8557 118
3 8558 34
3 8559 7
3 8560 15
3 8561 107
3 8562 27
3 8563 141
3 8564 109
3 8565 75
3 8566 10
3 8567 13
3 8568 10
3 8569 7
3 8570 9
3 8571 14
3 8572 14
3 8573 7
3 8574 11
3 8575 13
3 8576 16
3 8577 69
3 8578 15
3 8579 12
3 8580 31
3 8581 13
3 8582 6
3 8583 9
3 8584 692
3 8585 42
3 8586 29
3 8587 11
3 8588 8
3 8589 27
3 8590 94
3 8591 11
3 8592 89
3 8593 94
3 8594 25
3 8595 6
3 8596 34
3 8597 108
3 8598 6
3 8599 31
3 8600 15
3 8601 13
3 8602 12
3 8603 11
3 8604 21
3 8605 189
3 8606 12
3 8607 8
3 8608 12
3 8609 8
3 8610 13
3 8611 12
3 8612 82
3 8613 29
3 8614 32
3 8615 5
3 8616 22
3 8617 5
3 8618 8
3 8619 8
3 8620 15
3 8621 11
3 8622 14
3 8623 13
3 8624 11
3 8625 94
3 8626 59
3 8627 7
3 8628 163
3 8629 15
3 8630 28
3 8631 76
3 8632 12
3 8633 27
3 8634 38
3 8635 6
3 8636 9
3 8637 14
3 8638 38
3 8639 8
3 8640 154
3 8641 13
3 8642 15
3 8643 10
3 8644 58
3 8645 283
3 8646 67
3 8647 28
3 8648 85
3 8649 16
3 8650 3
3 8651 17
3 8652 4
3 8653 11
3 8654 8
3 8655 135
3 8656 26
3 8657 83
3 8658 51
3 8659 37
3 8660 13
3 8661 9
3 8662 25
3 8663 8
3 8664 12
3 8665 145
3 8666 118
3 8667 82
3 8668 8
3 8669 18
3 8670 50
3 8671 16
3 8672 19
3 8673 14
3 8674 15
3 8675 12
3 8676 7
3 8677 21
3 8678 26
3 8679 12
3 8680 9
3 8681 14
3 8682 143
3 8683 14
3 8684 20
3 8685 11
3 8686 81
3 8687 15
3 8688 28
3 8689 17
3 8690 15
3 8691 26
3 8692 12
3 8693 12
3 8694 8
3 8695 91
3 8696 11
3 8697 14
3 8698 51
3 8699 44
3 8700 9
3 8701 6
3 8702 16
3 8703 33
3 8704 17
3 8705 32
3 8706 10
3 8707 19
3 8708 9
3 8709 13
3 8710 14
3 8711 92
3 8712 15
3 8713 98
3 8714 13
3 8715 71
3 8716 51
3 8717 12
3 8718 15
3 8719 10
3 8720 13
3 8721 6
3 8722 20
3 8723 12
3 8724 25
3 8725 8
3 8726 12
3 8727 113
3 8728 24
3 8729 23
3 8730 8
3 8731 6
3 8732 21
3 8733 10
3 8734 10
3 8735 9
3 8736 120
3 8737 25
3 8738 178
3 8739 19
3 8740 21
3 8741 65
3 8742 12
3 8743 97
3 8744 20
3 8745 10
3 8746 10
3 8747 9
3 8748 10
3 8749 12
3 8750 10
3 8751 11
3 8752 19
3 8753 75
3 8754 10
3 8755 13
3 8756 25
3 8757 11
3 8758 10
3 8759 20
3 8760 80
3 8761 22
3 8762 16
3 8763 9
3 8764 26
3 8765 12
3 8766 19
3 8767 10
3 8768 49
3 8769 64
3 8770 22
3 8771 9
3 8772 20
3 8773 29
3 8774 56
3 8775 10
3 8776 39
3 8777 132
3 8778 17
3 8779 31
3 8780 25
3 8781 2
3 8782 11
3 8783 15
3 8784 32
3 8785 9
3 8786 17
3 8787 21
3 8788 10
3 8789 12
3 8790 14
3 8791 18
3 8792 5
3 8793 12
3 8794 16
3 8795 22
3 8796 18
3 8797 20
3 8798 20
3 8799 11
3 8800 11
3 8801 3
3 8802 29
3 8803 7
3 8804 5
3 8805 10
3 8806 12
3 8807 33
3 8808 12
3 8809 46
3 8810 18
3 8811 15
3 8812 445
3 8813 17
3 8814 17
3 8815 5
3 8816 10
3 8817 7
3 8818 10
3 8819 38
3 8820 12
3 8821 25
3 8822 86
3 8823 166
3 8824 30
3 8825 6
3 8826 24
3 8827 115
3 8828 19
3 8829 7
3 8830 6
3 8831 16
3 8832 28
3 8833 12
3 8834 16
3 8835 46
3 8836 74
3 8837 74
3 8838 7
3 8839 9
3 8840 4
3 8841 1071
3 8842 17
3 8843 44
3 8844 9
3 8845 4
3 8846 85
3 8847 18
3 8848 20
3 8849 1067
3 8850 56
3 8851 6
3 8852 16
3 8853 11
3 8854 15
3 8855 5
3 8856 15
3 8857 12
3 8858 6
3 8859 26
3 8860 8
3 8861 26
3 8862 9
3 8863 8
3 8864 66
3 8865 10
3 8866 8
3 8867 38
3 8868 14
3 8869 86
3 8870 15
3 8871 14
3 8872 13
3 8873 19
3 8874 45
3 8875 10
3 8876 9
3 8877 84
3 8878 101
3 8879 65
3 8880 11
3 8881 53
3 8882 12
3 8883 10
3 8884 17
3 8885 124
3 8886 9
3 8887 6
3 8888 106
3 8889 56
3 8890 52
3 8891 331
3 8892 19
3 8893 24
3 8894 17
3 8895 20
3 8896 68
3 8897 13
3 8898 15
3 8899 6
3 8900 13
3 8901 11
3 8902 43
3 8903 22
3 8904 23
3 8905 10
3 8906 73
3 8907 5
3 8908 70
3 8909 12
3 8910 12
3 8911 900
3 8912 42
3 8913 49
3 8914 14
3 8915 6
3 8916 10
3 8917 26
3 8918 62
3 8919 18
3 8920 9
3 8921 19
3 8922 24
3 8923 15
3 8924 6
3 8925 11
3 8926 10
3 8927 18
3 8928 12
3 8929 11
3 8930 4
3 8931 14
3 8932 42
3 8933 13
3 8934 22
3 8935 15
3 8936 13
3 8937 6
3 8938 14
3 8939 90
3 8940 14
3 8941 20
3 8942 10
3 8943 5
3 8944 16
3 8945 7
3 8946 8
3 8947 16
3 8948 6
3 8949 134
3 8950 9
3 8951 43
3 8952 16
3 8953 40
3 8954 16
3 8955 14
3 8956 18
3 8957 65
3 8958 282
3 8959 16
3 8960 1211
3 8961 12
3 8962 13
3 8963 13
3 8964 43
3 8965 18
3 8966 28
3 8967 14
3 8968 118
3 8969 38
3 8970 15
3 8971 11
3 8972 11
3 8973 11
3 8974 80
3 8975 19
3 8976 4
3 8977 12
3 8978 4
3 8979 60
3 8980 17
3 8981 64
3 8982 18
3 8983 5
3 8984 14
3 8985 60
3 8986 36
3 8987 11
3 8988 21
3 8989 16
3 8990 8
3 8991 15
3 8992 12
3 8993 218
3 8994 128
3 8995 24
3 8996 9
3 8997 136
3 8998 11
3 8999 67
3 9000 59
3 9001 11
3 9002 13
3 9003 43
3 9004 14
3 9005 8
3 9006 13
3 9007 7
3 9008 11
3 9009 4
3 9010 9
3 9011 8
3 9012 2
3 9013 14
3 9014 14
3 9015 16
3 9016 12
3 9017 47
3 9018 14
3 9019 9
3 9020 11
3 9021 6
3 9022 99
3 9023 13
3 9024 23
3 9025 49
3 9026 11
3 9027 30
3 9028 8
3 9029 137
3 9030 13
3 9031 27
3 9032 7
3 9033 74
3 9034 9
3 9035 9
3 9036 8
3 9037 22
3 9038 47
3 9039 87
3 9040 12
3 9041 15
3 9042 22
3 9043 11
3 9044 81
3 9045 14
3 9046 40
3 9047 8
3 9048 84
3 9049 57
3 9050 9
3 9051 14
3 9052 50
3 9053 90
3 9054 12
3 9055 16
3 9056 16
3 9057 75
3 9058 94
3 9059 9
3 9060 11
3 9061 13
3 9062 7
3 9063 44
3 9064 12
3 9065 20
3 9066 58
3 9067 11
3 9068 6
3 9069 35
3 9070 30
3 9071 16
3 9072 21
3 9073 6
3 9074 15
3 9075 15
3 9076 23
3 9077 6
3 9078 3
3 9079 13
3 9080 9
3 9081 55
3 9082 69
3 9083 8
3 9084 126
3 9085 16
3 9086 12
3 9087 12
3 9088 17
3 9089 18
3 9090 103
3 9091 19
3 9092 28
3 9093 45
3 9094 14
3 9095 8
3 9096 129
3 9097 115
3 9098 66
3 9099 1209
3 9100 6
3 9101 10
3 9102 20
3 9103 35
3 9104 9
3 9105 53
3 9106 7
3 9107 5
3 9108 19
3 9109 16
3 9110 7
3 9111 15
3 9112 282
3 9113 145
3 9114 106
3 9115 16
3 9116 21
3 9117 102
3 9118 10
3 9119 12
3 9120 6
3 9121 11
3 9122 13
3 9123 17
3 9124 8
3 9125 31
3 9126 11
3 9127 10
3 9128 13
3 9129 66
3 9130 24
3 9131 11
3 9132 7
3 9133 28
3 9134 21
3 9135 45
3 9136 57
3 9137 6
3 9138 6
3 9139 15
3 9140 13
3 9141 73
3 9142 23
3 9143 12
3 9144 25
3 9145 17
3 9146 21
3 9147 14
3 9148 13
3 9149 128
3 9150 143
3 9151 2
3 9152 7
3 9153 12
3 9154 28
3 9155 24
3 9156 18
3 9157 14
3 9158 7
3 9159 128
3 9160 8
3 9161 68
3 9162 17
3 9163 24
3 9164 17
3 9165 11
3 9166 5
3 9167 78
3 9168 5
3 9169 5
3 9170 72
3 9171 22
3 9172 18
3 9173 16
3 9174 34
3 9175 20
3 9176 10
3 9177 72
3 9178 9
3 9179 14
3 9180 16
3 9181 25
3 9182 9
3 9183 56
3 9184 49
3 9185 75
3 9186 3
3 9187 5
3 9188 16
3 9189 67
3 9190 15
3 9192 9
3 9193 103
3 9194 57
3 9195 14
3 9196 17
3 9197 6
3 9198 4
3 9199 135
3 9200 37
3 9201 8
3 9202 22
3 9203 66
3 9204 15
3 9205 58
3 9206 32
3 9207 23
3 9208 54
3 9209 77
3 9210 32
3 9211 42
3 9212 27
3 9213 23
3 9214 22
3 9215 13
3 9216 9
3 9217 35
3 9218 17
3 9219 78
3 9220 16
3 9221 16
3 9222 15
3 9223 27
3 9224 13
3 9225 40
3 9226 10
3 9227 42
3 9228 10
3 9229 19
3 9230 11
3 9231 18
3 9232 13
3 9233 13
3 9234 16
3 9235 13
3 9236 12
3 9237 13
3 9238 88
3 9239 12
3 9240 88
3 9241 14
3 9242 12
3 9244 22
3 9245 3
3 9246 15
3 9247 18
3 9248 14
3 9249 90
3 9250 45
3 9251 17
3 9252 18
3 9253 16
3 9254 4
3 9255 6
3 9256 71
3 9257 26
3 9258 104
3 9259 14
3 9260 19
3 9261 14
3 9262 23
3 9263 7
3 9264 54
3 9265 13
3 9266 16
3 9267 42
3 9268 18
3 9269 15
3 9270 47
3 9271 43
3 9272 23
3 9273 15
3 9274 11
3 9275 12
3 9276 16
3 9277 111
3 9278 13
3 9279 18
3 9280 15
3 9281 104
3 9282 145
3 9283 9
3 9284 1195
3 9285 17
3 9286 80
3 9287 6
3 9288 16
3 9289 18
3 9290 16
3 9291 12
3 9292 78
3 9293 10
3 9294 10
3 9295 13
3 9296 21
3 9297 21
3 9298 9
3 9299 19
3 9300 11
3 9301 10
3 9302 30
3 9303 7
3 9304 14
3 9305 14
3 9306 90
3 9307 15
3 9308 7
3 9309 74
3 9310 12
3 9311 26
3 9312 25
3 9313 9
3 9314 11
3 9315 68
3 9316 731
3 9317 8
3 9318 17
3 9319 18
3 9320 18
3 9321 8
3 9322 22
3 9323 9
3 9324 103
3 9325 62
3 9326 17
3 9327 19
3 9328 16
3 9329 14
3 9330 16
3 9331 148
3 9332 13
3 9333 9
3 9334 16
3 9335 81
3 9336 25
3 9337 6
3 9338 82
3 9339 10
3 9340 18
3 9341 9
3 9342 55
3 9343 13
3 9344 28
3 9345 47
3 9346 35
3 9347 15
3 9348 120
3 9349 67
3 9350 14
3 9351 19
3 9352 14
3 9353 55
3 9354 36
3 9355 5
3 9356 9
3 9357 14
3 9358 131
3 9359 21
3 9360 19
3 9361 18
3 9362 110
3 9363 19
3 9364 43
3 9365 20
3 9366 27
3 9367 8
3 9368 39
3 9369 44
3 9370 30
3 9371 28
3 9372 19
3 9373 14
3 9374 148
3 9375 10
3 9376 30
3 9377 22
3 9378 34
3 9379 19
3 9380 98
3 9381 14
3 9382 13
3 9383 35
3 9384 12
3 9385 7
3 9386 18
3 9387 3
3 9388 80
3 9389 14
3 9390 10
3 9391 11
3 9392 14
3 9393 74
3 9394 75
3 9395 18
3 9396 83
3 9397 16
3 9398 8
3 9399 6
3 9400 1217
3 9401 14
3 9402 13
3 9403 12
3 9404 290
3 9405 61
3 9406 9
3 9407 36
3 9408 30
3 9409 23
3 9410 90
3 9411 254
3 9412 8
3 9413 11
3 9414 116
3 9415 117
3 9416 10
3 9417 5
3 9418 15
3 9419 9
3 9420 28
3 9421 50
3 9422 137
3 9423 27
3 9424 12
3 9425 8
3 9426 55
3 9427 13
3 9428 17
3 9429 61
3 9430 91
3 9431 9
3 9432 10
3 9433 19
3 9434 36
3 9435 11
3 9436 15
3 9437 8
3 9438 6
3 9439 11
3 9440 27
3 9441 62
3 9442 16
3 9443 13
3 9444 21
3 9445 18
3 9446 673
3 9447 14
3 9448 21
3 9449 24
3 9450 61
3 9451 6
3 9452 225
3 9453 15
3 9454 66
3 9455 117
3 9456 15
3 9457 11
3 9458 10
3 9459 11
3 9460 36
3 9461 8
3 9462 10
3 9463 17
3 9464 21
3 9465 37
3 9466 530
3 9467 67
3 9468 19
3 9469 17
3 9470 49
3 9471 12
3 9472 39
3 9473 20
3 9474 19
3 9475 75
3 9476 120
3 9477 158
3 9478 11
3 9479 65
3 9480 112
3 9481 12
3 9482 13
3 9483 110
3 9484 16
3 9485 13
3 9486 14
3 9487 12
3 9488 14
3 9489 13
3 9490 22
3 9491 18
3 9492 15
3 9493 20
3 9494 18
3 9495 85
3 9496 4
3 9497 85
3 9498 11
3 9499 17
3 9500 65
3 9501 88
3 9502 11
3 9503 84
3 9504 31
3 9505 122
3 9506 13
3 9507 26
3 9508 12
3 9509 8
3 9510 12
3 9511 65
3 9512 22
3 9513 17
3 9514 5
3 9515 12
3 9516 16
3 9517 75
3 9518 21
3 9519 19
3 9520 20
3 9521 21
3 9522 13
3 9523 16
3 9524 20
3 9525 23
3 9526 58
3 9527 52
3 9528 15
3 9529 12
3 9530 26
3 9531 14
3 9532 3
3 9533 15
3 9534 23
3 9535 16
3 9536 14
3 9537 14
3 9538 10
3 9539 22
3 9540 26
3 9541 17
3 9542 17
3 9543 75
3 9544 17
3 9545 11
3 9546 8
3 9547 74
3 9548 15
3 9549 19
3 9550 108
3 9551 21
3 9552 16
3 9553 17
3 9554 13
3 9555 102
3 9556 26
3 9557 19
3 9558 15
3 9559 9
3 9560 14
3 9561 47
3 9562 30
3 9563 16
3 9564 102
3 9565 22
3 9566 47
3 9567 86
3 9568 1247
3 9569 22
3 9570 26
3 9571 39
3 9572 71
3 9573 9
3 9574 38
3 9575 17
3 9576 83
3 9577 16
3 9578 21
3 9579 13
3 9580 14
3 9581 18
3 9582 18
3 9583 63
3 9584 17
3 9585 17
3 9586 8
3 9587 11
3 9588 13
3 9589 143
3 9590 5
3 9591 174
3 9592 34
3 9593 18
3 9594 7
3 9595 23
3 9596 5
3 9597 1058
3 9598 69
3 9599 38
3 9600 47
3 9601 73
3 9602 1
3 9603 1088
3 9604 35
3 9605 6
3 9606 109
3 9607 53
3 9608 18
3 9609 86
3 9610 29
3 9611 19
3 9612 73
3 9613 32
3 9615 17
3 9616 12
3 9617 33
3 9618 16
3 9619 7
3 9620 19
3 9621 7
3 9622 74
3 9623 8
3 9624 18
3 9625 160
3 9626 7
3 9627 90
3 9628 12
3 9629 13
3 9630 11
3 9631 81
3 9632 22
3 9633 12
3 9634 11
3 9635 5
3 9636 15
3 9637 136
3 9638 7
3 9639 17
3 9640 18
3 9641 15
3 9642 22
3 9643 85
3 9644 9
3 9645 22
3 9646 19
3 9647 14
3 9648 6
3 9649 9
3 9650 12
3 9651 1211
3 9652 477
3 9653 21
3 9654 12
3 9655 12
3 9656 8
3 9657 187
3 9658 22
3 9659 15
3 9660 13
3 9661 19
3 9662 101
3 9663 101
3 9664 3
3 9665 34
3 9666 65
3 9667 20
3 9668 21
3 9669 11
3 9670 14
3 9671 22
3 9672 17
3 9673 28
3 9674 13
3 9675 175
3 9676 15
3 9677 17
3 9678 483
3 9679 13
3 9680 33
3 9681 28
3 9682 93
3 9683 16
3 9684 64
3 9685 70
3 9686 7
3 9687 26
3 9688 6
3 9689 18
3 9690 8
3 9691 7
3 9692 20
3 9693 93
3 9694 34
3 9695 10
3 9696 13
3 9697 16
3 9698 87
3 9699 7
3 9700 230
3 9701 14
3 9702 9
3 9703 7
3 9704 13
3 9705 98
3 9706 7
3 9707 20
3 9708 15
3 9709 19
3 9710 9
3 9711 25
3 9712 1219
3 9713 11
3 9714 51
3 9715 9
3 9716 23
3 9717 76
3 9718 24
3 9719 11
3 9720 55
3 9721 13
3 9722 48
3 9723 12
3 9724 6
3 9725 6
3 9726 18
3 9727 23
3 9728 53
3 9729 41
3 9730 13
3 9731 10
3 9732 18
3 9733 16
3 9734 81
3 9735 145
3 9736 13
3 9737 26
3 9738 14
3 9739 5
3 9740 11
3 9741 9
3 9742 78
3 9743 25
3 9744 13
3 9745 13
3 9746 37
3 9747 11
3 9748 9
3 9749 10
3 9750 13
3 9751 34
3 9752 45
3 9753 9
3 9754 48
3 9755 19
3 9756 124
3 9757 24
3 9758 137
3 9759 10
3 9760 113
3 9761 125
3 9762 24
3 9763 10
3 9764 18
3 9765 13
3 9766 13
3 9767 15
3 9768 17
3 9769 9
3 9770 11
3 9771 21
3 9772 78
3 9773 66
3 9774 12
3 9775 6
3 9776 19
3 9777 12
3 9778 26
3 9779 10
3 9780 107
3 9781 1129
3 9782 5
3 9783 7
3 9784 17
3 9785 8
3 9786 6
3 9787 10
3 9788 30
3 9789 7
3 9790 6
3 9791 19
3 9792 12
3 9793 30
3 9794 29
3 9795 14
3 9796 6
3 9797 63
3 9798 5
3 9799 145
3 9800 9
3 9801 21
3 9802 102
3 9803 23
3 9804 17
3 9805 21
3 9806 21
3 9807 82
3 9808 18
3 9809 218
3 9810 9
3 9811 7
3 9812 23
3 9813 20
3 9814 21
3 9815 3
3 9816 17
3 9817 11
3 9818 28
3 9819 9
3 9820 18
3 9821 13
3 9822 143
3 9823 114
3 9824 22
3 9825 16
3 9826 17
3 9827 29
3 9828 21
3 9829 30
3 9830 36
3 9831 16
3 9832 53
3 9833 17
3 9834 13
3 9835 132
3 9836 15
3 9837 12
3 9838 10
3 9839 14
3 9840 9
3 9841 23
3 9842 81
3 9843 20
3 9844 3
3 9845 9
3 9846 21
3 9847 69
3 9848 9
3 9849 11
3 9850 4
3 9851 25
3 9852 105
3 9853 20
3 9854 9
3 9855 18
3 9856 6
3 9857 11
3 9858 24
3 9859 11
3 9860 11
3 9861 4
3 9862 10
3 9863 10
3 9864 24
3 9865 87
3 9866 112
3 9867 6
3 9868 30
3 9869 80
3 9870 11
3 9871 1067
3 9872 10
3 9873 76
3 9874 159
3 9875 12
3 9876 6
3 9877 178
3 9878 14
3 9879 8
3 9880 10
3 9881 21
3 9882 135
3 9883 10
3 9884 10
3 9885 21
3 9886 16
3 9887 6
3 9888 85
3 9889 6
3 9890 12
3 9891 45
3 9892 46
3 9893 9
3 9894 9
3 9895 12
3 9896 13
3 9897 8
3 9898 35
3 9899 15
3 9900 16
3 9901 5
3 9902 20
3 9903 17
3 9904 23
3 9905 19
3 9906 17
3 9907 1225
3 9908 7
3 9909 144
3 9910 16
3 9911 12
3 9912 55
3 9913 23
3 9914 16
3 9915 10
3 9916 21
3 9917 96
3 9918 45
3 9919 12
3 9920 10
3 9921 7
3 9922 9
3 9923 21
3 9924 5
3 9925 7
3 9926 10
3 9927 14
3 9928 10
3 9929 6
3 9930 8
3 9931 65
3 9932 17
3 9933 9
3 9934 40
3 9935 17
3 9936 66
3 9937 9
3 9938 28
3 9939 35
3 9940 20
3 9941 8
3 9942 19
3 9943 23
3 9944 155
3 9945 9
3 9946 75
3 9947 15
3 9948 14
3 9949 19
3 9950 57
3 9951 27
3 9952 153
3 9953 22
3 9954 14
3 9955 13
3 9956 16
3 9957 19
3 9958 98
3 9959 123
3 9960 69
3 9961 22
3 9962 24
3 9963 34
3 9964 15
3 9965 154
3 9966 11
3 9967 17
3 9968 7
3 9969 7
3 9970 20
3 9971 8
3 9972 21
3 9973 97
3 9974 22
3 9975 30
3 9976 12
3 9977 30
3 9978 24
3 9979 50
3 9980 3
3 9981 28
3 9982 11
3 9983 11
3 9984 3
3 9985 11
3 9986 12
3 9987 4
3 9988 13
3 9989 7
3 9990 7
3 9991 8
3 9992 14
3 9993 53
3 9994 12
3 9995 9
3 9996 23
3 9997 15
3 9998 8
3 9999 15
3 10000 11
3 10001 12
3 10002 4
3 10003 15
3 10004 18
3 10005 16
3 10006 15
3 10007 10
3 10008 11
3 10009 14
3 10010 10
3 10011 128
3 10012 38
3 10013 8
3 10014 8
3 10015 20
3 10016 15
3 10017 14
3 10018 92
3 10019 5
3 10020 29
3 10021 211
3 10022 65
3 10023 28
3 10024 6
3 10025 62
3 10026 19
3 10027 209
3 10028 113
3 10029 18
3 10030 12
3 10031 10
3 10032 15
3 10033 3
3 10034 12
3 10035 15
3 10036 12
3 10037 17
3 10038 10
3 10039 7
3 10040 7
3 10041 4
3 10042 16
3 10043 39
3 10044 8
3 10045 63
3 10046 21
3 10047 16
3 10048 19
3 10049 26
3 10050 9
3 10051 13
3 10052 42
3 10053 10
3 10054 77
3 10055 108
3 10056 21
3 10057 15
3 10058 18
3 10059 16
3 10060 10
3 10061 11
3 10062 7
3 10063 17
3 10064 15
3 10065 12
3 10066 22
3 10067 13
3 10068 17
3 10069 19
3 10070 22
3 10071 28
3 10072 59
3 10073 12
3 10074 10
3 10075 18
3 10076 131
3 10077 18
3 10078 89
3 10079 12
3 10080 8
3 10081 11
3 10082 9
3 10083 38
3 10084 59
3 10085 23
3 10086 9
3 10087 15
3 10088 93
3 10089 7
3 10090 17
3 10091 15
3 10092 103
3 10093 16
3 10094 7
3 10095 8
3 10096 18
3 10097 12
3 10098 20
3 10099 16
3 10100 13
3 10101 5
3 10102 16
3 10103 11
3 10104 49
3 10105 41
3 10106 20
3 10107 10
3 10108 19
3 10109 132
3 10110 9
3 10111 14
3 10112 19
3 10113 9
3 10114 27
3 10115 44
3 10116 19
3 10117 12
3 10118 18
3 10119 33
3 10120 115
3 10121 31
3 10122 5
3 10123 12
3 10124 12
3 10125 29
3 10126 13
3 10127 17
3 10128 12
3 10129 13
3 10130 11
3 10131 33
3 10132 8
3 10133 13
3 10134 15
3 10135 12
3 10136 17
3 10137 17
3 10138 65
3 10139 11
3 10140 15
3 10141 20
3 10142 10
3 10143 12
3 10144 5
3 10145 10
3 10146 22
3 10147 9
3 10148 13
3 10149 19
3 10150 103
3 10151 14
3 10152 9
3 10153 14
3 10154 84
3 10155 45
3 10156 74
3 10157 75
3 10158 11
3 10159 19
3 10160 11
3 10161 20
3 10162 14
3 10163 18
3 10164 18
3 10165 12
3 10166 7
3 10167 35
3 10168 16
3 10169 19
3 10170 17
3 10171 12
3 10172 20
3 10173 16
3 10174 8
3 10175 9
3 10176 13
3 10177 10
3 10178 25
3 10179 13
3 10180 13
3 10181 163
3 10182 7
3 10183 18
3 10184 13
3 10185 14
3 10186 12
3 10187 9
3 10188 62
3 10189 55
3 10190 35
3 10191 18
3 10192 5
3 10193 27
3 10194 24
3 10195 17
3 10196 28
3 10197 17
3 10198 10
3 10199 31
3 10200 92
3 10201 15
3 10202 16
3 10203 16
3 10204 9
3 10205 18
3 10206 12
3 10207 30
3 10208 8
3 10209 21
3 10210 66
3 10211 22
3 10212 17
3 10213 16
3 10214 90
3 10215 72
3 10216 25
3 10217 11
3 10218 24
3 10219 11
3 10220 14
3 10221 82
3 10222 24
3 10223 19
3 10224 104
3 10225 12
3 10226 61
3 10227 150
3 10228 27
3 10229 16
3 10230 16
3 10231 31
3 10232 55
3 10233 13
3 10234 10
3 10235 195
3 10236 9
3 10237 54
3 10238 67
3 10239 11
3 10240 17
3 10241 12
3 10242 13
3 10243 5
3 10244 80
3 10245 18
3 10246 15
3 10247 32
3 10248 46
3 10249 13
3 10250 95
3 10251 50
3 10252 7
3 10253 36
3 10254 6
3 10255 23
3 10256 11
3 10257 19
3 10258 8
3 10259 3
3 10260 23
3 10261 30
3 10262 15
3 10263 14
3 10264 33
3 10265 27
3 10266 22
3 10267 18
3 10268 20
3 10269 50
3 10270 7
3 10271 15
3 10272 11
3 10273 7
3 10274 8
3 10275 40
3 10276 19
3 10277 112
3 10278 20
3 10279 11
3 10280 10
3 10281 24
3 10282 21
3 10283 91
3 10284 47
3 10285 13
3 10286 23
3 10287 15
3 10288 8
3 10289 32
3 10290 10
3 10291 6
3 10292 16
3 10293 37
3 10294 84
3 10295 40
3 10296 3
3 10297 28
3 10298 4
3 10299 19
3 10300 60
3 10301 56
3 10302 8
3 10303 8
3 10304 8
3 10305 6
3 10306 11
3 10307 12
3 10308 11
3 10309 48
3 10310 43
3 10311 19
3 10312 20
3 10313 22
3 10314 14
3 10315 16
3 10316 10
3 10317 48
3 10318 10
3 10319 79
3 10320 6
3 10321 25
3 10322 22
3 10323 18
3 10324 12
3 10325 22
3 10326 12
3 10327 6
3 10328 5
3 10329 12
3 10330 64
3 10331 47
3 10332 11
3 10333 19
3 10334 13
3 10335 65
3 10336 142
3 10337 85
3 10338 23
3 10339 11
3 10340 13
3 10341 6
3 10342 109
3 10343 434
3 10344 10
3 10345 8
3 10346 10
3 10347 13
3 10348 7
3 10349 13
3 10350 19
3 10351 21
3 10352 16
3 10353 51
3 10354 67
3 10355 96
3 10356 74
3 10357 12
3 10358 14
3 10359 18
3 10360 14
3 10361 266
3 10362 9
3 10363 18
3 10364 17
3 10365 8
3 10366 78
3 10367 17
3 10368 9
3 10369 64
3 10370 71
3 10371 16
3 10372 13
3 10373 15
3 10374 14
3 10375 6
3 10376 197
3 10377 23
3 10378 15
3 10379 11
3 10380 17
3 10381 22
3 10382 16
3 10383 7
3 10384 27
3 10385 18
3 10386 11
3 10387 31
3 10388 18
3 10389 69
3 10390 47
3 10391 25
3 10392 44
3 10393 5
3 10394 74
3 10395 10
3 10396 4
3 10397 63
3 10398 7
3 10399 17
3 10400 12
3 10401 270
3 10402 65
3 10403 9
3 10404 83
3 10405 23
3 10406 74
3 10407 15
3 10408 48
3 10409 10
3 10410 19
3 10411 25
3 10412 26
3 10413 25
3 10414 16
3 10415 9
3 10416 47
3 10417 58
3 10418 12
3 10419 51
3 10420 13
3 10421 19
3 10422 14
3 10423 11
3 10424 545
3 10425 55
3 10426 17
3 10427 105
3 10428 6
3 10429 11
3 10430 9
3 10431 13
3 10432 16
3 10433 13
3 10434 33
3 10435 9
3 10436 10
3 10437 13
3 10438 17
3 10439 49
3 10440 9
3 10441 10
3 10442 21
3 10443 11
3 10444 12
3 10445 16
3 10446 11
3 10447 9
3 10448 11
3 10449 15
3 10450 302
3 10451 19
3 10452 161
3 10453 83
3 10454 4
3 10455 5
3 10456 10
3 10457 25
3 10458 23
3 10459 23
3 10460 49
3 10461 21
3 10462 82
3 10463 16
3 10464 41
3 10465 9
3 10466 14
3 10467 12
3 10468 14
3 10469 23
3 10470 73
3 10471 18
3 10472 195
3 10473 21
3 10474 6
3 10475 16
3 10476 16
3 10477 13
3 10478 14
3 10479 22
3 10480 19
3 10481 75
3 10482 15
3 10483 7
3 10484 12
3 10485 42
3 10486 77
3 10487 18
3 10488 4
3 10489 707
3 10490 8
3 10491 14
3 10492 9
3 10493 104
3 10494 18
3 10495 73
3 10496 864
3 10497 92
3 10498 12
3 10499 11
3 10500 5
3 10501 28
3 10502 8
3 10503 9
3 10504 80
3 10505 60
3 10506 10
3 10507 13
3 10508 10
3 10509 18
3 10510 34
3 10511 15
3 10512 10
3 10513 8
3 10514 70
3 10515 74
3 10516 17
3 10517 21
3 10518 14
3 10519 8
3 10520 22
3 10521 84
3 10522 70
3 10523 3
3 10524 23
3 10525 23
3 10526 17
3 10527 19
3 10528 19
3 10529 16
3 10530 47
3 10531 67
3 10532 72
3 10533 9
3 10534 24
3 10535 15
3 10536 200
3 10537 31
3 10538 15
3 10539 35
3 10540 21
3 10541 43
3 10542 23
3 10543 16
3 10544 62
3 10545 13
3 10546 9
3 10547 81
3 10548 21
3 10549 20
3 10550 15
3 10551 43
3 10552 20
3 10553 6
3 10554 17
3 10555 131
3 10556 60
3 10557 7
3 10558 20
3 10559 12
3 10560 130
3 10561 14
3 10562 29
3 10563 15
3 10564 20
3 10565 12
3 10566 31
3 10567 13
3 10568 22
3 10569 72
3 10570 20
3 10571 24
3 10572 157
3 10573 27
3 10574 141
3 10575 20
3 10576 12
3 10577 28
3 10578 13
3 10579 11
3 10580 13
3 10581 34
3 10582 92
3 10583 15
3 10584 61
3 10585 32
3 10586 21
3 10587 16
3 10588 13
3 10589 11
3 10590 20
3 10591 16
3 10592 15
3 10593 47
3 10594 7
3 10595 52
3 10596 398
3 10597 12
3 10598 26
3 10599 25
3 10600 9
3 10601 18
3 10602 23
3 10603 16
3 10604 83
3 10605 21
3 10606 59
3 10607 69
3 10608 25
3 10609 15
3 10610 10
3 10611 8
3 10612 134
3 10613 101
3 10614 25
3 10615 18
3 10616 12
3 10617 16
3 10618 15
3 10619 13
3 10620 26
3 10621 19
3 10622 20
3 10623 24
3 10624 51
3 10625 350
3 10626 24
3 10627 17
3 10628 16
3 10629 9
3 10630 17
3 10631 100
3 10632 36
3 10633 85
3 10634 46
3 10635 74
3 10636 14
3 10637 28
3 10638 10
3 10639 72
3 10640 17
3 10641 17
3 10642 9
3 10643 45
3 10644 8
3 10645 11
3 10646 46
3 10647 4
3 10648 59
3 10649 18
3 10650 10
3 10651 10
3 10652 14
3 10653 68
3 10654 11
3 10655 13
3 10656 20
3 10657 45
3 10658 14
3 10659 7
3 10660 16
3 10661 61
3 10662 40
3 10663 19
3 10664 16
3 10665 26
3 10666 51
3 10667 12
3 10668 136
3 10669 27
3 10670 61
3 10671 18
3 10672 9
3 10673 22
3 10674 24
3 10675 10
3 10676 11
3 10677 16
3 10678 98
3 10679 11
3 10680 9
3 10681 7
3 10682 39
3 10683 16
3 10684 20
3 10685 24
3 10686 24
3 10687 75
3 10688 17
3 10689 98
3 10690 11
3 10691 51
3 10692 20
3 10693 23
3 10694 37
3 10695 10
3 10696 371
3 10697 5
3 10698 62
3 10699 10
3 10700 13
3 10701 22
3 10702 10
3 10703 130
3 10704 18
3 10705 15
3 10706 18
3 10707 8
3 10708 20
3 10709 58
3 10710 9
3 10711 35
3 10712 35
3 10713 105
3 10714 101
3 10715 17
3 10716 29
3 10717 10
3 10718 22
3 10719 11
3 10720 16
3 10721 5
3 10722 112
3 10723 17
3 10724 9
3 10725 24
3 10726 346
3 10727 15
3 10728 18
3 10729 1136
3 10730 12
3 10731 22
3 10732 19
3 10733 43
3 10734 6
3 10735 71
3 10736 28
3 10737 13
3 10738 14
3 10739 9
3 10740 74
3 10741 40
3 10742 19
3 10743 22
3 10744 27
3 10745 111
3 10746 11
3 10747 10
3 10748 13
3 10749 95
3 10750 21
3 10751 33
3 10752 20
3 10753 11
3 10754 23
3 10755 101
3 10756 6
3 10757 32
3 10758 9
3 10759 14
3 10760 21
3 10761 11
3 10762 31
3 10763 11
3 10764 10
3 10765 16
3 10766 18
3 10767 13
3 10768 12
3 10769 7
3 10770 41
3 10771 18
3 10772 9
3 10773 10
3 10774 17
3 10775 22
3 10776 27
3 10777 17
3 10778 76
3 10779 59
3 10780 26
3 10781 19
3 10782 20
3 10783 53
3 10784 16
3 10785 9
3 10786 141
3 10787 33
3 10788 8
3 10789 73
3 10790 12
3 10791 67
3 10792 17
3 10793 18
3 10794 41
3 10795 11
3 10796 20
3 10797 213
3 10798 24
3 10799 32
3 10800 81
3 10801 15
3 10802 22
3 10803 9
3 10804 128
3 10805 9
3 10806 30
3 10807 19
3 10808 12
3 10809 30
3 10810 90
3 10811 15
3 10812 16
3 10813 61
3 10814 15
3 10815 10
3 10816 43
3 10817 10
3 10818 22
3 10819 4
3 10820 3
3 10821 25
3 10822 17
3 10823 12
3 10824 16
3 10825 13
3 10826 48
3 10827 16
3 10828 2
3 10829 47
3 10830 79
3 10831 5
3 10832 9
3 10833 12
3 10834 12
3 10835 12
3 10836 143
3 10837 17
3 10838 18
3 10839 68
3 10840 16
3 10841 12
3 10842 5
3 10843 11
3 10844 11
3 10845 11
3 10846 11
3 10847 82
3 10848 21
3 10849 17
3 10850 8
3 10851 16
3 10852 10
3 10853 59
3 10854 13
3 10855 11
3 10856 4
3 10857 5
3 10858 15
3 10859 81
3 10860 14
3 10861 12
3 10862 61
3 10863 29
3 10864 21
3 10865 14
3 10866 14
3 10867 43
3 10868 16
3 10869 11
3 10870 10
3 10871 16
3 10872 27
3 10873 57
3 10874 144
3 10875 76
3 10876 49
3 10877 14
3 10878 17
3 10879 7
3 10880 36
3 10881 78
3 10882 12
3 10883 14
3 10884 11
3 10885 9
3 10886 16
3 10887 11
3 10888 20
3 10889 41
3 10890 108
3 10891 9
3 10892 11
3 10893 9
3 10894 6
3 10895 9
3 10896 5
3 10897 19
3 10898 12
3 10899 11
3 10900 11
3 10901 13
3 10902 7
3 10903 14
3 10904 21
3 10905 8
3 10906 138
3 10907 15
3 10908 9
3 10909 12
3 10910 12
3 10911 22
3 10912 5
3 10913 12
3 10914 108
3 10915 10
3 10916 113
3 10917 47
3 10918 16
3 10919 22
3 10920 10
3 10921 18
3 10922 9
3 10923 9
3 10924 11
3 10925 7
3 10926 16
3 10927 6
3 10928 38
3 10929 35
3 10930 6
3 10931 27
3 10932 20
3 10933 8
3 10934 39
3 10935 9
3 10936 184
3 10937 162
3 10938 33
3 10939 14
3 10940 123
3 10941 17
3 10942 19
3 10943 7
3 10944 16
3 10945 26
3 10946 14
3 10947 17
3 10948 30
3 10949 49
3 10950 20
3 10951 9
3 10952 20
3 10953 7
3 10954 21
3 10955 32
3 10956 180
3 10957 11
3 10958 19
3 10959 9
3 10960 16
3 10961 5
3 10962 27
3 10963 14
3 10964 16
3 10965 30
3 10966 26
3 10967 105
3 10968 18
3 10969 25
3 10970 4
3 10971 60
3 10972 8
3 10973 48
3 10974 17
3 10975 577
3 10976 27
3 10977 14
3 10978 17
3 10979 18
3 10980 27
3 10981 8
3 10982 60
3 10983 8
3 10984 22
3 10985 7
3 10986 37
3 10987 8
3 10988 9
3 10989 11
3 10990 18
3 10991 28
3 10992 9
3 10993 15
3 10994 13
3 10995 58
3 10996 18
3 10997 26
3 10998 57
3 10999 46
3 11000 70
3 11001 24
3 11002 14
3 11003 16
3 11004 13
3 11005 36
3 11006 63
3 11007 13
3 11008 7
3 11009 5
3 11010 15
3 11011 11
3 11012 11
3 11013 19
3 11014 24
3 11015 16
3 11016 17
3 11017 13
3 11018 146
3 11019 9
3 11020 12
3 11021 10
3 11022 21
3 11023 83
3 11024 43
3 11025 8
3 11026 26
3 11027 10
3 11028 39
3 11029 89
3 11030 43
3 11031 14
3 11032 150
3 11033 21
3 11034 9
3 11035 33
3 11036 15
3 11037 11
3 11038 16
3 11039 141
3 11040 21
3 11041 57
3 11042 15
3 11043 22
3 11044 94
3 11045 39
3 11046 14
3 11047 4
3 11048 27
3 11049 85
3 11050 27
3 11051 8
3 11052 14
3 11053 64
3 11054 99
3 11055 83
3 11056 14
3 11057 10
3 11058 11
3 11059 97
3 11060 10
3 11061 12
3 11062 29
3 11063 23
3 11064 81
3 11065 19
3 11066 1293
3 11067 63
3 11068 17
3 11069 10
3 11070 34
3 11071 77
3 11072 25
3 11073 117
3 11074 15
3 11075 16
3 11076 22
3 11077 15
3 11078 14
3 11079 16
3 11080 17
3 11081 4
3 11082 9
3 11083 67
3 11084 39
3 11085 14
3 11086 6
3 11087 9
3 11088 19
3 11089 8
3 11090 32
3 11091 15
3 11092 19
3 11093 36
3 11094 94
3 11095 8
3 11096 10
3 11097 68
3 11098 18
3 11099 13
3 11100 19
3 11101 82
3 11102 10
3 11103 137
3 11104 12
3 11105 19
3 11106 20
3 11107 221
3 11108 172
3 11109 16
3 11110 7
3 11111 15
3 11112 12
3 11113 12
3 11114 18
3 11115 18
3 11116 113
3 11117 13
3 11118 11
3 11119 18
3 11120 9
3 11121 1278
3 11122 19
3 11123 16
3 11124 172
3 11125 7
3 11126 10
3 11127 12
3 11128 13
3 11129 11
3 11130 10
3 11131 64
3 11132 69
3 11133 65
3 11134 28
3 11135 18
3 11136 17
3 11137 15
3 11138 55
3 11139 58
3 11140 49
3 11141 75
3 11142 18
3 11143 12
3 11144 17
3 11145 12
3 11146 16
3 11147 8
3 11148 18
3 11149 9
3 11150 59
3 11151 12
3 11152 17
3 11153 23
3 11154 61
3 11155 50
3 11156 29
3 11157 19
3 11158 22
3 11159 16
3 11160 13
3 11161 191
3 11162 6
3 11163 13
3 11164 13
3 11165 5
3 11166 11
3 11167 4
3 11168 20
3 11169 64
3 11170 16
3 11171 13
3 11172 9
3 11173 10
3 11174 8
3 11175 43
3 11176 7
3 11177 29
3 11178 4
3 11179 1053
3 11180 13
3 11181 12
3 11182 8
3 11183 161
3 11184 15
3 11185 16
3 11186 14
3 11187 9
3 11188 15
3 11189 14
3 11190 9
3 11191 100
3 11192 14
3 11193 5
3 11194 347
3 11195 17
3 11196 11
3 11197 10
3 11198 15
3 11199 16
3 11200 26
3 11201 25
3 11202 13
3 11203 111
3 11204 17
3 11205 15
3 11206 36
3 11207 13
3 11208 11
3 11209 7
3 11210 34
3 11211 15
3 11212 11
3 11213 17
3 11214 8
3 11215 13
3 11216 121
3 11217 25
3 11218 26
3 11219 91
3 11220 71
3 11221 93
3 11222 131
3 11223 10
3 11224 58
3 11225 20
3 11226 18
3 11227 14
3 11228 13
3 11229 71
3 11230 9
3 11231 9
3 11232 107
3 11233 9
3 11234 93
3 11235 48
3 11236 20
3 11237 20
3 11238 14
3 11239 8
3 11240 7
3 11241 18
3 11242 17
3 11243 20
3 11244 22
3 11245 273
3 11246 92
3 11247 15
3 11248 76
3 11249 17
3 11250 9
3 11251 17
3 11252 14
3 11253 22
3 11254 75
3 11255 11
3 11256 106
3 11257 26
3 11258 64
3 11259 66
3 11260 20
3 11261 19
3 11262 75
3 11263 18
3 11264 26
3 11265 18
3 11266 9
3 11267 21
3 11268 21
3 11269 50
3 11270 13
3 11271 12
3 11272 69
3 11273 28
3 11274 11
3 11275 69
3 11276 14
3 11277 56
3 11278 19
3 11279 111
3 11280 22
3 11281 13
3 11282 12
3 11283 82
3 11284 20
3 11285 19
3 11286 73
3 11287 38
3 11288 30
3 11289 47
3 11290 121
3 11291 19
3 11292 19
3 11293 18
3 11294 7
3 11295 73
3 11296 14
3 11297 7
3 11298 13
3 11299 69
3 11300 14
3 11301 18
3 11302 23
3 11303 72
3 11304 11
3 11305 19
3 11306 35
3 11307 12
3 11308 7
3 11309 15
3 11310 29
3 11311 23
3 11312 245
3 11313 73
3 11314 19
3 11315 14
3 11316 13
3 11317 11
3 11318 17
3 11319 10
3 11320 289
3 11321 15
3 11322 25
3 11323 31
3 11324 5
3 11325 69
3 11326 20
3 11327 73
3 11328 78
3 11329 8
3 11330 18
3 11331 13
3 11332 8
3 11333 9
3 11334 45
3 11335 93
3 11336 12
3 11337 18
3 11338 18
3 11339 14
3 11341 30
3 11342 48
3 11343 11
3 11344 85
3 11345 111
3 11346 1
3 11347 9
3 11348 15
3 11349 19
3 11350 19
3 11351 81
3 11352 78
3 11353 19
3 11354 59
3 11355 16
3 11356 8
3 11357 11
3 11358 14
3 11359 60
3 11360 10
3 11361 14
3 11362 12
3 11363 23
3 11364 15
3 11365 8
3 11366 20
3 11367 78
3 11368 9
3 11369 1081
3 11370 85
3 11371 33
3 11372 66
3 11373 13
3 11374 13
3 11375 7
3 11376 10
3 11377 15
3 11378 13
3 11379 10
3 11380 11
3 11381 23
3 11382 20
3 11383 13
3 11384 20
3 11385 12
3 11386 9
3 11387 134
3 11388 21
3 11389 10
3 11390 125
3 11391 19
3 11392 173
3 11393 8
3 11394 23
3 11395 10
3 11396 14
3 11397 10
3 11398 10
3 11399 89
3 11400 22
3 11401 35
3 11402 13
3 11403 33
3 11404 10
3 11405 75
3 11406 16
3 11407 16
3 11408 47
3 11409 16
3 11410 42
3 11411 2
3 11412 168
3 11413 35
3 11414 19
3 11415 22
3 11416 25
3 11417 6
3 11418 10
3 11419 13
3 11420 16
3 11421 75
3 11422 325
3 11423 8
3 11424 18
3 11425 798
3 11426 15
3 11427 30
3 11428 6
3 11429 49
3 11430 24
3 11431 9
3 11432 15
3 11433 15
3 11434 17
3 11435 11
3 11436 15
3 11437 15
3 11438 8
3 11439 12
3 11440 17
3 11441 13
3 11442 138
3 11443 143
3 11444 7
3 11445 14
3 11446 38
3 11447 11
3 11448 22
3 11449 89
3 11450 133
3 11451 10
3 11452 21
3 11453 23
3 11454 7
3 11455 13
3 11456 90
3 11457 99
3 11458 129
3 11459 1205
3 11460 12
3 11461 10
3 11462 11
3 11463 18
3 11464 11
3 11465 22
3 11466 16
3 11467 14
3 11468 66
3 11469 125
3 11470 13
3 11471 14
3 11472 10
3 11473 93
3 11474 17
3 11475 189
3 11476 36
3 11477 21
3 11478 63
3 11479 22
3 11480 16
3 11481 12
3 11482 19
3 11483 10
3 11484 20
3 11485 1117
3 11486 11
3 11487 143
3 11488 53
3 11489 60
3 11490 22
3 11491 56
3 11492 15
3 11493 17
3 11494 84
3 11495 17
3 11496 15
3 11497 40
3 11498 70
3 11499 83
3 11500 19
3 11501 10
3 11502 33
3 11503 11
3 11504 19
3 11505 23
3 11506 79
3 11507 17
3 11508 10
3 11509 15
3 11510 14
3 11511 27
3 11512 14
3 11513 4
3 11514 18
3 11515 67
3 11516 17
3 11517 59
3 11518 15
3 11519 18
3 11520 150
3 11521 67
3 11522 24
3 11523 8
3 11524 26
3 11525 58
3 11526 41
3 11527 72
3 11528 18
3 11529 1
3 11530 15
3 11531 13
3 11532 20
3 11534 13
3 11535 10
3 11536 13
3 11537 221
3 11538 109
3 11539 16
3 11540 22
3 11541 50
3 11542 74
3 11543 18
3 11544 19
3 11545 13
3 11546 7
3 11547 5
3 11548 9
3 11549 11
3 11550 13
3 11551 27
3 11552 31
3 11553 73
3 11554 9
3 11555 15
3 11556 79
3 11557 107
3 11558 16
3 11559 3
3 11560 96
3 11561 10
3 11562 9
3 11563 91
3 11564 24
3 11565 34
3 11566 40
3 11567 26
3 11568 24
3 11569 94
3 11570 17
3 11571 85
3 11572 12
3 11573 176
3 11574 147
3 11575 12
3 11576 11
3 11577 85
3 11578 336
3 11579 7
3 11580 18
3 11581 71
3 11582 6
3 11583 26
3 11584 8
3 11585 15
3 11586 22
3 11587 21
3 11588 23
3 11590 95
3 11591 8
3 11592 12
3 11593 31
3 11594 20
3 11595 13
3 11596 23
3 11597 19
3 11598 39
3 11599 19
3 11600 18
3 11601 19
3 11602 39
3 11603 12
3 11604 15
3 11605 233
3 11606 11
3 11607 15
3 11608 123
3 11609 28
3 11610 11
3 11611 82
3 11612 14
3 11613 22
3 11614 67
3 11615 17
3 11616 27
3 11617 1255
3 11618 6
3 11619 13
3 11620 10
3 11621 83
3 11622 11
3 11623 11
3 11624 17
3 11625 10
3 11626 7
3 11627 12
3 11628 59
3 11629 73
3 11630 10
3 11631 26
3 11632 33
3 11633 53
3 11634 93
3 11635 39
3 11636 12
3 11637 32
3 11638 41
3 11639 240
3 11640 50
3 11641 35
3 11642 83
3 11643 24
3 11644 38
3 11645 18
3 11646 37
3 11647 14
3 11648 48
3 11649 77
3 11650 43
3 11651 15
3 11652 11
3 11653 120
3 11654 16
3 11655 23
3 11656 9
3 11657 87
3 11658 10
3 11659 11
3 11660 5
3 11661 15
3 11662 19
3 11663 70
3 11664 40
3 11665 90
3 11666 67
3 11667 34
3 11668 19
3 11669 48
3 11670 159
3 11671 108
3 11672 3
3 11673 10
3 11674 46
3 11675 54
3 11676 16
3 11677 81
3 11678 8
3 11679 18
3 11680 19
3 11681 13
3 11682 8
3 11683 13
3 11684 86
3 11685 21
3 11686 15
3 11687 6
3 11688 66
3 11689 20
3 11690 122
3 11691 18
3 11692 8
3 11693 9
3 11694 19
3 11695 40
3 11696 38
3 11697 6
3 11698 1170
3 11699 11
3 11700 50
3 11701 14
3 11702 6
3 11703 52
3 11704 8
3 11705 16
3 11706 74
3 11707 49
3 11708 14
3 11709 12
3 11710 9
3 11711 16
3 11712 12
3 11713 113
3 11714 15
3 11715 8
3 11716 58
3 11717 5
3 11718 9
3 11719 9
3 11720 15
3 11721 10
3 11722 13
3 11723 16
3 11724 7
3 11725 9
3 11726 33
3 11727 27
3 11728 222
3 11729 17
3 11730 21
3 11731 11
3 11732 13
3 11733 27
3 11734 10
3 11735 22
3 11736 84
3 11737 109
3 11738 85
3 11739 91
3 11740 10
3 11741 58
3 11742 119
3 11743 17
3 11744 82
3 11745 19
3 11746 7
3 11747 80
3 11748 12
3 11749 15
3 11750 19
3 11751 5
3 11752 10
3 11753 57
3 11754 8
3 11755 33
3 11756 63
3 11757 6
3 11758 14
3 11759 100
3 11760 6
3 11761 7
3 11762 14
3 11763 11
3 11764 4
3 11765 10
3 11766 95
3 11767 49
3 11768 50
3 11769 21
3 11770 118
3 11771 15
3 11772 5
3 11773 13
3 11774 3
3 11775 14
3 11776 17
3 11777 1255
3 11778 18
3 11779 9
3 11780 65
3 11781 21
3 11782 51
3 11783 29
3 11784 5
3 11785 13
3 11786 14
3 11787 13
3 11788 66
3 11789 11
3 11790 54
3 11791 13
3 11792 25
3 11793 26
3 11794 19
3 11795 8
3 11796 12
3 11797 16
3 11798 21
3 11799 5
3 11800 86
3 11801 112
3 11802 68
3 11803 14
3 11804 19
3 11805 9
3 11806 6
3 11807 21
3 11808 12
3 11809 4
3 11810 15
3 11811 15
3 11812 21
3 11813 25
3 11814 18
3 11815 160
3 11816 15
3 11817 81
3 11818 9
3 11819 8
3 11820 60
3 11821 10
3 11822 99
3 11823 24
3 11824 16
3 11825 8
3 11826 11
3 11827 15
3 11828 43
3 11829 16
3 11830 59
3 11831 16
3 11832 9
3 11833 39
3 11834 11
3 11835 20
3 11836 12
3 11837 17
3 11838 5
3 11839 11
3 11840 17
3 11841 17
3 11842 31
3 11843 12
3 11844 26
3 11845 74
3 11846 10
3 11847 7
3 11848 68
3 11849 12
3 11850 3
3 11851 50
3 11852 8
3 11853 15
3 11854 9
3 11855 17
3 11856 61
3 11857 6
3 11858 8
3 11859 10
3 11860 81
3 11861 133
3 11862 21
3 11864 13
3 11865 28
3 11866 9
3 11867 13
3 11868 7
3 11869 61
3 11870 10
3 11871 13
3 11872 23
3 11873 8
3 11874 33
3 11875 12
3 11876 13
3 11877 12
3 11878 11
3 11879 26
3 11880 13
3 11881 27
3 11882 20
3 11883 16
3 11884 11
3 11885 10
3 11886 28
3 11887 6
3 11888 153
3 11889 9
3 11890 13
3 11891 85
3 11892 44
3 11893 9
3 11894 41
3 11895 51
3 11896 5
3 11897 48
3 11898 120
3 11899 227
3 11900 8
3 11901 1102
3 11902 15
3 11903 22
3 11904 34
3 11905 108
3 11906 93
3 11907 40
3 11908 7
3 11909 7
3 11910 13
3 11911 33
3 11912 16
3 11913 9
3 11914 5
3 11915 27
3 11916 78
3 11917 3
3 11918 31
3 11919 30
3 11920 7
3 11921 20
3 11922 89
3 11923 3
3 11924 46
3 11925 14
3 11926 14
3 11927 10
3 11928 33
3 11929 15
3 11930 22
3 11931 111
3 11932 26
3 11933 17
3 11934 210
3 11935 69
3 11936 19
3 11937 93
3 11938 16
3 11939 8
3 11940 7
3 11941 17
3 11942 63
3 11943 14
3 11944 56
3 11945 59
3 11946 9
3 11947 37
3 11948 66
3 11949 688
3 11950 16
3 11951 34
3 11952 121
3 11953 179
3 11954 14
3 11955 8
3 11956 10
3 11957 4
3 11958 11
3 11959 13
3 11960 18
3 11961 10
3 11962 42
3 11963 25
3 11964 13
3 11965 20
3 11966 14
3 11967 103
3 11968 1251
3 11969 1118
3 11970 11
3 11971 19
3 11972 17
3 11973 13
3 11974 73
3 11975 13
3 11976 14
3 11977 12
3 11978 11
3 11979 59
3 11980 97
3 11981 21
3 11982 7
3 11983 7
3 11984 128
3 11985 75
3 11986 12
3 11987 96
3 11988 21
3 11989 13
3 11990 36
3 11991 22
3 11992 20
3 11993 16
3 11994 13
3 11995 76
3 11996 16
3 11997 117
3 11998 70
3 11999 17
3 12000 22
3 12001 105
3 12002 18
3 12003 19
3 12004 20
3 12005 15
3 12006 7
3 12007 10
3 12008 8
3 12009 23
3 12010 76
3 12011 16
3 12012 13
3 12013 45
3 12014 9
3 12015 6
3 12016 34
3 12017 16
3 12018 17
3 12019 13
3 12020 9
3 12021 35
3 12022 15
3 12023 88
3 12024 18
3 12025 21
3 12026 25
3 12027 68
3 12028 17
3 12029 78
3 12030 12
3 12031 13
3 12032 17
3 12033 17
3 12034 61
3 12035 18
3 12036 13
3 12037 17
3 12038 12
3 12039 14
3 12040 18
3 12041 11
3 12042 46
3 12043 5
3 12044 24
3 12045 73
3 12046 16
3 12047 17
3 12048 12
3 12049 19
3 12050 18
3 12051 15
3 12052 11
3 12053 15
3 12054 109
3 12055 7
3 12056 7
3 12057 18
3 12058 75
3 12059 11
3 12060 17
3 12061 11
3 12062 10
3 12063 24
3 12064 1
3 12065 12
3 12066 14
3 12067 13
3 12068 108
3 12069 16
3 12070 10
3 12071 137
3 12072 10
3 12073 19
3 12074 10
3 12075 16
3 12076 8
3 12077 16
3 12078 8
3 12079 27
3 12080 56
3 12081 13
3 12082 10
3 12083 67
3 12084 22
3 12085 18
3 12086 38
3 12087 70
3 12088 16
3 12089 11
3 12090 11
3 12091 12
3 12092 13
3 12093 34
3 12094 11
3 12095 7
3 12096 128
3 12097 56
3 12098 13
3 12099 4
3 12100 100
3 12101 63
3 12102 81
3 12103 38
3 12104 13
3 12105 15
3 12106 18
3 12107 131
3 12108 18
3 12109 41
3 12110 13
3 12111 7
3 12112 13
3 12113 6
3 12114 19
3 12115 97
3 12116 7
3 12117 13
3 12118 20
3 12119 9
3 12120 13
3 12121 19
3 12122 74
3 12123 98
3 12124 33
3 12125 6
3 12126 14
3 12127 80
3 12128 9
3 12129 7
3 12130 8
3 12131 51
3 12132 17
3 12133 38
3 12134 49
3 12135 7
3 12136 8
3 12137 6
3 12138 17
3 12139 472
3 12140 20
3 12141 17
3 12142 38
3 12143 16
3 12144 16
3 12145 17
3 12146 11
3 12147 49
3 12148 86
3 12149 13
3 12150 8
3 12151 19
3 12152 14
3 12153 12
3 12154 25
3 12155 2
3 12156 55
3 12157 47
3 12158 18
3 12159 16
3 12160 20
3 12161 12
3 12162 18
3 12163 8
3 12164 69
3 12165 21
3 12166 14
3 12167 67
3 12168 6
3 12169 13
3 12170 21
3 12171 15
3 12172 11
3 12173 10
3 12174 127
3 12175 28
3 12176 18
3 12177 8
3 12178 30
3 12179 14
3 12180 10
3 12181 15
3 12182 10
3 12183 72
3 12184 21
3 12185 47
3 12186 11
3 12187 9
3 12188 10
3 12189 19
3 12190 10
3 12191 17
3 12192 31
3 12193 8
3 12194 17
3 12195 10
3 12196 6
3 12197 18
3 12198 10
3 12199 23
3 12200 8
3 12201 18
3 12202 12
3 12203 61
3 12204 67
3 12205 15
3 12206 15
3 12207 124
3 12208 156
3 12209 15
3 12210 41
3 12211 11
3 12212 17
3 12213 8
3 12214 53
3 12215 205
3 12216 10
3 12217 5
3 12218 17
3 12219 20
3 12220 9
3 12221 34
3 12222 22
3 12223 12
3 12224 15
3 12225 6
3 12226 9
3 12227 74
3 12228 24
3 12229 22
3 12230 48
3 12231 6
3 12232 9
3 12233 10
3 12234 10
3 12235 60
3 12236 8
3 12237 10
3 12238 2
3 12239 155
3 12240 90
3 12241 67
3 12242 16
3 12243 8
3 12244 5
3 12245 44
3 12246 23
3 12247 10
3 12248 9
3 12249 45
3 12250 188
3 12251 9
3 12252 70
3 12253 7
3 12254 91
3 12255 10
3 12256 52
3 12257 50
3 12258 11
3 12259 8
3 12260 12
3 12261 3
3 12262 6
3 12263 7
3 12264 5
3 12265 45
3 12266 11
3 12267 19
3 12268 37
3 12269 6
3 12270 35
3 12271 7
3 12272 14
3 12273 17
3 12274 20
3 12275 10
3 12276 16
3 12277 16
3 12278 15
3 12279 24
3 12280 19
3 12281 10
3 12282 21
3 12283 11
3 12284 43
3 12285 62
3 12286 18
3 12287 12
3 12288 12
3 12289 17
3 12290 10
3 12291 27
3 12292 39
3 12293 22
3 12294 12
3 12295 8
3 12296 15
3 12297 30
3 12298 16
3 12299 13
3 12300 30
3 12301 23
3 12302 4
3 12303 38
3 12304 4
3 12305 20
3 12306 13
3 12307 7
3 12308 77
3 12309 78
3 12310 49
3 12311 7
3 12312 81
3 12313 14
3 12314 22
3 12315 40
3 12316 8
3 12317 45
3 12318 13
3 12319 10
3 12320 13
3 12321 156
3 12322 9
3 12323 116
3 12324 11
3 12325 19
3 12326 13
3 12327 13
3 12328 16
3 12329 596
3 12330 19
3 12331 12
3 12332 16
3 12333 14
3 12334 43
3 12335 36
3 12336 30
3 12337 6
3 12338 3
3 12339 6
3 12340 78
3 12341 16
3 12342 13
3 12343 15
3 12344 10
3 12345 22
3 12346 18
3 12347 16
3 12348 15
3 12349 49
3 12350 80
3 12351 12
3 12352 12
3 12353 8
3 12354 11
3 12355 8
3 12356 81
3 12357 21
3 12358 20
3 12359 15
3 12360 19
3 12361 17
3 12362 89
3 12363 9
3 12364 6
3 12365 7
3 12366 29
3 12367 19
3 12368 15
3 12369 29
3 12370 67
3 12371 16
3 12372 88
3 12373 12
3 12374 6
3 12375 13
3 12376 30
3 12377 13
3 12378 6
3 12379 14
3 12380 23
3 12381 18
3 12382 75
3 12383 25
3 12384 68
3 12385 15
3 12386 16
3 12387 18
3 12388 76
3 12389 80
3 12390 4
3 12391 33
3 12392 14
3 12393 11
3 12394 5
3 12395 6
3 12396 267
3 12397 17
3 12398 1074
3 12399 34
3 12400 51
3 12401 152
3 12402 23
3 12403 18
3 12404 26
3 12405 9
3 12406 13
3 12407 74
3 12408 16
3 12410 10
3 12411 46
3 12412 21
3 12413 11
3 12414 16
3 12415 57
3 12416 127
3 12417 11
3 12418 49
3 12419 7
3 12420 15
3 12421 11
3 12422 36
3 12423 15
3 12424 15
3 12425 27
3 12426 15
3 12427 13
3 12428 192
3 12429 13
3 12430 14
3 12431 87
3 12432 36
3 12433 20
3 12434 15
3 12435 101
3 12436 14
3 12437 11
3 12438 128
3 12439 3
3 12440 13
3 12441 17
3 12442 13
3 12443 15
3 12444 21
3 12445 27
3 12446 9
3 12447 36
3 12448 59
3 12449 162
3 12450 16
3 12451 14
3 12452 93
3 12453 98
3 12454 18
3 12455 24
3 12456 40
3 12457 8
3 12458 2
3 12459 24
3 12460 13
3 12461 11
3 12462 17
3 12463 62
3 12464 15
3 12465 12
3 12466 187
3 12467 10
3 12468 22
3 12469 11
3 12470 19
3 12471 20
3 12472 13
3 12473 8
3 12474 6
3 12475 5
3 12476 22
3 12477 203
3 12478 111
3 12479 12
3 12480 9
3 12481 27
3 12482 20
3 12483 15
3 12484 19
3 12485 84
3 12486 13
3 12487 9
3 12488 67
3 12489 51
3 12490 13
3 12491 13
3 12492 9
3 12493 45
3 12494 20
3 12495 13
3 12496 8
3 12497 1
3 12498 25
3 12499 68
3 12500 37
3 12501 17
3 12502 12
3 12503 12
3 12504 21
3 12505 16
3 12506 11
3 12507 6
3 12508 19
3 12509 14
3 12510 19
3 12511 23
3 12512 17
3 12513 69
3 12514 121
3 12515 17
3 12516 76
3 12517 12
3 12518 88
3 12519 23
3 12520 24
3 12521 119
3 12522 17
3 12523 20
3 12524 28
3 12525 20
3 12526 23
3 12527 14
3 12528 12
3 12529 12
3 12530 219
3 12531 50
3 12532 127
3 12533 26
3 12534 11
3 12535 17
3 12536 9
3 12537 78
3 12538 58
3 12539 112
3 12540 59
3 12541 7
3 12542 18
3 12543 8
3 12544 5
3 12545 12
3 12546 35
3 12547 14
3 12548 12
3 12549 41
3 12550 23
3 12551 43
3 12552 15
3 12553 9
3 12554 21
3 12555 85
3 12556 39
3 12557 11
3 12558 18
3 12559 17
3 12560 53
3 12561 31
3 12562 46
3 12563 26
3 12564 22
3 12565 16
3 12566 8
3 12567 7
3 12568 280
3 12569 9
3 12570 16
3 12571 10
3 12572 8
3 12573 15
3 12574 25
3 12575 24
3 12576 4
3 12577 59
3 12578 12
3 12579 30
3 12580 3
3 12581 11
3 12582 14
3 12583 38
3 12584 22
3 12585 55
3 12586 8
3 12587 21
3 12588 75
3 12589 22
3 12590 39
3 12591 21
3 12592 23
3 12593 14
3 12594 17
3 12595 80
3 12596 6
3 12597 57
3 12598 95
3 12599 17
3 12600 8
3 12601 8
3 12602 95
3 12603 117
3 12604 19
3 12605 13
3 12606 28
3 12607 19
3 12608 3
3 12609 20
3 12610 10
3 12611 22
3 12612 31
3 12613 145
3 12614 17
3 12615 68
3 12616 17
3 12617 9
3 12618 12
3 12619 508
3 12620 142
3 12621 9
3 12622 22
3 12623 22
3 12624 12
3 12625 21
3 12626 9
3 12627 13
3 12628 9
3 12629 15
3 12630 5
3 12631 57
3 12632 9
3 12633 22
3 12634 17
3 12635 68
3 12636 39
3 12637 19
3 12638 17
3 12639 9
3 12640 196
3 12641 8
3 12642 108
3 12643 78
3 12644 48
3 12645 16
3 12646 14
3 12647 1
3 12648 7
3 12649 10
3 12650 25
3 12651 8
3 12652 12
3 12653 11
3 12654 11
3 12655 20
3 12656 46
3 12657 9
3 12658 10
3 12659 22
3 12660 11
3 12661 13
3 12662 81
3 12663 22
3 12664 16
3 12665 81
3 12666 529
3 12667 161
3 12668 35
3 12669 8
3 12670 12
3 12671 11
3 12672 79
3 12673 6
3 12674 16
3 12675 64
3 12676 27
3 12677 131
3 12678 17
3 12679 15
3 12680 14
3 12681 5
3 12682 60
3 12683 9
3 12684 15
3 12685 15
3 12686 9
3 12687 39
3 12688 16
3 12689 69
3 12690 82
3 12691 62
3 12692 32
3 12693 11
3 12694 12
3 12695 77
3 12696 8
3 12697 16
3 12698 80
3 12699 29
3 12700 45
3 12701 113
3 12702 91
3 12703 32
3 12704 52
3 12705 109
3 12706 6
3 12707 17
3 12708 58
3 12709 87
3 12710 14
3 12711 40
3 12712 7
3 12713 5
3 12714 6
3 12715 15
3 12716 17
3 12717 110
3 12718 11
3 12719 7
3 12720 21
3 12721 12
3 12722 18
3 12723 11
3 12724 117
3 12725 111
3 12726 8
3 12727 34
3 12728 17
3 12729 25
3 12730 24
3 12731 22
3 12732 30
3 12733 827
3 12734 31
3 12735 28
3 12736 11
3 12737 13
3 12738 4
3 12739 8
3 12740 12
3 12741 23
3 12742 14
3 12743 19
3 12744 19
3 12745 861
3 12746 30
3 12747 111
3 12748 88
3 12749 635
3 12750 67
3 12751 85
3 12752 165
3 12753 9
3 12754 79
3 12755 36
3 12756 93
3 12757 15
3 12758 7
3 12759 15
3 12760 9
3 12761 2
3 12762 88
3 12763 67
3 12764 21
3 12765 35
3 12766 145
3 12767 12
3 12768 15
3 12769 19
3 12770 84
3 12771 74
3 12772 23
3 12773 401
3 12774 12
3 12775 9
3 12776 10
3 12777 17
3 12778 74
3 12779 14
3 12780 15
3 12781 15
3 12782 50
3 12783 7
3 12784 9
3 12785 20
3 12786 14
3 12787 62
3 12788 30
3 12789 8
3 12790 6
3 12791 17
3 12792 15
3 12793 8
3 12794 29
3 12795 11
3 12796 20
3 12797 15
3 12798 97
3 12799 7
3 12800 54
3 12801 16
3 12802 12
3 12803 22
3 12804 11
3 12805 19
3 12806 13
3 12807 5
3 12808 16
3 12809 6
3 12810 9
3 12811 11
3 12812 138
3 12813 11
3 12814 16
3 12815 30
3 12816 14
3 12817 115
3 12818 13
3 12819 14
3 12820 22
3 12821 6
3 12822 9
3 12823 16
3 12824 17
3 12825 10
3 12826 26
3 12827 23
3 12828 9
3 12829 1
3 12830 13
3 12831 63
3 12832 16
3 12833 41
3 12834 7
3 12835 10
3 12836 11
3 12837 12
3 12838 6
3 12839 5
3 12840 12
3 12841 105
3 12842 24
3 12843 11
3 12844 7
3 12845 26
3 12846 203
3 12847 165
3 12848 14
3 12849 14
3 12850 10
3 12851 10
3 12852 7
3 12853 5
3 12854 107
3 12855 14
3 12856 6
3 12857 9
3 12858 80
3 12859 15
3 12860 11
3 12861 48
3 12862 18
3 12863 19
3 12864 19
3 12865 41
3 12866 1141
3 12867 10
3 12868 24
3 12869 15
3 12870 25
3 12871 17
3 12872 20
3 12873 100
3 12874 320
3 12875 16
3 12876 11
3 12877 40
3 12878 18
3 12879 294
3 12880 14
3 12881 19
3 12882 13
3 12883 13
3 12884 155
3 12885 63
3 12886 12
3 12887 25
3 12888 40
3 12889 12
3 12890 85
3 12891 14
3 12892 26
3 12893 110
3 12894 22
3 12895 14
3 12896 79
3 12897 7
3 12898 17
3 12899 8
3 12900 58
3 12901 9
3 12902 11
3 12903 14
3 12904 18
3 12905 26
3 12906 301
3 12907 19
3 12908 14
3 12909 17
3 12910 7
3 12911 19
3 12912 97
3 12913 18
3 12914 19
3 12915 13
3 12916 21
3 12917 12
3 12918 25
3 12919 13
3 12920 7
3 12921 22
3 12922 22
3 12923 23
3 12924 9
3 12925 80
3 12926 12
3 12927 10
3 12928 16
3 12929 23
3 12930 9
3 12931 7
3 12932 25
3 12933 68
3 12934 86
3 12935 99
3 12936 56
3 12937 46
3 12938 25
3 12939 86
3 12940 10
3 12941 15
3 12942 50
3 12943 10
3 12944 28
3 12945 7
3 12946 14
3 12947 38
3 12948 9
3 12949 57
3 12950 40
3 12951 13
3 12952 21
3 12953 7
3 12954 17
3 12955 11
3 12956 104
3 12957 44
3 12958 26
3 12959 49
3 12960 12
3 12961 47
3 12962 10
3 12963 17
3 12964 82
3 12965 18
3 12966 102
3 12967 64
3 12968 11
3 12969 24
3 12970 19
3 12971 9
3 12972 13
3 12973 17
3 12974 11
3 12975 14
3 12976 15
3 12977 3
3 12978 19
3 12979 9
3 12980 17
3 12981 17
3 12982 60
3 12983 12
3 12984 25
3 12985 220
3 12986 11
3 12987 20
3 12988 16
3 12989 15
3 12990 12
3 12991 67
3 12992 8
3 12993 14
3 12994 24
3 12995 14
3 12996 11
3 12997 11
3 12998 13
3 12999 15
3 13000 8
3 13001 131
3 13002 18
3 13003 37
3 13004 27
3 13005 15
3 13006 7
3 13007 42
3 13008 17
3 13009 13
3 13010 33
3 13011 44
3 13012 15
3 13013 15
3 13014 15
3 13015 9
3 13016 22
3 13017 8
3 13018 9
3 13019 23
3 13020 22
3 13021 8
3 13022 17
3 13023 14
3 13024 19
3 13025 18
3 13026 21
3 13027 16
3 13028 27
3 13029 22
3 13030 12
3 13031 14
3 13032 16
3 13033 22
3 13034 49
3 13035 9
3 13036 47
3 13037 18
3 13038 12
3 13039 16
3 13040 8
3 13041 20
3 13042 9
3 13043 13
3 13044 10
3 13045 14
3 13046 24
3 13047 14
3 13048 55
3 13049 11
3 13050 19
3 13051 21
3 13052 7
3 13053 28
3 13054 78
3 13055 84
3 13056 17
3 13057 84
3 13058 9
3 13059 14
3 13060 11
3 13061 12
3 13062 19
3 13063 28
3 13064 8
3 13065 38
3 13066 19
3 13067 20
3 13068 15
3 13069 176
3 13070 9
3 13071 150
3 13072 183
3 13073 4
3 13074 15
3 13075 8
3 13076 30
3 13077 13
3 13078 8
3 13079 70
3 13080 63
3 13081 4
3 13082 15
3 13083 14
3 13084 70
3 13085 19
3 13086 22
3 13087 30
3 13088 62
3 13089 15
3 13090 12
3 13091 20
3 13092 37
3 13093 14
3 13094 19
3 13095 76
3 13096 8
3 13097 729
3 13098 32
3 13099 52
3 13100 8
3 13101 76
3 13102 3
3 13103 83
3 13104 12
3 13105 21
3 13106 22
3 13107 14
3 13108 5
3 13109 15
3 13110 14
3 13111 12
3 13112 78
3 13113 75
3 13114 15
3 13115 37
3 13116 15
3 13117 46
3 13118 57
3 13119 50
3 13120 12
3 13121 145
3 13122 16
3 13123 26
3 13124 4
3 13125 71
3 13126 32
3 13127 18
3 13128 10
3 13129 120
3 13130 8
3 13131 44
3 13132 86
3 13133 19
3 13134 7
3 13135 9
3 13136 15
3 13137 9
3 13138 104
3 13139 11
3 13140 42
3 13141 30
3 13142 19
3 13143 72
3 13144 88
3 13145 10
3 13146 18
3 13147 10
3 13148 15
3 13149 338
3 13150 11
3 13151 41
3 13152 5
3 13153 105
3 13154 23
3 13155 15
3 13156 10
3 13157 53
3 13158 13
3 13159 8
3 13160 8
3 13161 121
3 13162 4
3 13163 43
3 13164 8
3 13165 18
3 13166 10
3 13167 34
3 13168 13
3 13169 5
3 13170 5
3 13171 12
3 13172 11
3 13173 49
3 13174 21
3 13175 31
3 13176 7
3 13177 776
3 13178 9
3 13179 28
3 13180 6
3 13181 8
3 13182 16
3 13183 10
3 13184 6
3 13185 15
3 13186 10
3 13187 13
3 13188 22
3 13189 12
3 13190 15
3 13191 120
3 13192 10
3 13193 20
3 13194 15
3 13195 12
3 13196 16
3 13197 26
3 13198 11
3 13199 5
3 13200 9
3 13201 17
3 13202 16
3 13203 16
3 13204 36
3 13205 18
3 13206 8
3 13207 5
3 13208 31
3 13209 21
3 13210 16
3 13211 5
3 13212 668
3 13213 9
3 13214 8
3 13215 10
3 13216 5
3 13217 4
3 13218 24
3 13219 115
3 13220 4
3 13221 36
3 13222 5
3 13223 3
3 13224 7
3 13225 6
3 13226 23
3 13227 65
3 13228 76
3 13229 17
3 13230 115
3 13231 12
3 13232 15
3 13233 9
3 13234 11
3 13235 81
3 13236 22
3 13237 22
3 13238 16
3 13239 16
3 13240 42
3 13241 10
3 13242 33
3 13243 48
3 13244 40
3 13245 51
3 13246 111
3 13247 22
3 13248 16
3 13249 81
3 13250 8
3 13251 100
3 13252 14
3 13253 5
3 13254 6
3 13255 13
3 13256 13
3 13257 16
3 13258 15
3 13259 6
3 13260 57
3 13261 6
3 13262 96
3 13263 9
3 13264 44
3 13265 35
3 13266 29
3 13267 17
3 13268 4
3 13269 9
3 13270 41
3 13271 11
3 13272 30
3 13273 11
3 13274 54
3 13275 11
3 13276 12
3 13277 60
3 13278 17
3 13279 10
3 13280 17
3 13281 11
3 13282 20
3 13283 12
3 13284 21
3 13285 67
3 13286 15
3 13287 13
3 13288 22
3 13289 15
3 13290 9
3 13291 16
3 13292 45
3 13293 17
3 13294 87
3 13295 104
3 13296 14
3 13297 21
3 13298 8
3 13299 67
3 13300 8
3 13301 10
3 13302 5
3 13303 19
3 13304 7
3 13305 25
3 13306 16
3 13307 13
3 13308 11
3 13309 12
3 13310 71
3 13311 16
3 13312 99
3 13313 11
3 13314 47
3 13315 17
3 13316 19
3 13317 14
3 13318 11
3 13319 9
3 13320 7
3 13321 12
3 13322 4
3 13323 75
3 13324 14
3 13325 93
3 13326 40
3 13327 12
3 13328 11
3 13329 18
3 13330 10
3 13331 116
3 13332 13
3 13333 13
3 13334 44
3 13335 18
3 13336 18
3 13337 1
3 13338 21
3 13339 12
3 13340 18
3 13341 20
3 13342 101
3 13343 18
3 13344 150
3 13345 81
3 13346 21
3 13347 8
3 13348 15
3 13349 58
3 13350 15
3 13351 26
3 13352 160
3 13353 21
3 13354 20
3 13355 44
3 13356 17
3 13357 6
3 13358 15
3 13359 35
3 13360 31
3 13361 56
3 13362 11
3 13363 4
3 13364 38
3 13365 13
3 13366 15
3 13367 13
3 13368 23
3 13369 14
3 13370 44
3 13371 134
3 13372 13
3 13373 6
3 13374 86
3 13375 17
3 13376 14
3 13377 82
3 13378 15
3 13379 138
3 13380 125
3 13381 9
3 13382 7
3 13383 14
3 13384 15
3 13385 60
3 13386 24
3 13387 102
3 13388 44
3 13389 16
3 13390 18
3 13391 18
3 13392 23
3 13393 37
3 13394 33
3 13395 12
3 13396 116
3 13397 76
3 13398 12
3 13399 68
3 13400 24
3 13401 5
3 13402 32
3 13403 7
3 13404 8
3 13405 27
3 13406 114
3 13407 11
3 13408 17
3 13409 258
3 13410 5
3 13411 12
3 13412 18
3 13413 7
3 13414 14
3 13415 17
3 13416 18
3 13417 42
3 13418 4
3 13419 38
3 13420 10
3 13421 26
3 13422 36
3 13423 21
3 13424 42
3 13425 10
3 13426 10
3 13427 22
3 13428 290
3 13429 8
3 13430 20
3 13431 20
3 13432 56
3 13433 8
3 13434 23
3 13435 52
3 13436 7
3 13437 10
3 13438 12
3 13439 34
3 13440 22
3 13441 19
3 13442 58
3 13443 13
3 13444 13
3 13445 19
3 13446 24
3 13447 8
3 13448 13
3 13449 8
3 13450 17
3 13451 5
3 13452 11
3 13453 133
3 13454 71
3 13455 7
3 13456 11
3 13457 30
3 13458 36
3 13459 29
3 13460 15
3 13461 22
3 13462 17
3 13463 29
3 13464 9
3 13465 15
3 13466 24
3 13467 108
3 13468 55
3 13469 15
3 13470 6
3 13471 15
3 13472 92
3 13473 7
3 13474 60
3 13475 19
3 13476 7
3 13477 62
3 13478 16
3 13479 14
3 13480 53
3 13481 73
3 13482 77
3 13483 62
3 13484 60
3 13485 48
3 13486 15
3 13487 17
3 13488 89
3 13489 18
3 13490 14
3 13491 9
3 13492 24
3 13493 7
3 13494 92
3 13495 9
3 13496 65
3 13497 13
3 13498 15
3 13499 14
3 13500 32
3 13501 11
3 13502 11
3 13503 244
3 13504 13
3 13505 14
3 13506 19
3 13507 133
3 13508 27
3 13509 7
3 13510 5
3 13511 76
3 13512 11
3 13513 50
3 13514 15
3 13515 12
3 13516 14
3 13517 50
3 13518 60
3 13519 106
3 13520 7
3 13521 12
3 13522 65
3 13523 28
3 13524 81
3 13525 16
3 13526 104
3 13527 49
3 13528 13
3 13529 16
3 13530 26
3 13531 19
3 13532 15
3 13533 70
3 13534 53
3 13535 18
3 13536 30
3 13537 28
3 13538 39
3 13539 17
3 13540 9
3 13541 375
3 13542 11
3 13543 36
3 13544 17
3 13545 23
3 13546 14
3 13547 47
3 13548 17
3 13549 65
3 13550 17
3 13551 51
3 13552 10
3 13553 48
3 13554 85
3 13555 11
3 13556 10
3 13557 9
3 13558 18
3 13559 108
3 13560 64
3 13561 19
3 13562 8
3 13563 118
3 13564 10
3 13565 80
3 13566 12
3 13567 87
3 13568 10
3 13569 7
3 13570 13
3 13571 7
3 13572 217
3 13573 10
3 13574 14
3 13575 20
3 13576 128
3 13577 13
3 13578 21
3 13579 27
3 13580 7
3 13581 43
3 13582 40
3 13583 12
3 13584 45
3 13585 30
3 13586 10
3 13587 233
3 13588 9
3 13589 7
3 13590 20
3 13591 10
3 13592 57
3 13593 29
3 13594 18
3 13595 73
3 13596 38
3 13597 22
3 13598 14
3 13599 32
3 13600 9
3 13601 17
3 13602 96
3 13603 9
3 13604 274
3 13605 30
3 13606 25
3 13607 92
3 13608 7
3 13609 9
3 13610 7
3 13611 21
3 13612 16
3 13613 19
3 13614 11
3 13615 48
3 13616 17
3 13617 11
3 13618 8
3 13619 18
3 13620 70
3 13621 29
3 13622 65
3 13623 3
3 13624 11
3 13625 10
3 13626 20
3 13627 2
3 13628 12
3 13629 22
3 13630 14
3 13631 133
3 13632 12
3 13633 14
3 13634 9
3 13635 48
3 13636 13
3 13637 92
3 13638 89
3 13639 21
3 13640 20
3 13641 45
3 13642 10
3 13643 15
3 13644 15
3 13645 10
3 13646 7
3 13647 66
3 13648 23
3 13649 23
3 13650 15
3 13651 9
3 13652 22
3 13653 46
3 13654 8
3 13655 40
3 13656 15
3 13657 9
3 13658 81
3 13659 12
3 13660 13
3 13661 18
3 13662 27
3 13663 15
3 13664 8
3 13665 15
3 13666 58
3 13667 27
3 13668 21
3 13669 381
3 13670 64
3 13671 12
3 13672 24
3 13673 47
3 13674 17
3 13675 19
3 13676 7
3 13677 19
3 13678 13
3 13679 12
3 13680 12
3 13681 48
3 13682 15
3 13683 12
3 13684 5
3 13685 14
3 13686 13
3 13687 5
3 13688 10
3 13689 22
3 13690 14
3 13691 26
3 13692 19
3 13693 22
3 13694 18
3 13695 8
3 13696 67
3 13697 90
3 13698 77
3 13699 72
3 13700 34
3 13701 18
3 13702 88
3 13703 6
3 13704 8
3 13705 20
3 13706 6
3 13707 6
3 13708 8
3 13709 23
3 13710 49
3 13711 62
3 13712 8
3 13713 13
3 13714 25
3 13715 5
3 13716 75
3 13717 12
3 13718 6
3 13719 24
3 13720 150
3 13721 18
3 13722 12
3 13723 8
3 13724 14
3 13725 8
3 13726 13
3 13727 9
3 13728 72
3 13729 19
3 13730 59
3 13731 14
3 13732 43
3 13733 15
3 13734 55
3 13735 6
3 13736 28
3 13737 20
3 13738 17
3 13739 8
3 13740 11
3 13741 6
3 13742 14
3 13743 21
3 13744 14
3 13745 45
3 13746 49
3 13747 14
3 13748 9
3 13749 68
3 13750 3
3 13751 91
3 13752 19
3 13753 15
3 13754 15
3 13755 14
3 13756 18
3 13757 3
3 13758 12
3 13759 11
3 13760 15
3 13761 12
3 13762 7
3 13763 9
3 13764 10
3 13765 11
3 13766 22
3 13767 39
3 13768 14
3 13769 19
3 13770 214
3 13771 11
3 13772 10
3 13773 10
3 13774 14
3 13775 40
3 13776 9
3 13777 16
3 13778 63
3 13779 22
3 13780 9
3 13781 28
3 13782 9
3 13783 9
3 13784 8
3 13785 13
3 13786 14
3 13787 52
3 13788 100
3 13789 56
3 13790 11
3 13791 5
3 13792 13
3 13793 4
3 13794 13
3 13795 6
3 13796 22
3 13797 23
3 13798 13
3 13799 88
3 13800 82
3 13801 13
3 13802 22
3 13803 14
3 13804 15
3 13805 115
3 13806 16
3 13807 76
3 13808 15
3 13809 79
3 13810 20
3 13811 20
3 13812 6
3 13813 10
3 13814 118
3 13815 23
3 13816 5
3 13817 10
3 13818 31
3 13819 19
3 13820 190
3 13821 13
3 13822 61
3 13823 27
3 13824 137
3 13825 15
3 13826 12
3 13827 8
3 13828 11
3 13829 28
3 13830 23
3 13831 13
3 13832 7
3 13833 41
3 13834 25
3 13835 18
3 13836 4
3 13837 33
3 13838 13
3 13839 9
3 13840 7
3 13841 7
3 13842 26
3 13843 8
3 13844 18
3 13845 11
3 13846 15
3 13847 8
3 13848 16
3 13849 40
3 13850 10
3 13851 14
3 13852 65
3 13853 10
3 13854 9
3 13855 8
3 13856 15
3 13857 12
3 13858 6
3 13859 10
3 13860 84
3 13861 9
3 13862 9
3 13863 13
3 13864 24
3 13865 7
3 13866 13
3 13867 23
3 13868 19
3 13869 9
3 13870 9
3 13871 95
3 13872 16
3 13873 17
3 13874 11
3 13875 8
3 13876 73
3 13877 18
3 13878 7
3 13879 11
3 13880 9
3 13881 11
3 13882 136
3 13883 1054
3 13884 87
3 13885 23
3 13886 20
3 13887 17
3 13888 8
3 13889 7
3 13890 14
3 13891 59
3 13892 12
3 13893 60
3 13894 15
3 13895 15
3 13896 9
3 13897 9
3 13898 300
3 13899 19
3 13900 17
3 13901 9
3 13902 8
3 13903 19
3 13904 22
3 13905 17
3 13906 14
3 13907 29
3 13908 15
3 13909 29
3 13910 24
3 13911 18
3 13912 13
3 13913 10
3 13914 6
3 13915 7
3 13916 12
3 13917 9
3 13918 20
3 13919 9
3 13920 14
3 13921 196
3 13922 93
3 13923 54
3 13924 45
3 13925 8
3 13926 9
3 13927 19
3 13928 19
3 13929 8
3 13930 12
3 13931 29
3 13932 15
3 13933 11
3 13934 16
3 13935 18
3 13936 14
3 13937 8
3 13938 75
3 13939 18
3 13940 64
3 13941 13
3 13942 11
3 13943 38
3 13944 22
3 13945 18
3 13946 14
3 13947 13
3 13948 13
3 13949 16
3 13950 103
3 13951 1018
3 13952 9
3 13953 135
3 13954 168
3 13955 12
3 13956 165
3 13957 7
3 13958 85
3 13959 15
3 13960 15
3 13961 5
3 13962 50
3 13963 99
3 13964 75
3 13965 19
3 13966 10
3 13967 6
3 13968 8
3 13969 19
3 13970 13
3 13971 53
3 13972 14
3 13973 58
3 13974 16
3 13975 18
3 13976 16
3 13977 10
3 13978 9
3 13979 14
3 13980 9
3 13981 1051
3 13982 15
3 13983 51
3 13984 75
3 13985 70
3 13986 85
3 13987 99
3 13988 7
3 13989 15
3 13990 17
3 13991 15
3 13992 99
3 13993 18
3 13994 11
3 13995 71
3 13996 13
3 13997 28
3 13998 13
3 13999 17
3 14000 11
3 14001 9
3 14002 104
3 14003 12
3 14004 17
3 14005 102
3 14006 15
3 14007 16
3 14008 36
3 14009 17
3 14010 81
3 14011 30
3 14012 28
3 14013 60
3 14014 14
3 14015 13
3 14016 46
3 14017 38
3 14018 7
3 14019 58
3 14020 86
3 14021 9
3 14022 12
3 14023 8
3 14024 25
3 14025 41
3 14026 48
3 14027 13
3 14028 14
3 14029 8
3 14030 612
3 14031 82
3 14032 15
3 14033 24
3 14034 16
3 14035 45
3 14036 41
3 14037 179
3 14038 1
3 14039 17
3 14040 9
3 14041 21
3 14042 10
3 14043 56
3 14044 128
3 14045 24
3 14046 71
3 14047 16
3 14048 8
3 14049 63
3 14050 11
3 14051 23
3 14052 15
3 14053 69
3 14054 13
3 14055 13
3 14056 17
3 14057 14
3 14058 11
3 14059 82
3 14060 117
3 14061 96
3 14062 7
3 14063 9
3 14064 21
3 14065 87
3 14066 66
3 14067 12
3 14068 16
3 14069 9
3 14070 12
3 14071 206
3 14072 15
3 14073 8
3 14074 20
3 14075 1
3 14076 1
3 14078 13
3 14080 21
3 14081 13
3 14082 7
3 14083 8
3 14084 13
3 14085 11
3 14086 67
3 14087 22
3 14088 134
3 14089 21
3 14090 223
3 14091 35
3 14092 186
3 14093 4
3 14094 27
3 14095 17
3 14096 43
3 14097 23
3 14098 19
3 14099 11
3 14100 15
3 14101 13
3 14102 7
3 14103 15
3 14104 13
3 14105 23
3 14106 7
3 14107 6
3 14108 9
3 14109 1212
3 14110 95
3 14111 5
3 14112 25
3 14113 22
3 14114 127
3 14115 44
3 14116 17
3 14117 50
3 14118 7
3 14119 16
3 14120 11
3 14121 65
3 14122 20
3 14123 16
3 14124 170
3 14125 35
3 14126 4
3 14127 12
3 14128 16
3 14129 11
3 14130 56
3 14131 45
3 14132 10
3 14133 11
3 14134 49
3 14135 7
3 14136 25
3 14137 17
3 14138 51
3 14139 16
3 14140 12
3 14141 21
3 14142 77
3 14143 21
3 14144 110
3 14145 15
3 14146 24
3 14147 68
3 14148 21
3 14149 8
3 14150 7
3 14151 89
3 14152 12
3 14153 14
3 14154 7
3 14155 12
3 14156 4
3 14157 12
3 14158 7
3 14159 10
3 14160 21
3 14161 35
3 14162 10
3 14163 159
3 14164 12
3 14165 58
3 14166 17
3 14167 43
3 14168 53
3 14169 29
3 14170 26
3 14171 15
3 14172 6
3 14173 49
3 14174 3
3 14175 12
3 14176 73
3 14177 32
3 14178 38
3 14179 10
3 14180 11
3 14181 8
3 14182 10
3 14183 43
3 14184 12
3 14185 11
3 14186 42
3 14187 20
3 14188 22
3 14189 47
3 14190 32
3 14191 10
3 14192 14
3 14193 21
3 14194 58
3 14195 18
3 14196 13
3 14197 3
3 14198 53
3 14199 173
3 14200 15
3 14201 72
3 14202 10
3 14203 9
3 14204 16
3 14205 87
3 14206 3
3 14207 147
3 14208 12
3 14209 609
3 14210 10
3 14211 8
3 14212 42
3 14213 70
3 14214 52
3 14215 27
3 14216 6
3 14217 11
3 14218 11
3 14219 97
3 14220 15
3 14221 3
3 14222 11
3 14223 13
3 14224 41
3 14225 6
3 14226 9
3 14227 89
3 14228 10
3 14229 16
3 14230 20
3 14231 13
3 14232 7
3 14233 49
3 14234 223
3 14235 53
3 14236 11
3 14237 8
3 14238 64
3 14239 9
3 14240 4
3 14241 28
3 14242 86
3 14243 6
3 14244 10
3 14245 54
3 14246 9
3 14247 32
3 14248 10
3 14249 11
3 14250 1056
3 14251 145
3 14252 12
3 14253 11
3 14254 95
3 14255 10
3 14256 15
3 14257 26
3 14258 9
3 14259 7
3 14260 36
3 14261 3
3 14262 28
3 14263 12
3 14264 14
3 14265 12
3 14266 10
3 14267 21
3 14268 14
3 14270 140
3 14271 15
3 14272 16
3 14273 13
3 14274 12
3 14275 11
3 14276 45
3 14277 16
3 14278 163
3 14279 161
3 14280 33
3 14281 13
3 14282 20
3 14283 163
3 14284 82
3 14285 14
3 14286 123
3 14287 12
3 14288 301
3 14289 9
3 14290 22
3 14291 13
3 14292 7
3 14293 21
3 14294 212
3 14295 61
3 14296 71
3 14297 20
3 14298 9
3 14299 15
3 14300 15
3 14301 74
3 14302 23
3 14303 10
3 14304 12
3 14305 98
3 14306 20
3 14307 13
3 14308 11
3 14309 13
3 14310 12
3 14311 14
3 14312 103
3 14313 12
3 14314 14
3 14315 8
3 14316 17
3 14317 11
3 14318 28
3 14319 10
3 14320 103
3 14321 116
3 14322 45
3 14323 44
3 14324 11
3 14325 17
3 14326 11
3 14327 15
3 14328 8
3 14329 13
3 14330 88
3 14331 8
3 14332 9
3 14333 12
3 14334 15
3 14335 59
3 14336 11
3 14337 14
3 14338 16
3 14339 19
3 14340 10
3 14341 77
3 14342 14
3 14343 11
3 14344 10
3 14345 17
3 14346 13
3 14347 20
3 14348 22
3 14349 17
3 14350 9
3 14351 57
3 14352 9
3 14353 6
3 14354 21
3 14355 10
3 14356 16
3 14357 51
3 14358 13
3 14359 33
3 14360 14
3 14361 12
3 14362 15
3 14363 14
3 14364 16
3 14365 9
3 14366 18
3 14367 244
3 14368 24
3 14369 15
3 14370 3
3 14371 97
3 14372 28
3 14373 16
3 14374 13
3 14375 15
3 14376 7
3 14377 16
3 14378 19
3 14379 8
3 14380 117
3 14381 97
3 14382 30
3 14383 5
3 14384 13
3 14385 21
3 14386 7
3 14387 68
3 14388 52
3 14389 37
3 14390 11
3 14391 17
3 14392 6
3 14393 14
3 14394 16
3 14395 12
3 14396 99
3 14397 12
3 14398 77
3 14399 14
3 14400 95
3 14401 26
3 14402 20
3 14403 15
3 14404 18
3 14405 17
3 14406 55
3 14407 8
3 14408 13
3 14409 7
3 14410 55
3 14411 16
3 14412 13
3 14413 111
3 14414 12
3 14415 19
3 14416 21
3 14417 16
3 14418 14
3 14419 8
3 14420 78
3 14421 51
3 14422 9
3 14423 7
3 14424 14
3 14425 25
3 14426 26
3 14427 29
3 14428 15
3 14429 8
3 14430 233
3 14431 21
3 14432 12
3 14433 6
3 14434 96
3 14435 41
3 14436 8
3 14437 7
3 14438 13
3 14439 9
3 14440 18
3 14441 25
3 14442 53
3 14443 20
3 14444 5
3 14445 6
3 14446 182
3 14447 83
3 14448 11
3 14449 14
3 14450 16
3 14451 87
3 14452 12
3 14453 109
3 14454 15
3 14455 159
3 14456 92
3 14457 11
3 14458 7
3 14459 38
3 14460 17
3 14461 113
3 14462 12
3 14463 11
3 14464 21
3 14465 8
3 14466 13
3 14467 20
3 14468 6
3 14469 18
3 14470 21
3 14471 51
3 14472 9
3 14473 6
3 14474 43
3 14475 10
3 14476 14
3 14477 10
3 14478 73
3 14479 58
3 14480 48
3 14481 20
3 14482 32
3 14483 15
3 14484 9
3 14485 45
3 14486 32
3 14487 60
3 14488 4
3 14489 44
3 14490 13
3 14491 46
3 14492 30
3 14493 38
3 14494 16
3 14495 10
3 14496 15
3 14497 8
3 14498 7
3 14499 9
3 14500 12
3 14501 32
3 14502 6
3 14503 9
3 14504 22
3 14505 18
3 14506 8
3 14507 11
3 14508 20
3 14509 4
3 14510 155
3 14511 15
3 14512 21
3 14513 44
3 14514 85
3 14515 15
3 14516 9
3 14517 26
3 14518 13
3 14519 11
3 14520 37
3 14521 28
3 14522 9
3 14523 88
3 14524 44
3 14525 15
3 14526 13
3 14527 23
3 14528 12
3 14529 213
3 14530 11
3 14531 14
3 14532 7
3 14533 35
3 14534 122
3 14535 20
3 14536 18
3 14537 18
3 14538 751
3 14539 8
3 14540 7
3 14541 111
3 14542 14
3 14543 19
3 14544 7
3 14545 62
3 14546 74
3 14547 86
3 14548 10
3 14549 963
3 14550 7
3 14551 36
3 14552 7
3 14553 74
3 14554 12
3 14555 18
3 14556 26
3 14557 24
3 14558 13
3 14559 21
3 14560 24
3 14561 21
3 14562 28
3 14563 22
3 14564 22
3 14565 14
3 14566 59
3 14567 24
3 14568 7
3 14569 16
3 14570 7
3 14571 92
3 14572 16
3 14573 17
3 14574 76
3 14575 21
3 14576 14
3 14577 19
3 14578 46
3 14579 16
3 14580 9
3 14581 29
3 14582 8
3 14583 63
3 14584 16
3 14585 9
3 14586 12
3 14587 10
3 14588 14
3 14589 45
3 14590 16
3 14591 17
3 14592 12
3 14593 12
3 14594 17
3 14595 20
3 14596 10
3 14597 14
3 14598 16
3 14599 46
3 14600 15
3 14601 81
3 14602 23
3 14603 15
3 14604 5
3 14605 15
3 14606 12
3 14607 10
