%%MatrixMarket matrix coordinate integer general
%
8 5159 36009
1 1 4
1 2 2
1 3 2
1 4 1
1 5 1097
1 6 1715
1 7 2
1 9 1
1 10 3
1 11 85
1 13 8
1 14 2
1 15 1
1 16 2
1 17 4
1 18 1
1 19 2
1 21 750
1 22 1
1 23 3
1 24 3
1 25 692
1 26 2
1 27 9
1 29 1
1 30 7
1 31 5
1 32 10
1 33 2
1 34 1
1 35 2
1 36 1
1 37 2
1 38 1
1 39 1
1 40 4
1 41 2
1 42 950
1 43 3
1 44 2
1 45 3
1 46 5
1 47 1
1 48 11
1 49 4359
1 50 8
1 51 3
1 52 1
1 53 743
1 54 55
1 56 2
1 57 2
1 59 1
1 60 2
1 61 580
1 62 13
1 63 1
1 64 3
1 65 9
1 66 1
1 67 2
1 68 2724
1 69 6
1 71 2
1 72 3
1 74 7531
1 75 1645
1 76 2
1 77 873
1 79 1
1 80 2
1 81 1
1 82 5
1 84 3
1 86 4
1 87 2
1 90 1
1 91 3
1 93 1
1 94 802
1 95 2
1 96 578
1 97 2
1 100 2
1 101 7
1 102 1
1 103 2
1 104 3
1 105 4
1 106 3
1 108 14
1 109 2
1 110 1019
1 111 2
1 112 2
1 113 2
1 114 3
1 115 3
1 116 1
1 117 2
1 118 5
1 119 3
1 120 5
1 121 2
1 122 1
1 123 1
1 124 3
1 125 2
1 126 1523
1 127 3
1 129 897
1 130 4
1 131 2
1 135 4
1 136 1
1 137 1
1 139 4
1 140 5
1 141 3
1 142 67
1 143 1
1 144 5
1 145 1115
1 146 2
1 147 468
1 148 5
1 149 2
1 150 1
1 151 6
1 153 6
1 154 1
1 155 5
1 156 6
1 157 2
1 158 3
1 159 1
1 160 5
1 161 1
1 162 1
1 163 3
1 165 2
1 166 5
1 167 3
1 168 867
1 169 7
1 170 1
1 171 2
1 172 2
1 175 1
1 176 5
1 177 1
1 178 6
1 179 1
1 180 1
1 181 1
1 182 2
1 185 3
1 186 6
1 188 2
1 189 6
1 190 5
1 192 2
1 193 3
1 195 1
1 196 7
1 198 1
1 199 3
1 200 14
1 201 3
1 202 7
1 204 897
1 205 1
1 206 4
1 208 6
1 209 2
1 210 7
1 211 1007
1 212 1
1 213 1
1 214 2
1 216 4
1 217 1
1 219 1
1 220 2
1 221 2
1 223 2
1 224 1
1 225 9
1 226 2
1 227 5
1 228 7
1 230 2
1 231 2
1 232 3
1 233 13
1 235 2
1 239 1
1 240 2
1 241 1
1 242 2
1 243 2
1 244 1750
1 245 2
1 246 2
1 247 1560
1 248 2
1 249 1
1 250 19
1 251 4
1 253 3
1 254 3
1 260 7
1 261 3
1 262 3
1 263 5
1 264 770
1 266 1
1 268 6
1 269 1
1 270 832
1 271 3
1 272 851
1 273 2
1 274 1
1 275 1
1 276 751
1 278 1
1 279 1
1 280 1992
1 281 2
1 282 570
1 283 1
1 284 1
1 285 2
1 286 3
1 287 2
1 289 9
1 290 13
1 291 2
1 292 409
1 293 624
1 294 4
1 295 10
1 296 2
1 297 3
1 298 5
1 299 4
1 300 3
1 301 3
1 302 2
1 303 1
1 304 740
1 305 1
1 306 2
1 307 1
1 308 1
1 309 1
1 310 2
1 311 3
1 312 2
1 313 1
1 314 3
1 315 3
1 316 1256
1 317 3
1 319 1
1 321 2
1 322 1150
1 323 3
1 324 1
1 326 3
1 327 1
1 329 970
1 330 14
1 331 2193
1 332 4
1 333 1
1 334 1
1 335 2
1 336 3
1 338 5
1 339 1
1 340 2
1 341 2
1 342 1
1 344 1117
1 345 1
1 346 1
1 347 3
1 348 3
1 350 3
1 351 1192
1 352 4
1 353 2
1 355 5
1 356 1335
1 357 1
1 358 1
1 359 2
1 360 1
1 361 6
1 362 9
1 363 1
1 364 1
1 365 4
1 366 11
1 367 1
1 368 1832
1 370 8
1 371 8
1 372 4
1 373 2
1 374 7
1 375 2
1 378 1
1 379 1
1 380 1
1 381 1
1 382 2
1 384 1
1 385 2
1 386 16
1 387 795
1 388 5
1 389 2
1 391 8
1 392 1
1 393 2
1 394 4
1 395 5
1 397 1527
1 398 4
1 399 1
1 400 3
1 401 271
1 402 1
1 403 2
1 404 1
1 405 1
1 406 4
1 407 2
1 408 1
1 409 442
1 410 4
1 411 1
1 412 1468
1 413 2
1 414 227
1 415 1
1 416 1529
1 417 1
1 418 1
1 419 4
1 421 3
1 422 1
1 423 4
1 424 2682
1 425 2
1 426 2
1 427 2
1 428 7
1 429 1
1 430 2
1 432 1
1 433 6
1 434 1
1 435 3
1 436 908
1 437 2
1 438 4
1 439 612
1 440 2
1 442 3
1 443 990
1 444 1
1 445 915
1 446 1
1 447 3
1 448 3
1 449 12
1 450 1
1 451 831
1 453 4
1 454 18
1 455 4
1 456 1
1 457 3
1 458 2
1 459 3
1 460 2
1 461 5
1 462 2
1 464 4
1 465 4
1 466 1
1 467 1
1 468 5
1 469 6
1 471 1
1 472 2
1 473 1
1 474 1
1 475 1
1 476 18
1 478 5
1 479 2
1 481 3
1 482 1
1 483 2
1 484 9
1 485 1
1 488 1
1 490 1
1 491 9
1 492 3
1 496 1391
1 497 6
1 498 4
1 499 2
1 502 2
1 503 1
1 504 1
1 505 1
1 506 3
1 507 1
1 508 1
1 509 2
1 510 19
1 511 1
1 512 2
1 514 922
1 516 5
1 517 1
1 518 1219
1 519 5
1 520 3
1 521 2
1 522 2
1 523 3
1 524 3
1 525 2
1 526 2
1 527 1
1 528 12
1 529 1025
1 530 6
1 531 2
1 532 15
1 533 1
1 535 2
1 538 2179
1 539 895
1 540 5
1 541 4
1 542 2
1 543 6
1 544 1
1 545 1014
1 546 3
1 547 1
1 548 3
1 549 1
1 550 391
1 552 2
1 553 2
1 554 3
1 555 1
1 556 2285
1 557 13
1 558 5
1 559 5
1 560 1
1 561 3
1 562 667
1 563 2
1 564 3
1 565 4
1 566 4
1 567 2
1 568 2
1 569 3
1 570 4
1 571 5
1 572 1
1 573 8
1 574 1
1 575 1920
1 576 706
1 577 4
1 578 649
1 580 1
1 581 5
1 584 8
1 586 607
1 588 4
1 589 2
1 590 4
1 591 1
1 592 1
1 593 2610
1 595 1
1 596 2
1 597 5
1 599 2
1 600 5
1 601 1
1 602 1
1 604 1
1 605 2
1 606 3
1 607 8
1 608 1
1 609 3
1 610 1
1 611 2
1 613 2
1 614 1
1 615 2
1 616 4
1 619 6
1 620 3
1 621 5
1 622 7
1 623 3
1 624 1
1 625 6
1 626 2922
1 627 3
1 628 1
1 629 5
1 630 2
1 631 3
1 632 1
1 633 1504
1 634 2
1 635 2
1 636 4
1 637 1045
1 638 1
1 639 3
1 640 7
1 642 3
1 643 3
1 644 1
1 645 2
1 646 3
1 647 1
1 648 3
1 649 3
1 650 2
1 651 3
1 652 2
1 653 415
1 654 2
1 655 1
1 656 2
1 657 1
1 660 2
1 661 3
1 662 4
1 663 1
1 664 1
1 665 1
1 666 5
1 667 3
1 668 2
1 669 5
1 670 3
1 671 1
1 673 1143
1 674 3234
1 675 1
1 676 7
1 677 3
1 678 437
1 679 1
1 680 4
1 681 2
1 682 3
1 683 1
1 684 1
1 685 1
1 686 2
1 688 1
1 689 7
1 690 1
1 691 2
1 693 2
1 694 3
1 697 3
1 699 4
1 700 3
1 703 1
1 704 1
1 705 1
1 706 2
1 707 8
1 708 5
1 710 8
1 711 343
1 712 8
1 713 3
1 714 1
1 715 1
1 716 2
1 718 1
1 720 4
1 721 2
1 722 1
1 723 5
1 724 1
1 725 1
1 726 1
1 727 11
1 728 5
1 729 4
1 730 2
1 731 5
1 732 995
1 734 1
1 735 3
1 736 3
1 738 1
1 739 1
1 740 3
1 742 1
1 743 2
1 744 2866
1 745 2
1 746 4
1 748 1
1 749 2
1 750 4
1 753 2
1 754 4
1 755 4
1 756 11
1 757 4
1 758 3
1 760 2
1 762 2
1 763 2
1 764 2
1 765 1
1 766 3
1 767 4
1 768 1023
1 769 740
1 770 2
1 771 584
1 772 1180
1 773 1113
1 774 1
1 775 2
1 776 5
1 777 4
1 778 1
1 779 5
1 780 1
1 781 1
1 782 2
1 783 2
1 786 420
1 787 3
1 788 47
1 789 1
1 790 2
1 791 1
1 792 2
1 793 471
1 794 2
1 795 3
1 796 2
1 797 3
1 798 159
1 799 2
1 800 4
1 801 2
1 802 2
1 803 4
1 804 1
1 805 5
1 806 1
1 807 2
1 809 2391
1 811 3
1 812 24
1 813 740
1 814 6
1 815 2
1 816 1043
1 817 147
1 818 3
1 820 1343
1 821 2031
1 823 1
1 824 1261
1 825 2
1 826 1
1 827 2
1 830 3
1 831 2
1 832 2
1 833 3
1 834 1
1 835 2
1 836 1
1 837 2
1 838 3029
1 839 2
1 840 3
1 842 3942
1 843 2
1 844 3714
1 845 3
1 846 326
1 847 2
1 849 3
1 850 2
1 851 1
1 852 10
1 853 1
1 854 859
1 855 1
1 856 3
1 857 384
1 858 3
1 860 5
1 861 7
1 862 10
1 863 3
1 864 2
1 865 2
1 868 2
1 869 2
1 870 2
1 871 1558
1 872 1
1 873 1
1 874 2
1 875 1
1 876 5
1 877 6
1 878 2
1 879 1
1 880 10
1 881 9
1 882 4
1 883 1
1 884 3
1 885 3
1 888 2
1 889 2261
1 890 2
1 892 1
1 893 1
1 894 537
1 895 2
1 896 2
1 897 2
1 898 4
1 899 1
1 900 2
1 902 1
1 904 4
1 906 943
1 908 3201
1 909 848
1 910 2
1 911 1457
1 912 2
1 913 1
1 914 3
1 916 2
1 917 2
1 918 35
1 919 4
1 920 4
1 921 2
1 922 1
1 923 952
1 924 11
1 925 2
1 926 2
1 927 393
1 928 4
1 929 2078
1 931 11
1 933 5
1 935 1
1 936 337
1 937 2
1 938 3
1 939 1
1 940 7
1 941 3
1 944 2
1 945 2
1 946 1226
1 947 600
1 948 5
1 949 2
1 950 1704
1 951 3
1 952 621
1 953 2
1 954 808
1 955 2
1 956 2
1 957 2
1 958 1
1 959 1661
1 961 6
1 962 3
1 963 5
1 964 7465
1 965 5
1 966 2
1 967 2975
1 968 2
1 970 2
1 971 1
1 972 6
1 973 1
1 974 2
1 975 2
1 977 5
1 978 1026
1 979 2
1 980 1
1 981 1
1 983 844
1 984 7
1 985 4
1 986 2
1 987 5
1 989 5
1 990 4
1 992 4
1 993 1
1 994 2
1 995 5
1 996 6
1 997 2114
1 998 1
1 999 3
1 1000 3
1 1001 5
1 1002 2
1 1003 5
1 1004 1
1 1005 1
1 1006 5
1 1007 4
1 1008 1337
1 1009 1
1 1010 1
1 1011 5
1 1012 4
1 1013 3
1 1014 4
1 1015 3
1 1016 2
1 1017 3
1 1018 4
1 1019 6
1 1020 311
1 1024 6
1 1025 2
1 1027 7
1 1028 1
1 1029 2
1 1030 2
1 1031 5
1 1032 1
1 1033 3
1 1034 1
1 1035 3
1 1036 2
1 1038 891
1 1039 7
1 1040 1029
1 1041 3
1 1042 2
1 1043 2
1 1044 2
1 1045 6
1 1046 3
1 1048 334
1 1049 842
1 1050 1
1 1051 8
1 1052 1
1 1053 8
1 1054 1
1 1056 3
1 1057 3
1 1059 5
1 1060 3
1 1061 3
1 1062 2
1 1063 1
1 1064 2
1 1065 3
1 1066 2
1 1067 4
1 1068 3116
1 1069 261
1 1070 4
1 1071 2
1 1072 5
1 1073 1
1 1077 2
1 1078 1
1 1079 2
1 1080 2
1 1081 2
1 1082 1
1 1083 7
1 1085 2
1 1086 595
1 1087 2
1 1088 2042
1 1089 3521
1 1090 741
1 1091 1
1 1093 1
1 1094 2
1 1096 1
1 1097 3
1 1098 7
1 1099 555
1 1100 1
1 1101 2
1 1102 2
1 1103 1
1 1104 1
1 1105 2
1 1106 1
1 1107 2
1 1108 1
1 1109 1
1 1110 3
1 1112 3
1 1113 1
1 1114 2
1 1115 1
1 1116 4
1 1117 3
1 1118 1
1 1119 3
1 1120 2
1 1121 2
1 1122 3
1 1123 1
1 1124 1
1 1125 1061
1 1128 278
1 1129 1080
1 1130 4
1 1131 4
1 1132 1
1 1133 1
1 1134 4
1 1136 2
1 1137 4
1 1138 3
1 1140 2
1 1141 4
1 1142 653
1 1143 3604
1 1144 4
1 1145 1
1 1146 4
1 1147 10
1 1149 3
1 1150 3
1 1151 3
1 1152 4
1 1153 3
1 1154 3
1 1155 4
1 1156 1
1 1157 1
1 1158 952
1 1159 967
1 1160 2
1 1162 7
1 1163 4
1 1164 3
1 1165 4
1 1166 7
1 1168 2
1 1169 3
1 1170 1
1 1171 1
1 1172 2
1 1173 2
1 1174 4
1 1175 1
1 1176 9
1 1177 3
1 1179 7
1 1181 1
1 1182 3
1 1183 1
1 1184 1
1 1185 3
1 1186 1
1 1187 2
1 1188 1
1 1189 1
1 1190 3
1 1191 4
1 1192 5
1 1193 1082
1 1194 3
1 1195 2
1 1196 1
1 1197 2
1 1199 2
1 1204 1
1 1205 4
1 1206 7
1 1207 5
1 1209 4
1 1210 1836
1 1211 3
1 1214 2
1 1215 2
1 1216 9
1 1217 2
1 1218 1
1 1221 2
1 1222 1095
1 1223 2
1 1224 4
1 1225 653
1 1227 4
1 1229 4
1 1230 3
1 1232 3
1 1233 17
1 1236 13
1 1237 3
1 1238 3
1 1240 4
1 1241 2
1 1242 1826
1 1243 2
1 1244 6
1 1245 4
1 1246 2
1 1247 2
1 1248 20
1 1249 3
1 1250 2
1 1252 5
1 1253 5
1 1254 1635
1 1255 5
1 1256 1
1 1257 4
1 1258 1
1 1259 1
1 1260 2443
1 1261 4
1 1262 932
1 1263 17
1 1264 1263
1 1265 1
1 1266 632
1 1267 1
1 1269 3
1 1270 1130
1 1271 1
1 1272 2
1 1273 3
1 1274 2377
1 1275 1
1 1276 1
1 1278 3
1 1279 2
1 1281 1
1 1282 2
1 1283 2
1 1285 3
1 1286 4
1 1287 2
1 1288 1
1 1289 2
1 1290 3
1 1291 2
1 1292 2
1 1293 2
1 1294 2
1 1297 9
1 1298 2
1 1299 571
1 1300 12
1 1301 1
1 1302 3
1 1303 2463
1 1304 2
1 1305 742
1 1306 3
1 1307 3
1 1308 3
1 1309 2
1 1310 3
1 1311 6
1 1312 7
1 1313 3
1 1314 9
1 1315 2
1 1316 1
1 1317 749
1 1319 3
1 1320 808
1 1321 1086
1 1322 1
1 1323 2
1 1324 1196
1 1325 2
1 1326 2844
1 1327 4
1 1328 5
1 1329 3
1 1333 1699
1 1334 2
1 1335 4
1 1336 8
1 1337 3
1 1338 8
1 1339 4
1 1340 1
1 1341 4
1 1342 560
1 1343 1
1 1344 1560
1 1345 6
1 1346 5
1 1347 1
1 1350 1
1 1351 1
1 1352 1
1 1353 796
1 1356 1
1 1357 1366
1 1359 1
1 1360 2
1 1361 4
1 1362 5
1 1363 2051
1 1364 3
1 1365 938
1 1366 1
1 1367 2
1 1368 1
1 1370 13
1 1371 3
1 1373 7
1 1374 4
1 1375 5
1 1376 3
1 1377 742
1 1378 2
1 1379 1
1 1380 1
1 1382 3
1 1383 3
1 1385 3
1 1386 1
1 1388 6
1 1389 1
1 1390 2
1 1391 4
1 1393 4
1 1394 3
1 1395 5
1 1396 4
1 1397 4
1 1398 5
1 1399 1
1 1400 4
1 1401 1
1 1402 4
1 1404 1
1 1405 1
1 1408 2
1 1409 1
1 1410 3
1 1411 3
1 1413 2
1 1414 2
1 1415 3
1 1416 1
1 1417 1
1 1418 2
1 1419 1679
1 1420 3
1 1421 3
1 1422 7
1 1423 1
1 1424 3
1 1425 2
1 1426 6
1 1427 2
1 1428 2
1 1430 5
1 1431 10
1 1432 1
1 1434 3
1 1435 2573
1 1436 2
1 1437 1
1 1438 3
1 1440 2
1 1441 2
1 1443 5
1 1446 2
1 1452 2
1 1453 2
1 1454 1
1 1455 4
1 1456 5
1 1457 2
1 1458 2
1 1459 2
1 1460 757
1 1461 5
1 1462 1
1 1466 382
1 1468 893
1 1469 4
1 1470 2
1 1471 738
1 1472 5
1 1473 2
1 1474 5
1 1475 1
1 1476 4
1 1477 1
1 1478 1
1 1479 605
1 1480 3
1 1481 2
1 1482 3
1 1483 2
1 1484 6
1 1485 1
1 1488 1
1 1489 1
1 1490 2784
1 1491 19
1 1492 8
1 1493 4
1 1494 2
1 1495 1974
1 1497 3
1 1498 2
1 1499 2
1 1500 2
1 1502 2
1 1503 5
1 1504 2
1 1505 2
1 1506 6
1 1507 9
1 1508 163
1 1510 31
1 1511 1
1 1512 4
1 1514 981
1 1515 4
1 1516 1
1 1517 5
1 1519 1797
1 1520 1
1 1521 1
1 1524 2
1 1525 4
1 1526 3
1 1527 3501
1 1528 2
1 1529 1
1 1531 1059
1 1533 2
1 1534 1
1 1535 4
1 1536 2
1 1538 4
1 1539 1288
1 1540 2
1 1542 148
1 1543 5
1 1544 1
1 1545 4
1 1546 3
1 1547 5
1 1549 4
1 1550 7
1 1552 1
1 1553 3
1 1554 2
1 1555 9
1 1556 2
1 1557 2
1 1558 1020
1 1560 4
1 1562 4
1 1563 1
1 1564 1479
1 1565 4
1 1566 1
1 1567 4
1 1569 1
1 1570 6
1 1571 1007
1 1572 3
1 1573 1
1 1574 3
1 1575 984
1 1576 1
1 1577 5
1 1579 3
1 1580 2
1 1581 2
1 1582 3
1 1583 3
1 1584 1
1 1585 825
1 1586 5
1 1587 3
1 1588 1110
1 1589 2
1 1590 2
1 1591 2
1 1594 1
1 1595 3
1 1597 831
1 1598 2509
1 1599 1
1 1600 699
1 1602 971
1 1603 5
1 1604 1
1 1606 1008
1 1607 1
1 1608 4
1 1609 4
1 1611 481
1 1612 1
1 1613 4
1 1614 1
1 1615 5
1 1616 1
1 1617 2
1 1618 2
1 1619 2
1 1622 4
1 1624 1
1 1625 1
1 1626 1
1 1627 3
1 1628 4
1 1629 1
1 1630 8
1 1631 2
1 1632 2
1 1633 14
1 1634 3
1 1635 1
1 1636 1
1 1637 3
1 1638 3
1 1639 2
1 1640 18
1 1641 2
1 1642 6
1 1643 4
1 1644 1
1 1645 719
1 1647 5
1 1648 3
1 1649 2
1 1650 650
1 1651 2
1 1652 7
1 1653 2
1 1654 3
1 1655 1
1 1656 1
1 1658 4
1 1659 2
1 1660 3
1 1661 9
1 1662 24
1 1666 398
1 1667 1
1 1668 2
1 1669 3
1 1670 4
1 1671 2
1 1672 1
1 1673 1
1 1674 3
1 1675 4
1 1676 3
1 1677 1
1 1679 5
1 1680 2
1 1681 3
1 1682 1
1 1683 2
1 1684 2
1 1685 217
1 1686 1
1 1687 8
1 1688 1
1 1689 1
1 1690 3
1 1691 1
1 1692 1884
1 1693 4
1 1694 1
1 1697 1
1 1699 1
1 1700 1
1 1701 2
1 1702 3
1 1703 4
1 1706 2
1 1707 5
1 1709 3
1 1710 1067
1 1711 4
1 1712 3
1 1713 4
1 1714 1
1 1715 6
1 1716 4
1 1717 691
1 1718 5
1 1719 2
1 1720 4
1 1721 9
1 1722 1
1 1723 3
1 1724 4
1 1725 9
1 1726 1
1 1727 3
1 1728 998
1 1730 2
1 1731 3
1 1732 1
1 1733 1
1 1734 1
1 1737 2
1 1738 529
1 1740 3
1 1741 2
1 1742 2
1 1743 358
1 1744 2
1 1745 2
1 1747 5
1 1748 4
1 1749 1
1 1750 2
1 1751 2
1 1752 1
1 1754 2
1 1755 2
1 1756 4
1 1757 4
1 1758 4
1 1759 4
1 1760 4
1 1761 4
1 1762 1
1 1763 2
1 1765 2
1 1766 1
1 1767 1
1 1768 1
1 1769 1
1 1770 163
1 1771 1
1 1772 614
1 1773 5
1 1774 2
1 1775 4
1 1777 4
1 1780 4
1 1781 6
1 1783 2
1 1784 3
1 1785 2
1 1786 1
1 1787 9
1 1788 1
1 1789 4
1 1791 854
1 1792 2
1 1793 1226
1 1795 1
1 1796 7
1 1797 2
1 1800 1
1 1802 4
1 1804 1
1 1805 2137
1 1807 3
1 1809 650
1 1810 3
1 1811 1
1 1812 2
1 1813 1
1 1814 2
1 1815 4
1 1816 2
1 1817 320
1 1818 2
1 1819 2
1 1820 1141
1 1821 1
1 1822 1
1 1823 1
1 1824 3
1 1825 26
1 1826 21
1 1827 2
1 1829 1
1 1830 2
1 1832 2
1 1833 2
1 1834 4
1 1835 1
1 1836 1
1 1837 490
1 1838 2
1 1839 2
1 1840 1104
1 1841 2
1 1842 5
1 1843 2
1 1844 3
1 1846 1
1 1847 6
1 1848 2
1 1850 4
1 1851 2
1 1852 487
1 1853 2
1 1854 1221
1 1855 3
1 1856 2
1 1857 6
1 1858 1
1 1859 3
1 1862 4
1 1863 1
1 1864 1
1 1865 2
1 1866 3
1 1867 1125
1 1868 11
1 1869 1
1 1870 2
1 1871 2
1 1872 1919
1 1874 2
1 1875 4
1 1877 2
1 1878 1397
1 1879 2
1 1880 1
1 1881 2
1 1882 1
1 1884 3010
1 1885 2
1 1886 3
1 1887 3
1 1888 4
1 1889 1
1 1890 1107
1 1891 1
1 1893 5
1 1894 526
1 1895 3
1 1896 12
1 1897 2
1 1900 4
1 1902 2
1 1903 6
1 1905 1
1 1906 1
1 1907 5
1 1908 2
1 1909 6
1 1910 6
1 1911 3
1 1912 2
1 1913 1
1 1914 2
1 1915 2
1 1916 1
1 1917 1
1 1918 1
1 1919 3
1 1920 2
1 1921 1
1 1922 1
1 1923 5
1 1924 2
1 1925 1
1 1926 1
1 1927 6
1 1928 3
1 1929 1
1 1930 2
1 1931 2
1 1932 1
1 1933 2
1 1934 3
1 1935 9
1 1936 1
1 1937 1
1 1938 5
1 1939 746
1 1940 3
1 1941 4
1 1942 2
1 1943 4
1 1944 1853
1 1945 1
1 1946 4
1 1948 1
1 1949 15
1 1950 2
1 1951 1
1 1952 1
1 1953 7
1 1954 2
1 1955 5
1 1956 641
1 1957 2
1 1960 5
1 1961 2
1 1962 1
1 1963 908
1 1964 5
1 1965 2
1 1966 2
1 1968 1
1 1969 2
1 1970 2
1 1971 3
1 1972 1
1 1973 1
1 1974 2
1 1975 5
1 1977 2
1 1978 2
1 1979 4
1 1980 1
1 1981 3
1 1982 2
1 1984 742
1 1986 2
1 1987 1278
1 1989 3
1 1990 1
1 1991 5
1 1992 1
1 1993 1
1 1994 1
1 1996 1114
1 1997 688
1 1998 4
1 1999 4
1 2000 2
1 2001 1
1 2003 1
1 2004 3
1 2005 5
1 2007 4
1 2009 1651
1 2012 1
1 2013 2
1 2015 1096
1 2016 3
1 2017 10
1 2018 2
1 2019 3
1 2020 1
1 2021 86
1 2022 3
1 2023 4
1 2024 1391
1 2025 1
1 2026 477
1 2027 1
1 2028 608
1 2029 1
1 2030 5
1 2032 2
1 2033 2
1 2034 2
1 2035 3
1 2037 3
1 2038 2
1 2039 1
1 2041 5
1 2042 1
1 2043 6
1 2044 4
1 2045 2
1 2046 1
1 2048 1
1 2049 5
1 2050 2
1 2051 2
1 2052 1405
1 2054 6
1 2055 3
1 2057 1
1 2060 536
1 2061 1
1 2062 1
1 2063 2
1 2064 4
1 2065 4
1 2066 2
1 2067 1
1 2068 3
1 2069 4
1 2070 1931
1 2071 5
1 2072 2
1 2073 4
1 2074 2
1 2075 1
1 2077 3
1 2078 2
1 2079 5
1 2080 2
1 2081 3
1 2082 1
1 2083 2
1 2084 1
1 2085 1
1 2086 6
1 2087 1
1 2088 840
1 2089 3
1 2090 110
1 2091 2
1 2093 3
1 2094 2
1 2095 2
1 2096 4
1 2100 28
1 2101 1
1 2102 1
1 2103 1
1 2105 2
1 2106 4
1 2107 3
1 2108 1
1 2109 3
1 2110 3
1 2111 2
1 2112 4
1 2113 1
1 2114 2
1 2116 5
1 2117 2
1 2118 3
1 2120 3
1 2121 594
1 2123 4
1 2125 5
1 2126 1
1 2127 304
1 2128 1
1 2129 3
1 2130 3
1 2132 2
1 2133 2
1 2134 1
1 2135 483
1 2136 600
1 2137 3
1 2138 1395
1 2139 5
1 2140 1
1 2142 821
1 2143 1
1 2144 3
1 2145 5
1 2147 2
1 2148 3
1 2149 3
1 2150 1
1 2151 1081
1 2152 2
1 2153 4
1 2154 2
1 2156 2
1 2157 974
1 2158 2
1 2159 3
1 2162 1
1 2163 2
1 2164 1
1 2165 522
1 2166 2
1 2168 6
1 2169 1
1 2170 2
1 2171 1
1 2172 4
1 2173 7
1 2174 1
1 2176 646
1 2177 2
1 2178 8
1 2179 2
1 2181 3
1 2184 1
1 2185 1891
1 2186 2278
1 2187 1
1 2188 977
1 2189 8
1 2191 1
1 2192 2
1 2193 15
1 2195 1
1 2196 3
1 2197 3
1 2198 2
1 2199 2
1 2200 2
1 2201 4
1 2202 2
1 2203 7
1 2205 1
1 2206 2
1 2207 576
1 2208 1
1 2209 3
1 2210 1
1 2211 2
1 2212 2
1 2213 3
1 2214 4
1 2215 6
1 2216 1
1 2217 413
1 2219 1
1 2220 6
1 2221 1
1 2222 2
1 2223 2
1 2224 3
1 2225 3
1 2226 3
1 2227 1
1 2228 1
1 2229 1
1 2230 6
1 2231 1
1 2232 4
1 2233 1
1 2236 410
1 2237 6
1 2238 2
1 2239 2
1 2240 6
1 2241 3
1 2242 1
1 2244 3
1 2245 2886
1 2246 3
1 2247 2
1 2249 3
1 2250 18
1 2251 2
1 2253 1820
1 2254 3
1 2255 4
1 2257 4838
1 2259 2
1 2260 1
1 2261 810
1 2262 1
1 2263 2
1 2264 3
1 2265 1282
1 2266 2
1 2267 3
1 2268 3
1 2269 2
1 2270 1
1 2271 7
1 2272 2
1 2273 2
1 2274 1
1 2275 5
1 2276 2
1 2277 1
1 2278 2
1 2279 1
1 2280 794
1 2281 2
1 2282 1
1 2283 3
1 2284 1546
1 2286 1
1 2287 2
1 2288 1
1 2289 2
1 2290 4
1 2291 7
1 2292 4
1 2293 1
1 2294 1
1 2295 2
1 2296 3
1 2297 10
1 2298 6
1 2299 4
1 2300 6
1 2302 4
1 2303 865
1 2304 3
1 2307 1
1 2308 3
1 2309 693
1 2310 1
1 2311 2
1 2312 2
1 2313 749
1 2314 3
1 2317 638
1 2318 7
1 2320 5
1 2321 6
1 2322 3
1 2323 3
1 2324 3
1 2325 4
1 2326 3
1 2327 2
1 2328 2
1 2329 1
1 2330 8
1 2332 1
1 2333 5
1 2334 10
1 2336 2
1 2337 2
1 2338 591
1 2339 2
1 2340 1
1 2341 4
1 2342 3
1 2343 2
1 2345 2
1 2350 1
1 2352 27
1 2353 3
1 2354 13
1 2355 1
1 2357 20
1 2358 5
1 2359 2
1 2362 2
1 2363 2
1 2365 2
1 2366 3
1 2367 13
1 2368 6
1 2370 5
1 2372 2
1 2373 2
1 2374 9
1 2375 3
1 2376 4
1 2377 1
1 2378 1
1 2379 1
1 2380 5
1 2381 1027
1 2382 1
1 2383 1
1 2385 2
1 2386 1
1 2387 1
1 2390 2
1 2393 3
1 2394 2
1 2396 8
1 2397 2
1 2398 1
1 2399 6
1 2400 2
1 2401 2
1 2402 3
1 2403 1
1 2404 1
1 2405 1
1 2406 1
1 2407 4
1 2408 3
1 2409 1
1 2410 7
1 2411 4
1 2412 4
1 2413 3
1 2414 1
1 2415 2
1 2416 5
1 2417 6
1 2418 1
1 2419 4
1 2420 3
1 2421 1
1 2422 1391
1 2424 11
1 2425 1
1 2426 1
1 2427 3
1 2428 17
1 2429 5
1 2430 6
1 2431 1
1 2432 837
1 2433 6
1 2434 1100
1 2435 2199
1 2436 3
1 2439 3
1 2440 1
1 2441 1
1 2442 2
1 2444 2
1 2445 1
1 2448 6
1 2449 22
1 2450 2
1 2451 3
1 2452 1
1 2453 1
1 2454 3
1 2455 2
1 2456 4
1 2457 1
1 2458 6
1 2459 1
1 2460 3
1 2462 3
1 2463 1
1 2464 3
1 2465 4
1 2466 4
1 2467 3
1 2468 473
1 2469 2
1 2470 1
1 2471 1
1 2473 1
1 2474 2
1 2475 1
1 2476 1
1 2477 4
1 2478 3
1 2480 3
1 2482 1
1 2484 5
1 2485 1
1 2487 4
1 2488 2
1 2489 2
1 2490 4
1 2491 4
1 2492 1
1 2493 2
1 2494 1
1 2496 2
1 2497 864
1 2498 3
1 2499 2
1 2500 4
1 2501 5
1 2502 1
1 2503 1
1 2504 336
1 2505 5
1 2507 3
1 2508 12
1 2509 2
1 2510 2
1 2511 9
1 2512 4
1 2515 5
1 2516 1708
1 2517 1
1 2518 2
1 2519 6
1 2520 3
1 2521 1
1 2522 385
1 2523 1
1 2524 4
1 2525 4
1 2526 5
1 2527 1
1 2528 1051
1 2530 1
1 2531 12
1 2532 1
1 2533 1
1 2534 7
1 2535 906
1 2536 3
1 2538 1
1 2539 1
1 2541 2
1 2542 2
1 2543 2
1 2544 6
1 2546 3
1 2547 1
1 2548 3
1 2549 2
1 2550 2
1 2552 1
1 2553 2
1 2554 2
1 2555 1
1 2556 10
1 2557 3
1 2558 1
1 2560 1
1 2562 2
1 2563 893
1 2564 2
1 2565 2
1 2568 5
1 2569 2
1 2570 1
1 2571 1
1 2572 2
1 2573 2
1 2574 1015
1 2577 4
1 2579 1
1 2581 1
1 2582 2
1 2584 2
1 2586 3
1 2587 3
1 2588 4
1 2589 17
1 2590 2
1 2591 1
1 2592 2
1 2593 6
1 2594 2
1 2595 1
1 2596 3
1 2597 4
1 2598 1
1 2600 4
1 2601 2
1 2602 1
1 2603 3
1 2604 4
1 2605 2
1 2606 357
1 2607 5
1 2608 2
1 2609 1
1 2610 4
1 2611 1
1 2612 4
1 2613 4
1 2615 3
1 2616 2
1 2617 6
1 2619 5
1 2620 1311
1 2621 1
1 2622 8
1 2623 1
1 2624 1
1 2625 1
1 2626 2
1 2628 15
1 2629 5
1 2631 5
1 2632 1
1 2633 4
1 2634 2
1 2636 2
1 2637 1
1 2638 2
1 2639 4
1 2640 2
1 2641 2
1 2642 1
1 2644 1374
1 2647 4
1 2648 7
1 2649 4
1 2651 1225
1 2652 2
1 2653 2
1 2654 1
1 2655 5
1 2656 1
1 2658 4
1 2660 1
1 2661 1
1 2662 3
1 2663 1
1 2665 975
1 2667 1
1 2668 3
1 2669 3
1 2670 893
1 2671 7
1 2672 1269
1 2673 2
1 2674 5
1 2675 429
1 2677 3
1 2678 3
1 2679 1
1 2680 3
1 2682 803
1 2684 9
1 2685 6
1 2689 1050
1 2690 1
1 2693 2
1 2694 3
1 2695 1
1 2696 2
1 2697 632
1 2698 1
1 2699 4
1 2700 8
1 2701 6
1 2703 1
1 2704 2
1 2705 2
1 2706 18
1 2707 1
1 2708 1
1 2709 2
1 2710 1219
1 2711 1
1 2712 5
1 2713 1
1 2714 3
1 2715 530
1 2716 4
1 2717 2
1 2718 3
1 2719 4
1 2721 3
1 2722 1161
1 2725 1
1 2727 4
1 2728 19
1 2729 2
1 2730 2
1 2731 2
1 2732 4
1 2733 3
1 2734 1
1 2735 1
1 2737 3
1 2738 2
1 2739 1
1 2740 1
1 2741 2
1 2742 5
1 2746 3
1 2747 2
1 2748 2
1 2749 1
1 2751 2
1 2752 5
1 2753 3
1 2754 3
1 2755 658
1 2756 996
1 2757 3734
1 2758 2
1 2759 5
1 2760 1
1 2761 2
1 2763 9
1 2765 822
1 2766 2
1 2767 1
1 2768 4
1 2769 3
1 2770 5
1 2771 1196
1 2772 3
1 2773 1
1 2774 3
1 2776 4
1 2777 4
1 2778 1
1 2780 1
1 2781 11
1 2782 2
1 2783 2
1 2784 15
1 2785 3
1 2787 10
1 2788 4
1 2789 742
1 2790 5
1 2791 7
1 2792 2
1 2793 1082
1 2794 2
1 2795 5
1 2796 1
1 2797 3
1 2798 1
1 2799 1264
1 2801 4
1 2802 2
1 2803 1
1 2804 1
1 2805 5
1 2806 3
1 2807 4
1 2808 2
1 2810 2
1 2811 1108
1 2812 825
1 2813 3
1 2814 2
1 2815 10
1 2816 4
1 2819 5
1 2821 4
1 2822 5
1 2823 3
1 2824 2
1 2825 1
1 2827 1
1 2829 8
1 2830 5
1 2831 1
1 2832 4
1 2833 4
1 2834 3
1 2835 3
1 2836 6
1 2837 1222
1 2839 3
1 2840 5
1 2841 6
1 2843 2
1 2844 1
1 2846 4
1 2848 1
1 2850 2
1 2851 1
1 2852 4
1 2853 1093
1 2855 4
1 2856 2
1 2857 2
1 2858 2825
1 2859 3
1 2861 5
1 2863 10
1 2865 3
1 2866 2
1 2867 1
1 2868 2
1 2870 1
1 2871 1
1 2872 2
1 2873 7
1 2874 2
1 2875 1086
1 2876 770
1 2877 2
1 2878 1
1 2879 5
1 2880 1014
1 2881 9
1 2882 4
1 2883 2
1 2884 3
1 2885 2
1 2887 2
1 2888 10
1 2889 3
1 2891 1
1 2892 3
1 2893 2
1 2894 2
1 2895 1
1 2896 3
1 2898 3
1 2899 6
1 2901 1
1 2902 9
1 2903 2779
1 2905 3
1 2906 2
1 2907 1063
1 2909 3
1 2910 2
1 2911 2
1 2912 5
1 2913 3
1 2914 890
1 2915 3
1 2916 3
1 2918 1078
1 2919 2
1 2920 3
1 2921 2
1 2923 2
1 2924 1
1 2926 3
1 2927 6
1 2929 11
1 2930 4
1 2931 2
1 2932 3
1 2933 1
1 2934 2
1 2935 4
1 2936 2
1 2937 2
1 2938 4
1 2939 2
1 2940 1
1 2941 4
1 2943 2
1 2944 2
1 2945 2
1 2946 1
1 2947 1
1 2948 43
1 2949 4
1 2950 1
1 2951 3
1 2952 1
1 2953 5
1 2956 3
1 2959 2
1 2960 4
1 2961 2
1 2962 1956
1 2963 867
1 2964 2
1 2965 3
1 2966 528
1 2968 3
1 2969 2
1 2970 7
1 2971 3
1 2972 1
1 2973 1
1 2974 2
1 2975 2
1 2976 793
1 2977 2
1 2978 3
1 2979 885
1 2980 1
1 2981 1
1 2982 2
1 2983 2
1 2984 9
1 2985 705
1 2987 4
1 2988 6
1 2989 3
1 2991 19
1 2992 1528
1 2995 1
1 2996 1
1 2997 3
1 2999 3
1 3000 867
1 3001 3
1 3003 2
1 3004 390
1 3005 2
1 3008 4
1 3009 5
1 3011 3
1 3012 3
1 3014 472
1 3015 3
1 3016 6
1 3017 1069
1 3018 1
1 3019 635
1 3021 1
1 3022 2
1 3023 6
1 3024 1
1 3025 5
1 3026 1
1 3027 4
1 3028 1
1 3029 1
1 3030 2
1 3031 2
1 3032 2
1 3033 5
1 3034 5
1 3035 2
1 3036 1
1 3037 2
1 3038 2
1 3039 1863
1 3040 884
1 3041 1272
1 3042 3
1 3044 3
1 3045 10
1 3046 6
1 3047 3
1 3048 2
1 3049 1417
1 3050 3
1 3051 2
1 3052 1
1 3053 1992
1 3054 2
1 3055 1
1 3056 1
1 3057 3598
1 3058 1248
1 3059 2
1 3060 2
1 3062 2
1 3064 20
1 3065 5
1 3066 4
1 3068 24
1 3069 8
1 3070 8521
1 3071 2
1 3072 11
1 3073 492
1 3074 4
1 3075 2
1 3076 3
1 3077 2
1 3078 6
1 3079 1
1 3081 1103
1 3083 5
1 3084 1
1 3085 3
1 3087 1
1 3088 2
1 3090 3
1 3091 1
1 3092 4797
1 3093 1706
1 3094 3
1 3095 4021
1 3096 7
1 3098 1
1 3099 1
1 3100 2
1 3101 2
1 3102 4
1 3103 2
1 3104 1
1 3105 809
1 3106 1
1 3107 1
1 3108 3
1 3109 5
1 3110 4
1 3111 1
1 3112 2
1 3113 8
1 3114 7
1 3115 2
1 3116 1
1 3117 1
1 3118 2
1 3119 2
1 3120 5
1 3121 4
1 3122 1
1 3123 7
1 3124 3
1 3125 1625
1 3126 1
1 3127 742
1 3128 6
1 3129 2
1 3130 2
1 3131 10
1 3132 2
1 3133 2
1 3135 4
1 3136 2
1 3137 2
1 3138 7
1 3139 3
1 3140 1
1 3141 5
1 3142 3
1 3143 17
1 3144 3
1 3145 6
1 3146 1
1 3148 6
1 3151 2
1 3152 3
1 3153 2
1 3154 2184
1 3155 1
1 3156 11
1 3157 2
1 3158 5
1 3159 4
1 3160 1
1 3162 3
1 3163 1
1 3165 1314
1 3166 5
1 3167 2
1 3168 1738
1 3169 3
1 3170 2
1 3171 4
1 3172 2
1 3174 1
1 3176 2214
1 3178 4
1 3180 2
1 3182 1
1 3183 2
1 3184 3
1 3185 2
1 3187 3
1 3188 4
1 3189 2
1 3190 1
1 3192 2483
1 3193 5
1 3194 3
1 3195 2
1 3196 3
1 3198 3
1 3199 6
1 3200 2
1 3201 1
1 3202 2
1 3204 2
1 3205 4
1 3206 4
1 3207 8
1 3208 1
1 3209 1
1 3210 2
1 3211 1
1 3212 2
1 3213 2671
1 3214 1
1 3215 6
1 3216 2
1 3217 3
1 3218 2
1 3219 1588
1 3220 1
1 3221 5
1 3222 2
1 3223 5
1 3224 888
1 3227 893
1 3229 1
1 3230 2
1 3231 1
1 3232 5
1 3233 3
1 3234 2
1 3236 518
1 3237 1
1 3238 3
1 3239 84
1 3240 2
1 3241 3
1 3242 3
1 3243 2
1 3246 2
1 3247 1
1 3248 6
1 3250 1
1 3251 1167
1 3254 4
1 3256 2
1 3257 1
1 3258 1
1 3259 496
1 3260 1087
1 3261 8
1 3262 4
1 3264 1
1 3265 2
1 3266 4
1 3267 563
1 3268 2
1 3269 1
1 3271 1
1 3272 368
1 3273 9
1 3274 2
1 3275 7
1 3278 3
1 3279 1
1 3280 1
1 3281 1
1 3282 2
1 3283 2
1 3285 1573
1 3286 5
1 3287 3
1 3288 15
1 3289 823
1 3290 3
1 3291 4
1 3292 1
1 3293 500
1 3294 2
1 3295 3
1 3296 3
1 3297 764
1 3298 2
1 3299 2
1 3300 1
1 3302 2
1 3303 4
1 3304 1
1 3305 14
1 3306 2
1 3307 2
1 3308 1
1 3310 1625
1 3311 8
1 3312 2
1 3313 1
1 3314 3
1 3315 5
1 3316 3
1 3317 2
1 3320 1194
1 3321 1
1 3322 5
1 3323 2
1 3325 1800
1 3326 4
1 3327 5
1 3328 3
1 3329 1
1 3331 4
1 3332 2
1 3333 1
1 3334 20
1 3335 3
1 3337 1
1 3338 8
1 3339 2
1 3340 3
1 3341 1
1 3342 2
1 3344 3
1 3345 13
1 3346 1
1 3347 3
1 3348 6
1 3349 3
1 3350 2
1 3351 693
1 3352 3
1 3353 858
1 3354 2
1 3355 3
1 3356 3
1 3357 1
1 3358 1
1 3359 48
1 3360 1
1 3361 1
1 3362 1
1 3363 5
1 3364 1
1 3365 2
1 3366 1
1 3367 3
1 3368 1
1 3369 1
1 3370 1
1 3371 2
1 3372 4
1 3374 6
1 3375 5
1 3376 3
1 3377 2
1 3378 5
1 3379 2
1 3380 1
1 3381 2
1 3382 454
1 3383 2
1 3384 1
1 3385 1
1 3386 3
1 3387 1120
1 3388 18
1 3390 4
1 3391 2
1 3392 2
1 3393 2
1 3394 3
1 3395 4
1 3396 2
1 3397 1
1 3398 1
1 3399 2
1 3401 1
1 3404 1278
1 3405 2639
1 3406 3
1 3407 2
1 3408 1
1 3410 1
1 3411 6
1 3413 3
1 3414 2
1 3416 1150
1 3417 2
1 3419 1
1 3420 37
1 3421 4
1 3422 1
1 3424 1
1 3425 3
1 3426 2
1 3427 1
1 3428 4
1 3429 1159
1 3430 3
1 3431 1402
1 3432 495
1 3433 3
1 3434 1
1 3435 3
1 3436 5
1 3437 2
1 3438 656
1 3439 2
1 3440 8
1 3441 6
1 3442 829
1 3443 1
1 3444 5
1 3445 2
1 3446 4
1 3447 2
1 3448 3
1 3449 2140
1 3450 2
1 3451 5
1 3452 12
1 3453 1451
1 3454 1
1 3455 4
1 3457 10
1 3458 3
1 3459 2
1 3461 5
1 3463 2
1 3464 3
1 3465 2
1 3466 1
1 3467 4
1 3468 543
1 3470 3135
1 3471 1
1 3472 8
1 3473 6
1 3474 1
1 3475 2
1 3478 1
1 3479 3741
1 3481 1618
1 3482 2
1 3483 1
1 3485 3
1 3486 5
1 3489 9
1 3490 3
1 3491 2
1 3492 2
1 3493 1
1 3495 8
1 3496 1041
1 3497 3
1 3498 6
1 3499 1
1 3500 1
1 3502 1
1 3503 1
1 3504 2
1 3505 15
1 3506 1
1 3507 2
1 3508 4
1 3509 1
1 3513 1
1 3514 1
1 3515 2
1 3516 1
1 3517 9
1 3518 356
1 3519 3
1 3520 1
1 3521 4
1 3522 2
1 3523 1
1 3524 2
1 3525 2
1 3526 708
1 3527 2
1 3528 2
1 3532 2
1 3533 18
1 3535 7
1 3536 12
1 3537 1
1 3538 498
1 3540 2
1 3542 2
1 3543 1
1 3544 4
1 3545 1
1 3546 2
1 3547 3
1 3548 7142
1 3549 2
1 3550 4
1 3552 5
1 3553 3
1 3555 2
1 3556 3
1 3557 4
1 3558 1
1 3559 1
1 3560 4
1 3561 1
1 3562 1
1 3563 1492
1 3564 3
1 3566 956
1 3567 10
1 3568 2
1 3569 1
1 3570 3
1 3571 1
1 3572 3
1 3573 3
1 3574 1
1 3575 2
1 3576 1
1 3577 7
1 3578 2
1 3579 9
1 3580 4
1 3581 6
1 3583 1
1 3584 4388
1 3586 6
1 3587 7
1 3588 5
1 3589 2
1 3590 1
1 3591 920
1 3592 2
1 3593 183
1 3594 4
1 3596 1
1 3597 3
1 3598 1
1 3599 2
1 3600 2
1 3601 2
1 3603 10
1 3604 6
1 3605 4
1 3606 2
1 3608 1
1 3609 1121
1 3610 3
1 3611 3
1 3612 5
1 3617 1
1 3618 5
1 3619 2
1 3620 7
1 3621 3
1 3623 1
1 3624 2
1 3625 1
1 3626 1
1 3627 3
1 3629 3
1 3630 3
1 3631 757
1 3632 564
1 3633 398
1 3634 1
1 3635 2
1 3636 2
1 3637 1
1 3638 2
1 3639 1
1 3640 4
1 3641 1
1 3642 695
1 3643 1
1 3644 2
1 3645 6
1 3646 9
1 3647 2
1 3648 3
1 3649 12
1 3650 1
1 3651 3
1 3652 102
1 3653 515
1 3654 1
1 3655 18
1 3656 575
1 3658 1
1 3659 868
1 3660 4
1 3661 2
1 3662 2
1 3663 6
1 3664 11
1 3666 1
1 3667 10
1 3668 1
1 3670 2
1 3671 3
1 3672 4
1 3674 5
1 3675 6
1 3676 2
1 3677 5
1 3678 1542
1 3679 1
1 3680 2
1 3682 1
1 3683 1119
1 3684 2
1 3687 2
1 3688 4
1 3689 3
1 3690 2
1 3691 5
1 3692 19
1 3693 7
1 3694 4
1 3695 7
1 3696 3
1 3698 3
1 3700 8
1 3701 2
1 3703 6
1 3704 2
1 3705 3
1 3706 2
1 3707 587
1 3708 2
1 3709 2
1 3710 2
1 3711 3
1 3712 3
1 3713 3
1 3714 676
1 3715 1
1 3716 4110
1 3717 1
1 3718 1
1 3719 2
1 3720 7
1 3721 4
1 3722 3
1 3723 6
1 3724 1
1 3725 3
1 3726 3
1 3727 3
1 3729 2
1 3730 1588
1 3731 3
1 3732 2
1 3733 907
1 3734 1
1 3735 2
1 3736 4
1 3737 891
1 3739 1
1 3740 3
1 3741 2
1 3742 2
1 3743 1198
1 3744 2
1 3745 675
1 3746 1
1 3747 3880
1 3748 2
1 3750 308
1 3751 1158
1 3752 4
1 3753 6
1 3754 842
1 3755 2
1 3756 3
1 3757 4
1 3758 3
1 3759 4
1 3761 1
1 3763 3
1 3764 2
1 3766 4
1 3768 3
1 3770 3
1 3771 3
1 3772 4
1 3774 901
1 3775 1
1 3776 1
1 3777 3
1 3778 3
1 3779 3
1 3780 3
1 3781 1
1 3782 1
1 3783 3
1 3784 5
1 3785 1
1 3786 2
1 3787 1
1 3788 14
1 3790 1
1 3791 18
1 3792 1
1 3793 1
1 3794 438
1 3796 2
1 3797 11
1 3798 4
1 3800 1
1 3801 707
1 3802 20
1 3803 1
1 3804 1
1 3805 1958
1 3806 2
1 3807 11
1 3808 2
1 3809 1
1 3810 2
1 3813 2
1 3814 3
1 3815 5
1 3816 1263
1 3817 4
1 3818 1
1 3819 2
1 3820 1
1 3821 1
1 3822 2
1 3823 1
1 3824 3
1 3825 3
1 3826 624
1 3828 25
1 3831 2
1 3832 2
1 3835 3
1 3836 2
1 3837 795
1 3838 6
1 3839 1624
1 3841 2
1 3842 3
1 3843 2
1 3845 4
1 3846 1
1 3847 556
1 3848 1
1 3849 3
1 3850 1196
1 3852 1
1 3853 1
1 3856 2
1 3857 1
1 3859 2
1 3861 1
1 3862 1
1 3863 1
1 3865 1583
1 3866 3
1 3867 4
1 3869 5
1 3870 3
1 3871 2
1 3873 2
1 3874 1
1 3875 499
1 3876 2
1 3877 2
1 3878 3
1 3879 1
1 3880 117
1 3881 3
1 3882 3
1 3883 3
1 3884 3
1 3885 4
1 3886 2
1 3887 2
1 3888 3
1 3889 2
1 3890 3
1 3891 6
1 3892 5
1 3893 7
1 3894 6
1 3895 6
1 3896 6
1 3897 2
1 3898 2
1 3899 2
1 3900 1
1 3901 2
1 3902 1
1 3904 2
1 3905 1
1 3906 2
1 3907 1
1 3909 680
1 3910 1
1 3912 1
1 3913 2
1 3915 10
1 3916 1
1 3917 1
1 3918 1
1 3920 3
1 3921 1498
1 3922 13
1 3925 3
1 3926 1
1 3927 1
1 3929 2
1 3931 2
1 3932 3
1 3934 13
1 3937 5
1 3938 2
1 3939 1
1 3940 2148
1 3941 1
1 3942 1
1 3943 1525
1 3944 4
1 3945 1
1 3946 15
1 3947 1
1 3949 4
1 3950 3
1 3951 1
1 3952 2
1 3953 2
1 3954 1179
1 3955 28
1 3956 1
1 3957 10
1 3958 30
1 3959 1518
1 3960 679
1 3961 4
1 3962 2
1 3963 2
1 3964 3
1 3965 4
1 3966 1034
1 3968 1
1 3972 2
1 3973 3
1 3974 3
1 3976 646
1 3977 1
1 3978 1057
1 3979 6
1 3980 5
1 3981 1
1 3982 2
1 3983 2
1 3987 4
1 3988 3
1 3990 3
1 3991 1
1 3992 3
1 3993 31
1 3994 5
1 3995 1
1 3996 3
1 3997 585
1 3998 2
1 3999 5
1 4000 2
1 4002 2
1 4003 1
1 4004 1
1 4005 4
1 4007 2
1 4008 3
1 4009 3
1 4010 1
1 4011 2
1 4012 3
1 4017 5
1 4018 2
1 4019 3
1 4020 4
1 4021 1
1 4022 2
1 4023 2
1 4024 4
1 4025 2
1 4029 3
1 4030 3
1 4031 583
1 4032 4
1 4033 7
1 4034 2
1 4035 1
1 4036 3
1 4037 5
1 4038 2
1 4039 2
1 4040 1
1 4041 5
1 4042 1
1 4043 2
1 4044 2
1 4045 5
1 4046 3
1 4047 1060
1 4048 996
1 4049 1
1 4050 1
1 4051 2014
1 4053 1
1 4054 3
1 4055 2
1 4056 3
1 4057 3
1 4058 7
1 4060 1
1 4061 629
1 4062 1
1 4064 5
1 4065 1
1 4066 1
1 4068 2
1 4069 3
1 4070 3
1 4071 1
1 4072 1450
1 4074 1328
1 4076 581
1 4078 3
1 4079 5
1 4081 1
1 4082 2
1 4085 1
1 4086 2
1 4087 1
1 4088 3
1 4089 1
1 4090 4
1 4091 1
1 4092 4
1 4093 3
1 4094 2
1 4096 2
1 4097 6
1 4098 6113
1 4099 3
1 4100 2
1 4101 1
1 4103 2
1 4104 953
1 4105 1
1 4106 3
1 4107 12
1 4109 2
1 4110 3
1 4111 2
1 4112 1
1 4113 2
1 4114 1
1 4116 1
1 4117 2
1 4119 3
1 4120 4
1 4124 1
1 4125 1109
1 4126 566
1 4128 703
1 4129 2
1 4130 3
1 4132 2
1 4134 1
1 4135 1
1 4136 594
1 4137 5
1 4138 4
1 4140 3
1 4141 1
1 4142 5
1 4143 4
1 4145 2
1 4146 7
1 4147 2
1 4148 4
1 4149 3
1 4150 952
1 4152 4
1 4153 2
1 4154 10
1 4155 1342
1 4157 2
1 4158 1
1 4159 1
1 4160 3
1 4161 1
1 4162 1
1 4164 2
1 4165 1
1 4166 1
1 4167 1
1 4168 3
1 4169 1
1 4170 3
1 4171 2
1 4172 2
1 4173 1
1 4174 1
1 4176 1
1 4177 1
1 4178 1414
1 4179 1
1 4180 1
1 4182 1078
1 4183 1968
1 4184 2
1 4185 3
1 4186 1
1 4187 1
1 4188 2
1 4189 3
1 4190 1
1 4191 4
1 4192 3
1 4193 3
1 4194 2
1 4195 6
1 4197 3
1 4198 2
1 4199 5
1 4200 2
1 4201 7
1 4202 5
1 4203 3
1 4204 15
1 4206 836
1 4207 2125
1 4208 5
1 4209 2
1 4210 8
1 4211 4
1 4212 1
1 4213 4
1 4214 5
1 4215 4
1 4217 946
1 4218 1
1 4219 2
1 4220 2
1 4222 7
1 4223 2
1 4224 1590
1 4225 2
1 4226 7
1 4227 2
1 4228 2
1 4229 4
1 4230 1
1 4231 2
1 4232 1
1 4233 1
1 4234 545
1 4235 2
1 4236 3
1 4237 2
1 4238 1
1 4239 6
1 4240 1
1 4242 6
1 4243 4
1 4244 699
1 4245 6
1 4246 1
1 4247 3
1 4249 2
1 4251 4
1 4252 1
1 4254 4
1 4257 1
1 4258 4
1 4259 878
1 4260 804
1 4262 7
1 4263 6
1 4264 935
1 4265 4
1 4266 1242
1 4267 2
1 4268 3
1 4270 2
1 4271 1
1 4272 2
1 4273 2
1 4274 2
1 4275 6
1 4276 13
1 4277 4
1 4278 1
1 4279 2
1 4280 2
1 4281 4
1 4282 1
1 4283 2
1 4285 2
1 4286 3
1 4288 1
1 4289 2
1 4290 13
1 4291 737
1 4292 2
1 4293 6
1 4294 5
1 4295 3
1 4296 3
1 4297 2
1 4298 1
1 4299 6
1 4300 4
1 4301 3
1 4302 2
1 4303 7
1 4305 3
1 4306 3
1 4307 1178
1 4308 2381
1 4309 688
1 4310 126
1 4311 2
1 4312 443
1 4313 730
1 4315 1869
1 4316 6
1 4318 7
1 4320 1
1 4322 2
1 4324 2
1 4325 1
1 4326 3
1 4327 3
1 4329 1
1 4331 1
1 4332 3
1 4333 4
1 4334 266
1 4335 4
1 4336 4
1 4338 3
1 4339 1
1 4340 1
1 4341 5
1 4342 6
1 4343 1
1 4344 88
1 4345 2
1 4346 2
1 4347 2
1 4348 1
1 4349 3
1 4350 1
1 4351 2
1 4352 3
1 4353 1
1 4354 1
1 4355 3
1 4356 1
1 4357 1
1 4358 1
1 4359 2
1 4361 3
1 4362 837
1 4363 6
1 4364 8
1 4365 3
1 4366 2
1 4367 3
1 4368 1
1 4370 4
1 4371 4
1 4372 12
1 4373 1423
1 4374 3
1 4375 542
1 4376 593
1 4378 2
1 4380 3
1 4381 4
1 4382 3
1 4383 3
1 4384 2
1 4385 11
1 4386 2
1 4387 4
1 4388 5
1 4389 1
1 4390 9
1 4391 3
1 4393 1
1 4394 360
1 4395 1080
1 4396 8
1 4397 1
1 4398 1
1 4399 1
1 4400 1170
1 4401 1
1 4403 2
1 4404 5
1 4406 1
1 4407 2
1 4409 1
1 4410 944
1 4413 3
1 4415 3
1 4416 3
1 4418 6
1 4419 2
1 4422 2
1 4423 1
1 4425 2
1 4426 2403
1 4427 2238
1 4428 5
1 4429 2
1 4430 1255
1 4431 11
1 4432 4
1 4433 1
1 4434 2
1 4435 3
1 4436 3
1 4438 5
1 4439 6
1 4440 1
1 4442 1
1 4443 6
1 4444 2
1 4445 1
1 4446 1
1 4447 3
1 4449 1
1 4450 1
1 4451 3
1 4452 3
1 4453 1
1 4454 2
1 4455 1
1 4456 1
1 4457 4
1 4458 793
1 4460 1
1 4462 3
1 4463 2
1 4464 36
1 4466 5
1 4467 2
1 4468 1
1 4469 2
1 4470 4
1 4471 9
1 4472 3
1 4473 1265
1 4474 3
1 4475 1
1 4476 1
1 4477 2
1 4478 1
1 4479 6
1 4480 1
1 4481 3
1 4483 1029
1 4484 3
1 4485 2
1 4486 1
1 4487 1
1 4488 6
1 4489 3
1 4490 3
1 4491 3
1 4492 2
1 4493 2
1 4494 878
1 4495 1
1 4496 1006
1 4497 3
1 4498 1
1 4499 1
1 4500 5
1 4501 3
1 4502 1
1 4504 3
1 4505 3
1 4506 4
1 4507 3
1 4508 793
1 4510 3
1 4511 1
1 4512 2
1 4513 3
1 4515 2
1 4516 1
1 4517 712
1 4518 2
1 4519 6
1 4521 2
1 4525 254
1 4526 716
1 4528 1
1 4529 1
1 4530 12
1 4531 1
1 4532 1
1 4533 15
1 4534 5
1 4536 1
1 4537 6
1 4538 2
1 4539 3
1 4540 2
1 4541 3
1 4542 1026
1 4544 118
1 4545 2
1 4547 907
1 4548 7
1 4550 4
1 4552 2
1 4553 1
1 4554 7
1 4555 1
1 4556 1
1 4557 2
1 4558 2
1 4559 3
1 4560 3
1 4561 10
1 4562 637
1 4563 4
1 4564 1
1 4565 452
1 4566 3
1 4567 1
1 4568 2
1 4570 2
1 4571 1
1 4572 2
1 4573 1
1 4574 3
1 4575 4
1 4576 3
1 4578 3
1 4579 1026
1 4580 2
1 4582 1
1 4583 253
1 4584 1
1 4585 1
1 4586 6
1 4587 2
1 4588 2
1 4589 4
1 4590 4
1 4591 2
1 4592 1
1 4593 6
1 4595 3
1 4596 1
1 4597 3
1 4598 8
1 4599 3
1 4600 1
1 4601 1
1 4602 3
1 4603 2
1 4604 3
1 4605 5
1 4606 1
1 4608 2
1 4609 3929
1 4610 4
1 4611 1
1 4612 1
1 4613 1
1 4614 2
1 4615 1
1 4616 3
1 4617 2
1 4618 1
1 4619 3
1 4620 6
1 4621 7
1 4623 2
1 4625 3
1 4626 1
1 4627 292
1 4628 3
1 4629 3
1 4630 167
1 4631 3
1 4632 1
1 4633 2
1 4634 2
1 4635 4
1 4636 1
1 4637 1
1 4638 294
1 4639 4
1 4640 4
1 4642 1
1 4643 2
1 4644 2
1 4645 1
1 4646 767
1 4647 1
1 4648 1
1 4650 4
1 4653 2
1 4655 2
1 4656 2
1 4657 1376
1 4659 3
1 4661 1
1 4662 4
1 4663 2
1 4664 1224
1 4666 3135
1 4667 3
1 4668 1
1 4669 1
1 4670 3
1 4671 1
1 4672 3
1 4673 33
1 4674 1
1 4675 6
1 4676 2
1 4677 3118
1 4679 4
1 4680 8
1 4681 2
1 4683 7
1 4684 2
1 4685 1
1 4686 2
1 4689 6
1 4690 1
1 4691 2
1 4692 3
1 4694 1
1 4696 1132
1 4698 530
1 4699 976
1 4700 1
1 4702 4
1 4703 3
1 4704 2
1 4705 5
1 4706 3059
1 4707 1
1 4708 13
1 4709 1
1 4712 3
1 4714 2
1 4715 721
1 4716 3
1 4717 1
1 4718 2
1 4719 1
1 4720 6
1 4721 542
1 4722 2
1 4723 2
1 4725 2
1 4726 2
1 4727 1
1 4729 1
1 4730 2
1 4732 1
1 4734 6
1 4735 3
1 4736 3
1 4737 1
1 4738 3
1 4739 2
1 4740 1
1 4741 2
1 4742 5
1 4743 1
1 4744 9
1 4746 2
1 4747 3
1 4750 2
1 4752 2
1 4753 3
1 4755 2
1 4756 2
1 4757 18
1 4758 2
1 4759 2
1 4760 1156
1 4761 1
1 4762 1
1 4763 8
1 4764 1
1 4765 4
1 4766 418
1 4767 2
1 4768 3
1 4769 13
1 4770 335
1 4771 13
1 4772 1
1 4773 456
1 4774 7
1 4775 11
1 4776 1421
1 4777 2
1 4779 2
1 4781 779
1 4782 1
1 4783 6
1 4785 1125
1 4786 3
1 4787 3
1 4788 3
1 4789 3
1 4792 2
1 4795 5
1 4796 4
1 4797 1
1 4798 2
1 4799 6
1 4800 3
1 4801 1
1 4802 1
1 4803 6
1 4804 2
1 4805 7
1 4806 3
1 4807 5
1 4809 1
1 4810 983
1 4811 1
1 4812 1129
1 4813 2
1 4814 4
1 4816 3
1 4817 2
1 4818 2
1 4819 4
1 4820 4
1 4821 2
1 4822 2
1 4823 3
1 4825 3
1 4826 4
1 4827 2
1 4828 1
1 4829 1
1 4831 2
1 4832 16
1 4834 3
1 4835 4
1 4836 2
1 4837 457
1 4838 3
1 4839 1
1 4840 2
1 4843 360
1 4844 8
1 4845 2
1 4846 8
1 4847 3
1 4848 1
1 4849 2
1 4851 9
1 4852 1
1 4853 1
1 4854 6
1 4855 1
1 4856 1
1 4857 1
1 4858 2
1 4859 3
1 4860 1
1 4862 2
1 4863 5
1 4864 1116
1 4866 4
1 4867 17
1 4868 4
1 4870 5
1 4871 1
1 4872 2
1 4875 1
1 4876 1
1 4877 1
1 4878 4
1 4879 3
1 4880 7
1 4881 2
1 4882 2
1 4884 3
1 4885 2
1 4887 2424
1 4888 2
1 4889 1
1 4890 857
1 4891 1
1 4892 3
1 4893 2
1 4894 1
1 4895 2
1 4896 1
1 4897 1367
1 4900 1
1 4901 3
1 4902 4
1 4903 22
1 4904 2
1 4905 7
1 4906 403
1 4907 3
1 4908 2
1 4909 2
1 4910 50
1 4911 2
1 4912 3
1 4913 1
1 4914 7
1 4915 547
1 4916 2
1 4917 1
1 4919 3
1 4921 1
1 4925 4
1 4926 1251
1 4927 8
1 4928 4
1 4929 1379
1 4930 1
1 4931 5
1 4932 1945
1 4933 6
1 4934 831
1 4935 1234
1 4936 2
1 4937 1
1 4939 1
1 4940 2
1 4941 2
1 4943 2
1 4944 1
1 4945 2
1 4946 2
1 4947 1
1 4949 3
1 4950 9
1 4951 2
1 4955 4
1 4956 6
1 4957 6
1 4958 3
1 4959 4
1 4960 1
1 4961 4
1 4962 2
1 4963 2
1 4964 2
1 4965 2
1 4966 3
1 4968 2
1 4969 1
1 4971 1
1 4972 2
1 4973 3
1 4974 4
1 4975 2
1 4976 3
1 4977 11
1 4978 1186
1 4979 5
1 4980 2
1 4981 1006
1 4982 1
1 4984 2
1 4985 1
1 4986 7
1 4987 2
1 4989 11
1 4990 2
1 4991 1
1 4992 9
1 4993 3
1 4996 4
1 4999 2
1 5000 3
1 5001 4
1 5002 3
1 5003 2
1 5004 3
1 5005 5
1 5006 1
1 5008 1
1 5009 466
1 5010 2
1 5011 653
1 5012 2
1 5013 3
1 5014 2
1 5015 1
1 5016 1
1 5017 2
1 5019 3
1 5020 1
1 5021 620
1 5022 6
1 5023 843
1 5025 3
1 5026 2
1 5027 2
1 5028 1
1 5029 4
1 5030 285
1 5031 1
1 5032 1
1 5033 7
1 5034 1
1 5035 418
1 5036 6
1 5037 3
1 5039 1
1 5042 515
1 5043 1
1 5044 2
1 5045 2
1 5048 4
1 5049 1
1 5051 888
1 5052 4
1 5053 2
1 5054 4
1 5055 785
1 5056 328
1 5059 565
1 5060 3
1 5061 2
1 5064 2
1 5065 2
1 5066 3
1 5067 1
1 5069 1
1 5070 2
1 5072 9
1 5073 2
1 5074 1
1 5075 2
1 5076 8
1 5077 1
1 5079 5
1 5081 6
1 5083 3
1 5084 1
1 5085 3
1 5086 2
1 5087 2
1 5089 4
1 5090 1
1 5092 3
1 5093 2
1 5094 5
1 5095 1
1 5097 8
1 5098 1
1 5099 3
1 5100 4
1 5101 1
1 5102 3
1 5104 3
1 5105 6
1 5106 8
1 5107 1
1 5109 2
1 5110 885
1 5112 2
1 5115 1
1 5117 6
1 5118 3
1 5119 120
1 5120 12
1 5122 2
1 5123 1
1 5124 1
1 5125 1
1 5127 1
1 5128 5
1 5129 1
1 5130 1
1 5131 27
1 5132 3
1 5133 689
1 5134 2
1 5135 844
1 5136 3
1 5137 1
1 5139 1776
1 5140 2
1 5143 3
1 5144 1188
1 5145 1
1 5146 5
1 5147 3
1 5148 3
1 5149 1
1 5150 4
1 5153 4
1 5154 3
1 5156 1
1 5158 2
1 5159 4
2 1 966
2 2 8
2 3 4603
2 4 2823
2 5 40
2 6 5
2 7 1203
2 9 2
2 10 7
2 11 3
2 12 2
2 13 1
2 14 20
2 15 7
2 16 4
2 18 20
2 19 5
2 20 9
2 21 5
2 22 5
2 24 2
2 25 6
2 26 3
2 27 2
2 28 7
2 29 1
2 30 6
2 31 3
2 32 13
2 33 4
2 34 7
2 35 4
2 36 6
2 37 8
2 38 9
2 39 4
2 40 4
2 41 2
2 42 4
2 43 1
2 44 1489
2 46 825
2 47 6
2 48 6
2 49 3
2 50 19
2 51 2
2 52 5
2 53 9
2 54 8
2 55 2
2 56 1
2 57 1463
2 58 8
2 59 2272
2 61 1
2 62 7
2 63 2
2 64 18
2 65 3667
2 66 2
2 67 37
2 68 8
2 69 4
2 70 964
2 71 2
2 72 2
2 73 1
2 74 4
2 75 6303
2 76 5
2 77 4
2 78 6
2 79 17
2 80 3
2 81 2
2 82 3
2 83 4
2 84 4214
2 86 11
2 87 4
2 88 4
2 89 4
2 90 4
2 91 10
2 93 2
2 94 3
2 95 1
2 96 5
2 97 2
2 99 5
2 100 2
2 101 3147
2 102 4
2 103 4
2 104 2
2 105 3
2 106 4
2 107 2
2 108 1
2 109 1
2 110 1
2 111 18
2 112 2
2 113 6
2 114 4
2 115 7
2 116 5
2 117 2
2 118 7
2 119 2
2 121 3
2 122 1
2 123 4
2 124 7
2 125 1
2 126 3
2 127 3
2 128 5
2 129 9
2 130 1
2 131 1
2 133 3
2 134 2
2 135 3
2 136 4
2 137 9
2 138 5
2 139 2
2 140 8
2 141 11
2 142 4189
2 143 3
2 144 4
2 145 2
2 147 3
2 148 5
2 149 8
2 150 4
2 151 14
2 152 1
2 153 2993
2 154 23
2 155 4
2 156 3
2 157 2
2 158 3
2 159 4
2 160 6
2 161 1
2 162 1205
2 163 7
2 165 9
2 166 4
2 167 4
2 168 3
2 169 10
2 170 9
2 171 2
2 172 1433
2 173 1
2 175 2
2 176 1
2 177 8
2 178 7
2 179 1
2 180 2
2 181 4
2 182 7
2 183 1121
2 184 6
2 185 1916
2 186 1
2 187 6
2 188 8
2 189 1
2 190 3
2 192 10
2 193 8
2 194 3
2 196 1
2 198 3
2 199 4
2 200 5
2 201 3
2 202 2
2 204 2
2 205 2
2 206 992
2 207 1282
2 209 9
2 210 1
2 211 8
2 212 6
2 213 5
2 214 6
2 215 1190
2 216 7
2 217 8
2 218 8
2 219 4119
2 220 3291
2 221 3
2 222 5
2 223 11
2 224 5
2 225 3
2 226 3
2 227 12
2 228 3
2 229 7
2 230 2
2 231 5
2 232 1
2 233 27
2 234 11
2 235 1
2 236 8
2 237 6
2 238 3
2 239 6
2 240 2
2 241 1
2 242 3
2 243 3
2 244 5
2 245 5
2 246 103
2 247 23
2 248 5
2 249 3
2 250 5
2 251 3
2 252 24
2 253 6
2 254 1
2 256 4
2 258 157
2 259 1
2 260 6
2 261 7
2 262 1597
2 263 12
2 264 2
2 265 12
2 266 2
2 267 5
2 268 3
2 269 2
2 270 2
2 271 2
2 272 3
2 273 1
2 274 8
2 275 3
2 276 17
2 278 3
2 279 64
2 280 1
2 281 14
2 282 2440
2 283 1
2 284 6
2 285 1486
2 286 2328
2 287 8
2 288 56
2 289 3
2 290 12
2 291 5
2 292 9
2 293 3
2 294 2
2 295 1
2 296 5
2 297 8
2 298 6
2 299 3147
2 300 2
2 301 5
2 302 2
2 303 1
2 304 7
2 305 2
2 306 1433
2 307 2173
2 308 1543
2 309 1
2 310 13
2 311 5
2 312 2
2 313 1188
2 314 5
2 315 5
2 317 5
2 319 5
2 321 2
2 322 20
2 323 8
2 324 3
2 325 1
2 326 9
2 327 4
2 328 10
2 329 3
2 330 4
2 331 9
2 332 5
2 333 5
2 334 13
2 335 12
2 336 19
2 338 8
2 339 1
2 340 13
2 341 2
2 342 6
2 343 10
2 344 14
2 345 3
2 346 1624
2 347 6
2 348 1266
2 349 7
2 350 13
2 351 4
2 352 5
2 353 1191
2 355 1
2 356 5
2 357 1
2 358 1130
2 359 3
2 360 2
2 361 2
2 362 6
2 363 3
2 364 5
2 365 36
2 366 6
2 367 1
2 368 4
2 369 7
2 370 3
2 371 1497
2 372 2238
2 374 2
2 375 1
2 376 4
2 377 2
2 378 9
2 379 12
2 380 2
2 381 898
2 382 1326
2 383 3
2 384 3
2 385 7
2 386 3
2 387 6
2 388 5
2 389 4
2 390 8
2 391 5
2 392 1844
2 393 2
2 394 4021
2 395 4
2 396 3
2 397 5
2 398 2
2 399 2271
2 400 2
2 401 1
2 402 5
2 403 5
2 404 4
2 405 4
2 406 10
2 407 1459
2 408 4
2 409 3
2 410 2
2 411 12
2 412 3
2 413 7
2 414 3
2 415 5
2 416 4
2 417 13
2 418 2
2 419 3
2 421 12
2 422 3494
2 424 4
2 425 5
2 426 24
2 427 5
2 428 3
2 429 2
2 430 3
2 432 2550
2 433 12
2 434 1
2 435 3
2 436 25
2 437 6
2 439 2
2 440 2
2 441 2
2 442 7
2 443 10
2 444 5
2 445 2
2 446 3
2 447 4
2 448 1
2 449 1
2 450 2
2 451 4
2 452 2
2 453 5
2 454 7
2 455 2
2 457 4
2 458 3534
2 459 3
2 460 2919
2 461 6
2 462 16
2 463 9
2 464 1
2 465 2334
2 466 4
2 467 4
2 468 3
2 469 7
2 470 3
2 471 7
2 472 2673
2 473 18
2 474 4
2 475 3
2 476 692
2 478 6
2 479 2
2 480 9
2 481 7
2 482 2541
2 483 7
2 484 2
2 485 1019
2 486 4
2 487 2
2 488 7
2 489 1
2 490 2
2 491 5
2 492 10
2 493 3
2 495 3055
2 496 7
2 497 5
2 498 2
2 499 4
2 500 1516
2 501 1
2 502 5
2 503 4
2 504 8
2 505 3
2 506 3
2 507 4
2 508 1
2 509 2
2 510 3
2 511 11
2 512 16
2 513 15
2 514 4
2 515 5
2 516 3
2 517 12
2 518 4
2 519 5
2 520 5622
2 521 9
2 522 5
2 523 3
2 524 6
2 525 1
2 527 7
2 528 7
2 529 11
2 530 5
2 531 4
2 532 6
2 533 4
2 535 5
2 537 5
2 538 12
2 539 7
2 540 5
2 542 5
2 543 9
2 544 6
2 545 3
2 546 1
2 547 2
2 548 5
2 549 2
2 550 3
2 551 17
2 552 4
2 553 3
2 554 3
2 555 1260
2 556 15
2 557 4
2 558 6
2 559 2931
2 560 3
2 561 2
2 562 2
2 563 23
2 564 3
2 565 1509
2 566 6
2 567 7
2 568 5
2 569 2
2 570 4
2 571 3
2 572 3
2 573 11
2 574 1
2 575 6
2 576 2
2 577 1673
2 578 4
2 580 3
2 581 9
2 583 4
2 584 6
2 586 3
2 588 895
2 589 14
2 590 8
2 591 2
2 592 3
2 593 17
2 594 17
2 595 14
2 596 9
2 597 1792
2 598 2
2 599 3
2 600 886
2 601 2
2 602 4
2 604 10
2 605 3
2 606 1427
2 607 3
2 608 17
2 609 5
2 610 7
2 611 2236
2 612 2
2 613 2
2 614 5
2 615 2
2 616 4
2 619 5
2 620 11
2 621 10
2 622 1
2 623 3
2 624 1608
2 625 1
2 626 4
2 627 6
2 628 10
2 629 1
2 630 2
2 631 256
2 632 18
2 633 3
2 634 4
2 635 5
2 636 4
2 637 4
2 638 1885
2 639 4
2 640 4
2 641 2
2 642 95
2 643 3
2 644 8
2 645 4
2 646 7
2 647 2
2 648 11
2 649 1884
2 650 5
2 651 1
2 652 1673
2 653 1
2 654 5
2 655 522
2 656 1629
2 657 1384
2 658 3
2 659 2
2 660 4071
2 661 9
2 662 1
2 663 5
2 664 617
2 665 3
2 666 15
2 667 10
2 668 4
2 669 2
2 670 2
2 671 4
2 672 1405
2 673 14
2 674 5
2 675 1
2 676 22
2 677 1213
2 678 4
2 679 4
2 680 23
2 681 1
2 682 2
2 683 2
2 684 1
2 685 11
2 686 7
2 687 2
2 688 3
2 689 23
2 690 5
2 691 4
2 692 2
2 693 2
2 694 3
2 695 3
2 696 3
2 698 3
2 699 9
2 700 4
2 701 4
2 702 4
2 703 6
2 704 2
2 705 5
2 706 572
2 707 5
2 708 6
2 709 6
2 710 33
2 711 3
2 712 7
2 713 4
2 714 1
2 715 6
2 716 2
2 717 2
2 719 3
2 721 5
2 722 3
2 723 1326
2 724 10
2 725 2
2 726 1
2 728 4
2 729 5
2 730 3212
2 731 7
2 732 2
2 733 3
2 734 56
2 735 6
2 736 4814
2 738 2395
2 739 3
2 740 5
2 741 2915
2 742 5
2 743 2524
2 744 6
2 745 1
2 746 2
2 748 1
2 749 5
2 750 11
2 751 3
2 754 2
2 755 6
2 756 4
2 757 9
2 758 2160
2 759 6
2 760 5
2 761 5
2 762 8
2 763 8
2 764 4
2 765 16
2 766 4
2 767 4
2 768 4
2 769 7
2 770 2
2 771 3
2 772 4
2 773 2
2 774 6
2 775 2
2 776 13
2 777 4
2 778 1
2 779 3
2 780 3
2 781 8
2 782 7
2 783 1
2 784 1
2 785 2
2 786 3
2 787 5
2 788 8
2 789 5
2 790 15
2 791 3
2 792 2
2 793 5
2 795 3
2 796 5
2 797 4
2 798 1634
2 799 2
2 800 6
2 801 9
2 802 2
2 803 2
2 804 1
2 805 18
2 806 5
2 807 5
2 808 4
2 809 6
2 810 6
2 811 10
2 812 2069
2 813 10
2 814 6
2 815 3
2 816 1
2 817 3
2 818 7
2 819 1
2 820 2
2 821 3
2 822 5
2 823 12
2 824 3
2 825 3315
2 826 6
2 827 2
2 828 4
2 829 3
2 830 16
2 831 4596
2 832 4
2 833 1
2 834 7
2 835 6197
2 836 4
2 837 5
2 838 2
2 839 4
2 840 1511
2 841 6
2 842 1
2 843 3
2 844 10
2 845 6
2 846 4
2 847 7
2 848 1
2 849 2
2 850 2
2 851 3
2 852 64
2 853 17
2 854 5
2 855 2
2 856 2
2 857 14
2 858 4
2 859 1
2 860 1
2 861 2
2 862 3
2 863 3
2 864 2
2 867 3
2 868 1
2 869 7
2 870 3
2 871 7
2 872 1
2 873 1727
2 874 5
2 875 1
2 876 2
2 877 4
2 878 3325
2 879 4
2 880 6
2 881 1
2 882 9
2 883 5
2 884 3
2 885 1176
2 886 5
2 887 4
2 888 4
2 889 5
2 890 2
2 892 3
2 893 13
2 894 3
2 895 18
2 896 2
2 897 3
2 898 8
2 899 1
2 900 7
2 901 6
2 902 2
2 904 13
2 906 4
2 907 5036
2 908 4
2 909 3
2 910 5
2 911 10
2 912 9
2 913 1
2 914 4
2 915 4
2 916 4
2 917 2
2 918 5
2 919 3
2 920 4
2 921 8
2 922 2
2 923 2229
2 924 12
2 925 3
2 926 4
2 927 6
2 928 3
2 929 3
2 930 14
2 931 6
2 932 2
2 933 1
2 934 2
2 935 3475
2 936 4
2 937 7
2 938 2126
2 939 5
2 940 3
2 941 5
2 943 5
2 944 5
2 945 4
2 946 4
2 947 1
2 948 7
2 949 3
2 950 1
2 951 6
2 952 10
2 953 1230
2 954 3
2 955 12
2 956 10
2 957 9
2 958 17
2 959 1
2 961 3
2 962 4
2 963 998
2 964 1
2 965 4
2 966 4
2 967 3
2 968 4
2 970 2
2 971 33
2 972 1767
2 973 2
2 974 7
2 975 7
2 977 7
2 978 8
2 979 95
2 980 3
2 981 1639
2 982 4
2 983 6
2 984 3
2 985 9
2 986 1
2 987 9
2 988 4
2 989 11
2 990 1402
2 992 4
2 993 2
2 994 1563
2 995 6
2 996 2
2 997 2
2 998 4
2 999 7
2 1000 17
2 1001 3
2 1002 8
2 1003 18
2 1004 3
2 1005 3
2 1006 1
2 1007 2
2 1008 3
2 1009 6
2 1011 1
2 1013 7
2 1014 32
2 1015 11
2 1016 5
2 1017 18
2 1018 4
2 1019 11
2 1020 2
2 1022 7
2 1023 4
2 1024 1
2 1025 3
2 1027 8
2 1028 3
2 1029 2
2 1030 3
2 1031 2
2 1032 1
2 1033 2
2 1034 3
2 1035 7
2 1036 5
2 1037 7
2 1039 31
2 1040 5
2 1041 4
2 1042 1
2 1043 3
2 1044 1302
2 1045 3
2 1046 9
2 1047 6
2 1048 4
2 1049 40
2 1050 13
2 1051 3
2 1052 3478
2 1053 4
2 1054 4
2 1055 8
2 1056 8
2 1057 4
2 1058 5
2 1059 9
2 1060 3
2 1061 23
2 1062 4
2 1063 24
2 1064 3
2 1065 6
2 1066 4
2 1067 3
2 1068 5
2 1069 9
2 1070 3
2 1071 4
2 1072 4
2 1073 4
2 1075 1307
2 1076 1
2 1077 2
2 1078 1
2 1079 2
2 1080 14
2 1081 1
2 1082 8
2 1083 1
2 1084 15
2 1085 2
2 1086 10
2 1087 6
2 1088 1
2 1089 4
2 1090 1
2 1091 5
2 1092 3
2 1093 9
2 1094 3
2 1096 15
2 1097 3
2 1098 3918
2 1099 1
2 1100 5
2 1101 5
2 1102 7
2 1103 1
2 1104 8
2 1105 2
2 1106 5
2 1107 3
2 1108 1
2 1109 6
2 1110 4
2 1111 4
2 1112 3063
2 1113 4
2 1114 3
2 1115 4
2 1116 3
2 1117 1344
2 1118 3
2 1119 6
2 1120 3
2 1121 3
2 1122 3
2 1123 1
2 1124 4
2 1126 1
2 1127 1
2 1128 17
2 1129 1
2 1130 7
2 1131 2
2 1132 4
2 1133 3
2 1134 2021
2 1135 3
2 1136 4
2 1137 2
2 1138 1273
2 1139 3
2 1140 5
2 1141 2
2 1142 2
2 1143 3
2 1144 2
2 1145 1
2 1146 2901
2 1147 2
2 1148 16
2 1149 2
2 1150 3
2 1151 2
2 1152 19
2 1153 13
2 1154 1
2 1155 10
2 1156 9
2 1157 8
2 1158 3
2 1160 1610
2 1162 5
2 1163 13
2 1164 3
2 1165 2
2 1166 2
2 1168 5
2 1169 6
2 1170 13
2 1171 10
2 1172 11
2 1173 5
2 1174 10
2 1175 9
2 1176 6
2 1177 4
2 1179 4
2 1180 8
2 1181 1
2 1182 3345
2 1183 2
2 1184 5
2 1185 3194
2 1186 6
2 1187 4
2 1188 5
2 1189 1
2 1190 6
2 1191 8
2 1192 7
2 1193 5
2 1194 3
2 1195 4
2 1196 6
2 1197 7
2 1198 2
2 1199 1
2 1204 3
2 1205 1
2 1206 5
2 1207 5
2 1209 2
2 1210 5
2 1211 6
2 1214 2
2 1215 2
2 1216 5
2 1217 52
2 1218 4
2 1220 3
2 1221 5
2 1222 8
2 1223 4
2 1224 1
2 1225 5
2 1226 3
2 1227 6
2 1228 2312
2 1229 14
2 1230 3
2 1232 2
2 1233 2
2 1234 5
2 1235 2
2 1236 18
2 1237 2
2 1238 7
2 1239 3
2 1240 11
2 1241 2
2 1242 2
2 1243 3
2 1244 2
2 1245 10
2 1246 15
2 1247 4
2 1248 5
2 1249 2
2 1250 6
2 1252 1
2 1253 4
2 1254 3
2 1255 3
2 1256 2
2 1257 5
2 1258 4
2 1259 7
2 1261 9
2 1262 4
2 1263 3
2 1264 11
2 1265 2
2 1266 12
2 1267 12
2 1268 4
2 1269 4
2 1270 1
2 1271 1812
2 1272 2
2 1273 11
2 1274 5
2 1275 2
2 1276 28
2 1277 2
2 1278 3
2 1279 3634
2 1280 4
2 1281 5
2 1282 4
2 1283 1
2 1284 4
2 1285 7
2 1286 9
2 1287 5
2 1288 9
2 1289 5
2 1290 2
2 1291 5
2 1293 8
2 1294 1316
2 1295 3
2 1297 3
2 1299 7
2 1300 9
2 1301 3
2 1302 3
2 1303 5
2 1304 2
2 1305 5
2 1306 9
2 1307 36
2 1308 9445
2 1309 1
2 1310 10
2 1311 2
2 1312 4
2 1313 5
2 1314 2
2 1315 2833
2 1316 4
2 1317 8
2 1318 3
2 1319 2
2 1320 6
2 1321 3
2 1322 776
2 1323 4
2 1324 9
2 1325 1361
2 1326 2
2 1327 6
2 1328 23
2 1329 3
2 1330 3
2 1331 3
2 1332 5
2 1333 29
2 1335 4
2 1336 8
2 1337 3
2 1338 5
2 1339 3
2 1340 4
2 1341 5
2 1342 2
2 1343 51
2 1344 5
2 1345 2
2 1346 773
2 1347 1
2 1348 3
2 1350 3
2 1351 2
2 1352 4
2 1353 10
2 1356 10
2 1357 5
2 1358 3
2 1359 1
2 1360 1291
2 1361 2
2 1363 1
2 1364 2
2 1366 1
2 1367 12
2 1368 2
2 1369 5
2 1370 7
2 1371 9
2 1373 4
2 1374 2
2 1375 29
2 1376 2
2 1377 3
2 1378 16
2 1379 3
2 1380 2
2 1382 3794
2 1383 2747
2 1385 5
2 1386 4925
2 1387 1
2 1388 2
2 1389 4
2 1390 2
2 1391 909
2 1392 2
2 1393 2
2 1394 4
2 1395 5
2 1396 3844
2 1397 4090
2 1398 6
2 1399 4
2 1400 8
2 1401 2
2 1402 5
2 1403 7
2 1404 2
2 1405 1648
2 1406 1
2 1408 3
2 1409 10
2 1410 1
2 1411 4
2 1413 12
2 1414 2
2 1415 7
2 1416 3
2 1417 3
2 1418 4
2 1419 3
2 1420 2
2 1421 4
2 1422 2
2 1423 664
2 1424 4
2 1425 2
2 1426 3
2 1427 6
2 1428 1
2 1430 3
2 1431 6
2 1432 3
2 1433 14
2 1434 4
2 1435 2
2 1436 3
2 1437 5
2 1438 9
2 1439 8
2 1440 3
2 1441 4
2 1442 5
2 1443 4
2 1444 3
2 1445 5
2 1446 6
2 1447 3
2 1448 6
2 1449 5
2 1451 2735
2 1452 1
2 1453 5
2 1454 4
2 1455 4
2 1456 4
2 1457 6
2 1458 2
2 1460 25
2 1461 8
2 1462 5
2 1464 500
2 1466 1
2 1467 7
2 1468 2
2 1469 12
2 1470 6
2 1471 3
2 1472 8
2 1473 8
2 1474 2
2 1475 27
2 1476 3
2 1477 7
2 1478 723
2 1479 2
2 1480 3
2 1481 2224
2 1482 3
2 1483 1213
2 1484 6
2 1485 5
2 1486 12
2 1487 5
2 1488 4
2 1489 6
2 1490 7
2 1491 2
2 1492 2
2 1493 4
2 1494 3
2 1495 3
2 1496 2
2 1497 3
2 1498 6
2 1499 1090
2 1500 7
2 1501 2
2 1502 5
2 1503 1185
2 1504 11
2 1505 18
2 1506 7
2 1507 11
2 1508 18
2 1510 11
2 1511 2
2 1512 2
2 1514 5
2 1515 1753
2 1516 2
2 1517 2
2 1518 7
2 1519 13
2 1520 1192
2 1521 3
2 1522 3071
2 1523 2
2 1524 5672
2 1525 9
2 1526 5
2 1527 2
2 1528 2
2 1529 6
2 1530 3
2 1531 5
2 1532 8
2 1533 3
2 1534 3
2 1535 3
2 1536 5
2 1537 1
2 1538 2
2 1539 4
2 1540 6
2 1541 2
2 1542 6
2 1543 3
2 1544 12
2 1545 8
2 1546 5
2 1547 8
2 1548 3
2 1549 7
2 1550 1815
2 1551 2
2 1552 7
2 1553 5
2 1554 3
2 1555 3
2 1556 2
2 1557 1
2 1558 8
2 1561 4
2 1562 1
2 1563 1166
2 1564 3
2 1565 3
2 1566 5
2 1567 21
2 1568 21
2 1569 5035
2 1570 26
2 1571 3
2 1572 2
2 1573 2
2 1574 6
2 1575 9
2 1577 7
2 1578 6
2 1579 5
2 1580 23
2 1581 4114
2 1582 3
2 1583 6
2 1584 1899
2 1585 16
2 1586 4
2 1587 1
2 1588 11
2 1589 21
2 1590 4
2 1592 1643
2 1593 8
2 1594 3435
2 1595 3
2 1596 9
2 1597 9
2 1598 7
2 1599 32
2 1600 7
2 1601 10
2 1602 4
2 1603 23
2 1604 1
2 1605 4
2 1606 2
2 1607 4
2 1608 1
2 1609 2
2 1611 6
2 1612 10
2 1613 7
2 1614 1405
2 1615 7
2 1616 768
2 1617 13
2 1618 4
2 1619 3
2 1621 1011
2 1622 3
2 1623 4
2 1624 6
2 1625 4
2 1626 3
2 1627 3
2 1628 1
2 1629 2
2 1630 5
2 1631 1
2 1632 16
2 1633 2620
2 1634 3
2 1635 5
2 1636 4
2 1637 2
2 1639 2
2 1640 1
2 1641 2
2 1642 3
2 1643 4
2 1644 4
2 1645 2
2 1646 4
2 1647 1290
2 1648 3599
2 1649 2990
2 1650 1
2 1651 3
2 1652 8
2 1653 3
2 1654 3
2 1655 10
2 1656 4
2 1657 6
2 1658 2
2 1659 1
2 1660 5
2 1661 6
2 1662 3
2 1664 2
2 1665 8
2 1666 6
2 1667 1025
2 1668 3
2 1669 6
2 1670 1257
2 1671 20
2 1672 2
2 1673 5
2 1674 5
2 1675 3492
2 1676 2077
2 1677 1
2 1678 3
2 1679 13
2 1680 4
2 1681 2
2 1682 3
2 1683 6
2 1684 1070
2 1685 2
2 1686 7
2 1687 1437
2 1688 2928
2 1689 3
2 1690 4
2 1691 2
2 1692 3
2 1693 2
2 1694 18
2 1696 20
2 1697 36
2 1699 3
2 1700 2841
2 1701 2
2 1702 7
2 1703 1
2 1704 581
2 1705 1
2 1706 4
2 1707 15
2 1709 3
2 1710 2
2 1711 11
2 1712 1899
2 1713 4476
2 1714 3
2 1716 4
2 1717 5
2 1718 2
2 1719 2
2 1720 7
2 1721 7
2 1722 3
2 1723 7
2 1724 2
2 1725 2
2 1726 5
2 1727 36
2 1728 7
2 1729 3
2 1730 563
2 1731 3
2 1732 5
2 1733 2
2 1734 4127
2 1735 1
2 1736 1
2 1737 9
2 1738 7
2 1739 6
2 1740 3
2 1742 3
2 1743 2
2 1744 5
2 1745 4
2 1747 3
2 1748 7
2 1749 5
2 1750 2
2 1751 4
2 1752 3
2 1754 483
2 1755 4
2 1756 4
2 1757 5
2 1758 6
2 1759 2
2 1760 4
2 1761 3
2 1762 6
2 1763 2
2 1764 4515
2 1765 17
2 1767 2
2 1768 15
2 1769 10
2 1771 7
2 1772 3
2 1773 455
2 1774 4
2 1775 9
2 1777 17
2 1778 2
2 1779 4
2 1780 7
2 1781 5
2 1782 2
2 1783 6
2 1784 2
2 1785 7
2 1787 4
2 1788 1261
2 1789 4
2 1790 1
2 1791 5
2 1792 1
2 1793 5
2 1794 5
2 1795 3
2 1796 1989
2 1797 8
2 1799 1
2 1800 5
2 1801 3
2 1802 4
2 1803 2
2 1804 3
2 1805 2
2 1806 9
2 1807 3
2 1809 3
2 1810 4
2 1811 6
2 1812 8
2 1813 3
2 1814 2
2 1815 8
2 1816 2
2 1817 2
2 1819 12
2 1820 3
2 1821 3
2 1822 4
2 1823 7
2 1824 5
2 1825 15
2 1826 2
2 1827 7
2 1828 2
2 1829 1405
2 1830 1
2 1831 1
2 1832 5
2 1833 3
2 1834 12
2 1835 3
2 1836 1
2 1837 5
2 1838 2
2 1839 2
2 1840 2
2 1841 3386
2 1842 3
2 1843 7
2 1844 2
2 1846 1
2 1847 1
2 1848 13
2 1849 10
2 1850 4
2 1851 900
2 1852 9
2 1854 2
2 1855 4447
2 1856 3
2 1857 2
2 1858 5
2 1859 4
2 1861 930
2 1862 5
2 1863 1
2 1864 24
2 1865 4
2 1866 6
2 1867 10
2 1868 4
2 1869 5
2 1870 6743
2 1871 1
2 1872 5
2 1874 2479
2 1875 2
2 1876 4
2 1877 19
2 1878 3
2 1879 5
2 1880 3
2 1881 2
2 1882 7
2 1884 3
2 1885 3
2 1886 3
2 1887 5
2 1888 3
2 1889 2
2 1890 3
2 1891 1676
2 1892 4
2 1893 2
2 1894 6
2 1895 8
2 1896 5
2 1897 7
2 1898 15
2 1900 2
2 1901 2
2 1902 7
2 1903 5
2 1904 1285
2 1905 4
2 1906 5
2 1907 4
2 1908 3
2 1909 17
2 1910 9
2 1911 21
2 1912 5
2 1913 11
2 1914 4
2 1915 2
2 1916 2
2 1917 8
2 1918 6
2 1920 2
2 1921 2
2 1922 4
2 1923 6
2 1924 1
2 1925 4
2 1926 56
2 1927 5
2 1928 456
2 1929 10
2 1930 2
2 1931 4
2 1932 3
2 1933 585
2 1934 2
2 1935 3
2 1936 4
2 1937 7
2 1938 4
2 1939 14
2 1940 731
2 1941 19
2 1942 3
2 1943 5
2 1944 5
2 1945 4
2 1946 14
2 1947 7
2 1948 7
2 1949 7
2 1950 4
2 1951 7
2 1952 4
2 1953 15
2 1954 2
2 1955 1
2 1956 7
2 1957 3041
2 1960 3
2 1961 61
2 1962 6
2 1963 1
2 1964 4
2 1965 3
2 1966 1439
2 1968 1965
2 1969 3
2 1970 8
2 1971 5
2 1972 4
2 1973 3
2 1974 13
2 1975 2125
2 1976 636
2 1977 3039
2 1978 2634
2 1979 7
2 1980 8
2 1981 1
2 1982 2
2 1983 3
2 1985 1
2 1987 4
2 1988 6
2 1989 3
2 1990 3
2 1991 2
2 1992 12
2 1993 6
2 1994 11
2 1995 1
2 1996 4
2 1997 4
2 1998 7
2 1999 9
2 2000 1263
2 2001 4
2 2002 1
2 2003 4
2 2004 4
2 2005 18
2 2006 7
2 2007 4
2 2008 8
2 2009 4
2 2011 1
2 2012 3453
2 2013 2
2 2014 3
2 2015 1
2 2016 4
2 2017 3
2 2018 3
2 2019 3
2 2020 4
2 2021 6
2 2022 4
2 2023 2233
2 2024 7
2 2025 5
2 2026 3
2 2027 3
2 2028 4
2 2029 1160
2 2030 6
2 2031 9
2 2032 4
2 2033 1
2 2034 2
2 2035 5
2 2036 4
2 2037 11
2 2038 5
2 2039 1
2 2040 2
2 2041 1
2 2043 1115
2 2044 1
2 2045 14
2 2046 9
2 2047 29
2 2048 3
2 2049 6
2 2050 4
2 2051 1
2 2052 1
2 2053 5
2 2054 6
2 2055 5
2 2056 1
2 2057 7
2 2059 3
2 2060 3
2 2061 1
2 2062 9
2 2063 7
2 2064 2
2 2065 1
2 2066 1
2 2067 949
2 2068 944
2 2069 6
2 2070 1
2 2071 28
2 2072 8
2 2073 3
2 2074 8
2 2075 18
2 2077 2
2 2078 1
2 2079 3
2 2080 3
2 2081 6
2 2082 4
2 2083 4
2 2084 1
2 2085 2
2 2086 3
2 2087 1011
2 2088 2
2 2089 3
2 2090 3
2 2091 4
2 2092 1
2 2093 4
2 2094 4
2 2095 3
2 2096 1
2 2097 3
2 2098 6
2 2100 3
2 2101 2
2 2102 7
2 2103 1
2 2104 3
2 2105 8
2 2106 2
2 2107 1095
2 2109 6
2 2110 3
2 2111 9
2 2112 2
2 2113 10
2 2117 1
2 2118 7
2 2120 10
2 2121 16
2 2122 7
2 2123 2
2 2124 3
2 2125 1077
2 2126 2
2 2127 3
2 2128 634
2 2129 7
2 2130 2
2 2132 3
2 2133 1
2 2134 1
2 2135 4
2 2136 6
2 2137 5
2 2138 4
2 2139 7
2 2140 2
2 2143 2
2 2144 7
2 2145 2
2 2146 7
2 2147 6473
2 2149 5
2 2150 844
2 2151 14
2 2152 2538
2 2153 1643
2 2154 4
2 2155 3
2 2156 5
2 2157 3
2 2158 3392
2 2159 1
2 2160 5
2 2161 4
2 2162 3
2 2163 3
2 2164 3
2 2165 4
2 2166 24
2 2167 6
2 2168 5
2 2169 1
2 2170 1
2 2171 2
2 2172 3225
2 2173 4
2 2174 1
2 2175 6
2 2176 4
2 2177 3
2 2178 3
2 2179 4
2 2180 5
2 2181 3261
2 2182 1
2 2184 5
2 2185 2
2 2186 4
2 2187 2
2 2188 4
2 2189 24
2 2191 3
2 2192 4
2 2193 6
2 2194 4
2 2195 912
2 2196 1307
2 2197 4
2 2198 1
2 2199 2
2 2200 706
2 2201 12
2 2202 7
2 2203 4
2 2205 1
2 2206 5
2 2207 2
2 2208 1093
2 2209 4
2 2210 6
2 2211 6
2 2212 6
2 2213 2
2 2214 4
2 2215 8
2 2216 4
2 2217 10
2 2218 1091
2 2219 2807
2 2220 1
2 2221 4
2 2222 132
2 2223 5
2 2224 2
2 2225 6
2 2226 3
2 2227 2077
2 2228 3
2 2229 3
2 2230 9
2 2231 1
2 2232 5
2 2233 1
2 2234 2
2 2235 4
2 2236 3
2 2237 4
2 2238 1
2 2239 1717
2 2240 3
2 2241 4
2 2242 1
2 2243 3
2 2244 3
2 2245 1
2 2246 2
2 2247 5
2 2248 2
2 2249 3
2 2250 6
2 2251 1
2 2252 7
2 2253 7
2 2254 4
2 2255 3
2 2256 4082
2 2257 5
2 2258 1
2 2259 9
2 2260 2
2 2262 2
2 2263 1
2 2264 5
2 2265 1
2 2266 1020
2 2267 6
2 2268 839
2 2269 5
2 2270 15
2 2271 1
2 2272 1885
2 2273 3
2 2274 3
2 2275 3
2 2276 2
2 2277 2354
2 2278 2
2 2279 5
2 2280 3
2 2281 3
2 2282 4
2 2283 3
2 2284 19
2 2286 4
2 2287 6
2 2288 2
2 2289 1648
2 2290 4
2 2291 103
2 2292 7454
2 2293 1
2 2294 2819
2 2295 4
2 2297 5
2 2298 4
2 2299 3
2 2300 796
2 2301 1
2 2302 13
2 2303 6
2 2304 1327
2 2306 1
2 2307 2047
2 2308 5
2 2309 4
2 2310 6
2 2311 12
2 2312 3
2 2313 4
2 2314 4
2 2315 2
2 2317 16
2 2318 3
2 2320 10
2 2321 1436
2 2322 10
2 2324 1
2 2325 5
2 2326 2
2 2327 7
2 2328 2
2 2329 1519
2 2330 3
2 2331 7
2 2332 3
2 2333 9
2 2334 4
2 2335 2
2 2337 3
2 2338 6
2 2339 2832
2 2340 9
2 2341 7
2 2342 2
2 2343 2
2 2344 4
2 2345 9
2 2348 3
2 2349 10
2 2350 6
2 2352 4
2 2353 11
2 2354 2
2 2355 3
2 2356 10
2 2357 1
2 2358 4
2 2359 4
2 2360 9
2 2361 7
2 2362 3
2 2363 4
2 2364 1
2 2365 5
2 2366 1852
2 2367 5
2 2368 5
2 2369 5
2 2370 2
2 2371 3
2 2372 2
2 2373 1
2 2374 11
2 2376 9
2 2377 1
2 2378 4
2 2379 3
2 2380 6
2 2381 6
2 2382 3
2 2383 2
2 2385 590
2 2386 18
2 2387 3
2 2390 5
2 2392 2264
2 2393 6
2 2394 5
2 2396 4085
2 2397 7
2 2398 1444
2 2399 2
2 2400 5
2 2401 2
2 2403 2
2 2404 5
2 2405 8
2 2406 3
2 2407 4
2 2408 5
2 2409 2740
2 2410 1040
2 2411 1
2 2412 4
2 2413 5
2 2414 7
2 2415 3
2 2416 10
2 2417 5
2 2418 11
2 2419 6
2 2420 1
2 2421 3
2 2422 5
2 2423 1
2 2424 2
2 2425 3
2 2426 2
2 2427 9
2 2428 2
2 2430 4
2 2431 634
2 2432 3
2 2433 7
2 2434 9
2 2435 4
2 2436 1
2 2437 11
2 2438 2369
2 2439 3
2 2440 5
2 2441 6
2 2442 2
2 2443 6
2 2444 12
2 2445 4
2 2446 3
2 2447 7
2 2448 5
2 2449 444
2 2450 13
2 2452 3835
2 2453 11
2 2455 1311
2 2456 945
2 2457 8
2 2458 19
2 2459 4
2 2460 5
2 2461 7
2 2462 1
2 2463 4
2 2464 1
2 2465 4
2 2466 1926
2 2467 3
2 2468 2
2 2469 659
2 2470 2
2 2471 3
2 2473 14
2 2474 3
2 2475 3
2 2476 4
2 2477 10
2 2478 3
2 2479 5
2 2480 4
2 2481 3
2 2482 6
2 2483 5
2 2484 2
2 2485 10
2 2486 4
2 2487 15
2 2488 7
2 2489 2875
2 2490 3
2 2491 6
2 2492 3
2 2493 2
2 2494 4
2 2495 8
2 2496 1
2 2497 5
2 2498 2
2 2499 8064
2 2500 3093
2 2501 5
2 2502 3
2 2503 3
2 2504 3
2 2505 6
2 2506 1211
2 2507 3
2 2508 4
2 2509 3
2 2511 4
2 2512 3
2 2513 2
2 2514 4
2 2515 6
2 2516 3
2 2517 8871
2 2518 3
2 2519 838
2 2520 4
2 2521 2
2 2522 6
2 2523 2
2 2524 4
2 2525 5
2 2526 3
2 2527 1
2 2528 8
2 2530 7
2 2531 3
2 2532 3
2 2533 9
2 2534 5
2 2536 3
2 2537 3951
2 2538 5
2 2539 5
2 2540 4
2 2541 2047
2 2542 1
2 2543 2916
2 2544 3
2 2545 4
2 2546 2207
2 2547 4
2 2548 1003
2 2549 3
2 2550 6
2 2552 3472
2 2553 2
2 2554 4
2 2555 5
2 2556 1
2 2557 13
2 2558 7
2 2559 27
2 2560 2574
2 2561 1
2 2562 1
2 2563 8
2 2564 5
2 2565 5
2 2566 3
2 2567 1648
2 2568 4
2 2570 10
2 2571 3
2 2572 5
2 2573 9
2 2574 5
2 2575 2
2 2576 4
2 2577 8
2 2578 1
2 2579 4
2 2581 17
2 2582 5
2 2583 3
2 2584 4
2 2586 3231
2 2587 3
2 2588 12
2 2589 6
2 2590 4
2 2591 4
2 2592 1004
2 2593 3
2 2594 3
2 2595 2526
2 2596 13
2 2597 4
2 2598 577
2 2600 2
2 2601 4
2 2602 3
2 2603 4
2 2604 7
2 2605 21
2 2606 15
2 2607 1742
2 2608 7062
2 2609 2
2 2610 2
2 2611 16
2 2612 1
2 2613 780
2 2614 5
2 2615 4
2 2616 2
2 2617 2266
2 2618 3
2 2619 1639
2 2620 7
2 2621 3
2 2622 1
2 2623 4
2 2624 4
2 2625 6
2 2626 7
2 2627 4
2 2628 2
2 2629 7
2 2630 2361
2 2631 11
2 2633 4
2 2634 6
2 2635 1
2 2636 11
2 2637 8
2 2638 3
2 2639 16
2 2640 9
2 2641 2
2 2643 7
2 2644 7
2 2645 6
2 2646 5
2 2647 3
2 2648 3
2 2649 1
2 2651 5
2 2652 2
2 2653 1
2 2654 2
2 2655 3
2 2656 4
2 2657 29
2 2658 4
2 2659 4
2 2660 3
2 2661 1
2 2662 4
2 2664 2
2 2665 11
2 2666 2
2 2667 2
2 2668 4
2 2669 1
2 2670 8
2 2671 5
2 2672 3
2 2673 1770
2 2674 2
2 2676 4
2 2677 1
2 2678 6
2 2679 7
2 2680 842
2 2682 6
2 2683 76
2 2684 5
2 2685 6
2 2686 3368
2 2687 4
2 2688 2
2 2689 5
2 2690 3
2 2691 6
2 2692 6
2 2693 3
2 2694 835
2 2695 4
2 2696 1
2 2697 2
2 2698 3
2 2700 2
2 2701 8
2 2703 594
2 2704 2
2 2705 3
2 2706 4
2 2707 5
2 2708 2
2 2709 4
2 2711 4
2 2712 20
2 2713 9
2 2714 7
2 2715 8
2 2716 6
2 2717 3
2 2718 2
2 2720 2
2 2721 10
2 2722 4
2 2723 5
2 2724 2
2 2725 4
2 2726 1
2 2727 3
2 2728 9
2 2729 10
2 2730 1
2 2731 61
2 2732 10
2 2733 3
2 2734 6
2 2735 1
2 2736 1
2 2737 5
2 2738 4
2 2739 1
2 2740 6
2 2741 3011
2 2742 1273
2 2743 11
2 2744 3
2 2745 4
2 2746 2
2 2747 1272
2 2748 1418
2 2749 2
2 2751 2
2 2752 9
2 2753 11
2 2754 9
2 2755 3
2 2756 6
2 2757 4
2 2758 7
2 2759 5
2 2760 14
2 2761 2
2 2762 17
2 2763 8
2 2765 9
2 2766 6
2 2767 7
2 2768 5
2 2769 697
2 2770 3
2 2771 5
2 2772 4
2 2773 4
2 2774 2
2 2775 6
2 2776 7
2 2777 3
2 2778 2
2 2779 3
2 2780 6
2 2782 4
2 2783 3
2 2784 3
2 2785 2
2 2786 2
2 2787 1723
2 2788 3
2 2789 10
2 2790 12
2 2791 16
2 2792 7
2 2793 4
2 2794 2
2 2795 3359
2 2796 2
2 2797 3
2 2798 3
2 2799 12
2 2800 3
2 2801 2759
2 2802 9
2 2803 2
2 2804 5
2 2805 2
2 2806 4
2 2807 3
2 2808 5
2 2809 2
2 2810 15
2 2811 4
2 2812 1079
2 2813 16
2 2814 3
2 2815 5
2 2816 3
2 2817 12
2 2818 5
2 2819 4
2 2820 27
2 2821 38
2 2823 6
2 2824 4
2 2825 9
2 2826 7
2 2827 604
2 2828 7
2 2829 1073
2 2830 5069
2 2831 1
2 2832 11
2 2833 8
2 2834 8
2 2835 5
2 2836 2
2 2837 3
2 2838 9
2 2839 1461
2 2840 2
2 2841 3
2 2843 4
2 2844 4
2 2845 5
2 2846 7
2 2847 1
2 2848 20
2 2849 3568
2 2850 7
2 2851 583
2 2852 2
2 2853 7
2 2855 56
2 2856 4
2 2857 6
2 2858 4
2 2859 5
2 2861 5
2 2862 8
2 2863 3
2 2864 3
2 2865 5
2 2866 6
2 2867 1840
2 2868 5
2 2869 2
2 2870 1
2 2871 5
2 2872 721
2 2873 4
2 2874 4
2 2875 13
2 2876 3
2 2877 9
2 2878 11
2 2879 2748
2 2880 11
2 2881 15
2 2882 2
2 2883 4
2 2884 5
2 2885 5
2 2887 4
2 2888 1
2 2889 1641
2 2890 5
2 2891 4
2 2892 2
2 2893 10
2 2894 20
2 2895 7
2 2896 1
2 2897 9
2 2898 9
2 2899 2
2 2900 1385
2 2901 4
2 2902 6
2 2903 5
2 2905 5
2 2906 2
2 2907 4
2 2908 490
2 2909 3
2 2910 2470
2 2911 1148
2 2912 4
2 2913 8
2 2914 3
2 2915 3
2 2916 12
2 2917 24
2 2918 6
2 2919 5
2 2920 2
2 2921 2
2 2923 1713
2 2924 5
2 2925 6
2 2926 2
2 2927 3
2 2928 4
2 2929 4
2 2930 5
2 2931 2
2 2932 2
2 2933 2
2 2934 2
2 2935 11
2 2936 3
2 2937 2
2 2939 3
2 2940 4
2 2941 11
2 2942 4
2 2943 7
2 2944 1
2 2945 7
2 2946 3
2 2947 7
2 2948 10
2 2949 2
2 2950 6
2 2951 4
2 2952 7
2 2953 1603
2 2954 3
2 2955 2
2 2957 3
2 2958 7
2 2959 1562
2 2960 10
2 2961 2
2 2962 15
2 2963 6
2 2964 5
2 2965 2
2 2966 5
2 2967 2
2 2968 2
2 2969 16
2 2970 11
2 2971 4
2 2972 12
2 2973 7
2 2974 9
2 2975 17
2 2976 2
2 2977 4
2 2978 1
2 2979 8
2 2980 1
2 2981 3
2 2982 1
2 2983 8
2 2984 2
2 2985 3
2 2986 10
2 2987 13
2 2988 10
2 2989 3
2 2990 921
2 2991 22
2 2992 11
2 2993 2
2 2995 5
2 2996 3
2 2997 4
2 2999 2
2 3000 6
2 3001 2
2 3003 2356
2 3004 5
2 3005 1720
2 3006 5
2 3008 6
2 3009 25
2 3010 2043
2 3011 5
2 3012 8
2 3014 1
2 3015 10
2 3016 1
2 3017 6
2 3018 2
2 3019 6
2 3021 15
2 3022 4
2 3023 6
2 3024 13
2 3025 4
2 3026 4
2 3027 5
2 3028 3
2 3029 6
2 3030 3
2 3031 2
2 3032 6
2 3033 18
2 3034 9
2 3035 4
2 3036 5
2 3037 3
2 3038 9
2 3039 3
2 3040 8
2 3041 8
2 3042 13
2 3043 5
2 3044 2
2 3045 5
2 3046 6
2 3048 2081
2 3049 5
2 3050 3
2 3051 4
2 3052 19
2 3053 26
2 3054 5
2 3055 5
2 3056 3
2 3057 3
2 3058 4
2 3059 3
2 3060 3
2 3062 7
2 3063 4
2 3064 3
2 3065 10
2 3066 9
2 3068 8
2 3069 4
2 3070 4
2 3071 3
2 3072 1528
2 3073 1
2 3074 7
2 3075 2
2 3076 3
2 3077 3
2 3078 7
2 3079 7
2 3080 9
2 3081 24
2 3083 3
2 3084 11
2 3085 4
2 3087 1623
2 3088 8
2 3089 5
2 3090 19
2 3091 6
2 3092 2
2 3093 7
2 3094 1
2 3095 7
2 3096 6
2 3097 3
2 3098 12
2 3099 8
2 3100 2
2 3101 5
2 3102 2
2 3103 10
2 3104 14
2 3105 1
2 3106 5
2 3107 5
2 3108 3
2 3109 2
2 3110 2
2 3111 4
2 3112 4
2 3113 21
2 3114 4
2 3115 4
2 3116 1364
2 3117 6
2 3118 5
2 3119 1
2 3120 7
2 3121 3
2 3122 6
2 3123 1
2 3124 2
2 3125 29
2 3126 3
2 3127 5
2 3128 1189
2 3129 11
2 3130 1
2 3131 8
2 3133 2359
2 3135 5
2 3136 4169
2 3137 4
2 3138 2
2 3139 765
2 3140 153
2 3141 2
2 3142 5
2 3143 9
2 3144 7
2 3145 55
2 3146 9
2 3147 2
2 3148 9
2 3149 1786
2 3150 7
2 3151 4
2 3152 3
2 3153 2
2 3154 5
2 3155 2062
2 3156 6
2 3157 5
2 3158 6
2 3159 1
2 3160 9
2 3161 3
2 3162 3
2 3163 19
2 3165 6
2 3166 4
2 3167 3
2 3168 6
2 3169 8
2 3170 2
2 3171 22
2 3172 1
2 3173 3
2 3174 2
2 3175 3
2 3176 4
2 3177 2
2 3178 748
2 3180 7
2 3181 810
2 3182 8
2 3183 3
2 3184 1
2 3185 3
2 3186 9
2 3187 110
2 3188 16
2 3189 5
2 3190 11
2 3191 1912
2 3192 3
2 3193 4
2 3194 3
2 3195 2
2 3196 6
2 3197 6
2 3198 1
2 3199 5
2 3200 3010
2 3201 6
2 3202 5
2 3203 2
2 3204 5
2 3207 21
2 3208 6
2 3209 5
2 3210 3
2 3211 4
2 3212 10
2 3213 11
2 3214 4
2 3215 4793
2 3216 3
2 3217 7
2 3218 3
2 3219 5
2 3220 5
2 3221 4
2 3222 4
2 3223 4
2 3224 7
2 3225 2
2 3226 14
2 3227 4
2 3228 14
2 3229 1261
2 3230 2325
2 3231 5
2 3232 4
2 3233 4
2 3234 9
2 3236 4
2 3237 32
2 3238 4
2 3239 5
2 3241 2
2 3242 7
2 3243 3887
2 3244 3
2 3245 978
2 3246 3
2 3247 25
2 3248 2
2 3249 4
2 3250 13
2 3251 4
2 3252 4
2 3253 5
2 3254 5
2 3255 3504
2 3256 3
2 3257 2
2 3258 9
2 3259 13
2 3260 5
2 3261 13
2 3262 9
2 3263 2173
2 3264 2
2 3265 3
2 3267 1
2 3268 15
2 3269 3
2 3270 1994
2 3271 3
2 3272 2
2 3273 6
2 3274 943
2 3275 7
2 3276 3
2 3277 1
2 3278 4
2 3279 3
2 3280 1
2 3281 1342
2 3282 4
2 3283 3
2 3284 7
2 3285 2
2 3286 2
2 3287 1529
2 3288 15
2 3289 7
2 3290 8
2 3291 8
2 3292 3
2 3293 3
2 3294 2
2 3295 3
2 3296 1652
2 3297 2
2 3298 1
2 3299 2
2 3300 1
2 3302 928
2 3303 1
2 3304 24
2 3305 3
2 3306 3
2 3307 4
2 3308 2
2 3310 8
2 3311 5
2 3312 2548
2 3313 7
2 3314 3
2 3315 4
2 3316 6
2 3317 1
2 3319 659
2 3321 3057
2 3322 4
2 3323 3
2 3324 2
2 3325 4
2 3326 5
2 3327 2980
2 3328 7
2 3329 3
2 3331 2
2 3332 2
2 3333 2
2 3334 6
2 3335 4
2 3336 21
2 3337 4
2 3338 2
2 3339 2
2 3340 9
2 3341 7
2 3342 16
2 3343 7
2 3344 3264
2 3345 1
2 3346 4
2 3347 3
2 3348 9
2 3349 1
2 3350 1
2 3351 11
2 3352 7
2 3353 5
2 3354 9
2 3355 1
2 3356 3
2 3357 4
2 3358 3
2 3359 1
2 3360 4
2 3361 4
2 3362 2711
2 3363 2
2 3364 4
2 3365 853
2 3366 2
2 3367 3
2 3368 6
2 3369 820
2 3370 2
2 3371 2
2 3372 1376
2 3373 7
2 3374 2156
2 3375 4
2 3376 4
2 3377 2252
2 3378 3
2 3379 10
2 3380 3
2 3381 6
2 3382 4
2 3383 34
2 3384 2357
2 3385 2
2 3386 11
2 3387 6
2 3388 2
2 3389 3
2 3390 15
2 3391 1004
2 3392 2
2 3393 17
2 3394 3
2 3395 4
2 3396 2
2 3397 4
2 3398 1
2 3399 1909
2 3400 2648
2 3401 2
2 3402 1
2 3403 6
2 3404 12
2 3405 3
2 3406 1
2 3407 4
2 3408 2
2 3409 3
2 3410 6
2 3411 5
2 3413 2
2 3414 2561
2 3415 2
2 3416 31
2 3417 1174
2 3418 9
2 3419 7
2 3420 1
2 3421 27
2 3422 3
2 3423 6
2 3424 4
2 3425 11
2 3426 23
2 3427 1184
2 3428 3
2 3429 4
2 3430 3
2 3431 4
2 3432 19
2 3433 5
2 3434 4
2 3435 1192
2 3436 4
2 3437 3
2 3438 33
2 3439 1
2 3440 5
2 3441 13
2 3443 2426
2 3444 22
2 3445 6
2 3446 2
2 3447 5
2 3448 8
2 3449 4
2 3450 3
2 3451 2
2 3452 6
2 3453 4
2 3454 1599
2 3455 12
2 3457 3
2 3458 11
2 3459 2367
2 3460 8
2 3462 14
2 3463 5
2 3464 1069
2 3465 8
2 3466 2
2 3467 4
2 3468 33
2 3469 6
2 3470 4
2 3471 3159
2 3472 4
2 3473 3
2 3474 1
2 3475 638
2 3476 3
2 3477 2
2 3478 3
2 3479 3
2 3481 4
2 3482 1
2 3483 1
2 3484 2
2 3485 2
2 3486 4
2 3487 5
2 3489 5092
2 3490 15
2 3491 2
2 3492 6
2 3493 7
2 3494 3
2 3495 13
2 3496 5
2 3497 1
2 3498 2
2 3499 2
2 3500 25
2 3501 5
2 3502 3
2 3503 5
2 3504 2
2 3505 1
2 3507 1901
2 3508 9
2 3509 3018
2 3510 6
2 3511 4
2 3512 7
2 3513 2
2 3514 4
2 3515 9
2 3516 12
2 3517 2
2 3518 3
2 3519 1498
2 3520 4
2 3521 3
2 3522 6
2 3523 3
2 3524 2
2 3525 8
2 3526 3
2 3527 3
2 3528 5
2 3530 5
2 3531 5
2 3532 1
2 3533 8
2 3534 6
2 3535 772
2 3536 12
2 3537 5
2 3538 6
2 3539 1
2 3540 7
2 3542 1746
2 3543 2
2 3544 8
2 3545 3
2 3546 1
2 3547 4
2 3548 1
2 3549 5
2 3550 11
2 3552 6
2 3553 5
2 3554 135
2 3555 4
2 3556 2
2 3557 4
2 3558 13
2 3559 3
2 3560 2
2 3561 1
2 3562 8
2 3563 2
2 3564 8
2 3565 3
2 3566 2
2 3567 1422
2 3568 889
2 3569 6
2 3570 4
2 3571 1580
2 3572 11
2 3573 4
2 3574 6
2 3575 2
2 3576 8
2 3577 1
2 3578 5
2 3579 640
2 3580 1
2 3581 1
2 3582 16
2 3583 6
2 3584 3
2 3586 3
2 3587 8
2 3588 5
2 3589 2128
2 3590 27
2 3591 5
2 3592 5073
2 3593 2
2 3594 8
2 3595 4
2 3596 4
2 3597 1
2 3598 5
2 3599 4
2 3600 4
2 3601 3
2 3602 4536
2 3603 9
2 3604 12
2 3605 4
2 3606 9
2 3607 2
2 3608 9
2 3609 3
2 3610 1282
2 3611 7
2 3612 5
2 3613 2
2 3614 3
2 3615 1351
2 3616 1438
2 3617 6
2 3618 4
2 3619 5
2 3620 4
2 3621 5
2 3622 1
2 3623 3
2 3624 2
2 3625 1790
2 3626 12
2 3627 2
2 3628 4
2 3629 1336
2 3630 6
2 3631 2
2 3632 4
2 3633 9
2 3634 10
2 3635 5
2 3636 3
2 3637 5
2 3638 5
2 3639 4
2 3640 3
2 3641 2726
2 3642 3
2 3643 1
2 3644 9
2 3645 5
2 3646 835
2 3647 5
2 3648 5
2 3649 4
2 3650 1808
2 3651 2
2 3652 1
2 3653 3
2 3654 4
2 3655 1853
2 3656 5
2 3658 4089
2 3659 4
2 3660 2
2 3661 4
2 3662 11
2 3664 1640
2 3665 7
2 3666 3
2 3667 5
2 3668 4
2 3669 3
2 3670 3
2 3671 2
2 3672 1
2 3673 12
2 3674 2809
2 3675 6
2 3676 5
2 3677 3
2 3678 2
2 3679 2
2 3680 8
2 3681 1449
2 3682 1
2 3683 5
2 3684 5
2 3686 2
2 3687 2
2 3688 3
2 3689 5
2 3690 5
2 3691 13
2 3692 1
2 3693 2
2 3694 2708
2 3695 7
2 3696 3
2 3697 1
2 3698 3
2 3699 3
2 3700 9
2 3701 3
2 3703 9
2 3704 6
2 3705 1
2 3706 3
2 3707 11
2 3708 9
2 3709 29
2 3710 4
2 3711 4
2 3712 11
2 3713 5
2 3714 8
2 3715 1
2 3716 1
2 3717 6
2 3718 3
2 3719 2
2 3720 7
2 3721 1
2 3722 1066
2 3723 13
2 3724 5
2 3725 2655
2 3726 4
2 3727 5
2 3728 2
2 3729 5
2 3730 4
2 3731 7
2 3732 1
2 3733 1
2 3734 1
2 3735 5
2 3736 4
2 3737 2
2 3738 5
2 3739 24
2 3740 2
2 3741 1
2 3742 2
2 3743 3
2 3745 4
2 3746 1
2 3747 3
2 3749 1
2 3750 2
2 3751 12
2 3752 5
2 3753 1674
2 3754 2
2 3755 1093
2 3756 8
2 3757 3
2 3758 2
2 3761 2
2 3762 3
2 3763 5
2 3764 2
2 3765 813
2 3766 8
2 3767 3
2 3768 6
2 3769 9
2 3770 23
2 3771 47
2 3772 3
2 3773 1
2 3774 3
2 3775 7
2 3776 4
2 3777 3
2 3778 12
2 3779 2311
2 3780 21
2 3781 3
2 3782 4199
2 3783 3
2 3784 12
2 3785 4
2 3786 6
2 3787 9
2 3788 5
2 3790 1
2 3791 1
2 3792 8
2 3793 2
2 3794 1
2 3795 5
2 3796 4
2 3797 3
2 3798 4
2 3799 3
2 3800 1173
2 3801 3
2 3802 37
2 3803 2
2 3804 15
2 3805 9
2 3806 1091
2 3807 4
2 3808 1406
2 3809 4
2 3810 9
2 3812 4
2 3813 3
2 3814 3
2 3815 3
2 3816 8
2 3817 4
2 3818 5
2 3819 2
2 3820 2
2 3821 5
2 3822 2995
2 3823 2
2 3824 49
2 3825 2479
2 3826 11
2 3827 4
2 3828 10
2 3829 11
2 3830 36
2 3831 8
2 3832 1
2 3834 2
2 3835 2
2 3836 1
2 3837 8
2 3838 4
2 3839 4
2 3840 3
2 3841 3
2 3842 997
2 3843 1
2 3845 4
2 3846 4
2 3847 5
2 3848 2
2 3849 831
2 3850 7
2 3851 9
2 3852 2
2 3853 4
2 3854 3
2 3855 3
2 3856 784
2 3857 5
2 3859 3
2 3862 14
2 3863 5250
2 3864 3
2 3865 2
2 3866 2763
2 3867 4
2 3869 2
2 3870 4
2 3871 5
2 3872 43
2 3873 1283
2 3874 5
2 3875 3755
2 3876 5
2 3877 5
2 3878 2
2 3879 4
2 3880 10
2 3881 10
2 3882 7
2 3883 9
2 3884 5
2 3885 905
2 3886 4
2 3887 6
2 3888 4
2 3889 4
2 3890 2998
2 3891 16
2 3892 6
2 3893 3
2 3894 3
2 3895 6
2 3896 4
2 3897 3
2 3898 3
2 3899 991
2 3900 1
2 3901 4
2 3902 4
2 3903 4
2 3904 3
2 3905 4
2 3906 12
2 3907 4
2 3908 3576
2 3909 8
2 3910 6
2 3911 12
2 3912 8
2 3913 5
2 3914 1
2 3915 3
2 3916 2
2 3917 18
2 3918 1
2 3919 6
2 3920 1
2 3921 5
2 3922 1
2 3923 2
2 3924 7
2 3925 4
2 3926 6026
2 3927 2
2 3928 3
2 3929 5
2 3930 1027
2 3931 8
2 3932 5
2 3934 6
2 3935 1
2 3936 3
2 3937 9
2 3939 5
2 3940 10
2 3942 2
2 3943 7
2 3944 7
2 3945 1
2 3946 5
2 3947 4
2 3948 15
2 3949 5
2 3950 3
2 3951 4
2 3952 6
2 3953 2
2 3954 9
2 3955 5
2 3956 8987
2 3957 19
2 3958 2
2 3959 2
2 3960 6
2 3961 2
2 3962 4
2 3963 4
2 3964 5
2 3965 1758
2 3966 1
2 3967 4
2 3968 5
2 3969 3
2 3970 5
2 3972 2
2 3973 2
2 3974 2
2 3975 4
2 3976 3
2 3977 1
2 3978 5
2 3979 2152
2 3980 3
2 3981 1484
2 3982 4
2 3983 5
2 3984 4
2 3985 1173
2 3986 3
2 3987 1659
2 3988 5
2 3989 3
2 3990 3
2 3991 11
2 3992 6
2 3993 1
2 3994 4
2 3995 5
2 3996 1436
2 3997 4
2 3998 3144
2 3999 1547
2 4000 1
2 4001 2
2 4002 13
2 4003 3
2 4004 4
2 4005 2
2 4006 2
2 4007 830
2 4008 2
2 4009 14
2 4010 3
2 4011 6
2 4012 5
2 4013 4
2 4014 1
2 4015 3
2 4016 2
2 4017 1342
2 4018 1580
2 4019 1583
2 4020 5
2 4021 4658
2 4022 1
2 4023 2
2 4024 627
2 4025 4
2 4027 2
2 4028 2
2 4029 5
2 4030 2
2 4031 6
2 4032 17
2 4033 2
2 4034 8
2 4035 15
2 4036 4207
2 4037 9
2 4038 4
2 4039 2
2 4040 6
2 4041 2
2 4042 9
2 4043 1
2 4044 2
2 4045 4983
2 4047 4
2 4048 6
2 4049 2
2 4050 4
2 4051 9
2 4052 2
2 4053 4
2 4054 10
2 4055 5
2 4056 2
2 4057 34
2 4058 2624
2 4059 9
2 4060 2
2 4061 7
2 4062 7
2 4064 4
2 4065 4
2 4066 7
2 4068 3
2 4069 7
2 4070 2
2 4071 3
2 4072 2
2 4073 1
2 4074 3
2 4075 6
2 4076 2
2 4077 3
2 4078 4
2 4079 4
2 4080 3
2 4081 2
2 4082 2
2 4085 4
2 4086 4
2 4087 2
2 4088 4
2 4089 840
2 4090 1
2 4091 3
2 4092 5
2 4093 6
2 4094 6
2 4095 3
2 4096 6
2 4097 3
2 4098 11
2 4099 3
2 4100 5
2 4101 3
2 4102 1
2 4103 3
2 4104 4
2 4105 2
2 4106 1
2 4107 2179
2 4108 3
2 4109 9
2 4110 1
2 4111 5
2 4112 4
2 4113 2
2 4114 834
2 4115 10
2 4116 4
2 4119 994
2 4120 6
2 4121 1
2 4122 1312
2 4123 3
2 4124 6
2 4125 7
2 4126 6
2 4127 3
2 4128 9
2 4129 2
2 4130 1
2 4131 3
2 4132 6
2 4133 3
2 4134 1264
2 4135 9
2 4136 8
2 4137 5
2 4138 5
2 4140 1
2 4141 15
2 4142 7
2 4143 3
2 4144 2
2 4145 2
2 4146 6
2 4147 3
2 4148 9
2 4149 7
2 4150 7
2 4152 4
2 4153 2
2 4154 3
2 4155 4
2 4156 3
2 4157 3
2 4158 3
2 4159 2102
2 4160 20
2 4161 5
2 4162 1
2 4163 9
2 4164 3
2 4165 1593
2 4166 2
2 4167 2
2 4168 9
2 4169 4
2 4170 15
2 4171 8
2 4172 7
2 4173 559
2 4174 2
2 4175 2418
2 4176 1
2 4177 3
2 4178 2
2 4179 4
2 4180 3
2 4181 1357
2 4182 2
2 4183 11
2 4184 25
2 4185 7
2 4186 2
2 4187 7
2 4188 12
2 4189 15
2 4190 3
2 4191 3
2 4192 7
2 4193 6
2 4194 3
2 4195 3
2 4196 2
2 4197 4
2 4198 8
2 4199 2326
2 4200 9
2 4201 4
2 4202 1948
2 4203 12
2 4204 2
2 4205 1854
2 4206 9
2 4207 2
2 4208 3
2 4209 3
2 4210 3836
2 4211 3
2 4212 5
2 4213 9
2 4214 12
2 4215 4
2 4216 4
2 4217 7
2 4218 1
2 4219 2
2 4220 5
2 4221 1
2 4222 1
2 4223 5
2 4224 9
2 4225 3749
2 4226 2
2 4227 7
2 4228 1587
2 4229 15
2 4230 3
2 4231 5
2 4232 5
2 4233 11
2 4234 4
2 4236 19
2 4237 2364
2 4238 3
2 4239 8
2 4240 4
2 4242 7
2 4243 4
2 4244 1
2 4245 16
2 4246 4
2 4247 4
2 4248 6
2 4249 10
2 4251 2
2 4252 4
2 4253 2256
2 4254 5
2 4255 5
2 4257 9
2 4258 3
2 4259 3
2 4260 5
2 4261 2804
2 4262 2
2 4263 9
2 4264 2
2 4265 16
2 4266 4
2 4267 3609
2 4268 7
2 4269 3
2 4270 8
2 4271 3272
2 4272 5
2 4273 8
2 4274 10
2 4275 6
2 4276 7
2 4277 1598
2 4278 2
2 4279 4
2 4280 3
2 4281 13
2 4282 3
2 4283 7026
2 4285 19
2 4286 1
2 4287 1
2 4288 2
2 4289 4
2 4290 5
2 4291 4
2 4292 3
2 4293 1
2 4294 2
2 4295 3
2 4296 7
2 4297 4
2 4298 9
2 4300 6
2 4301 11
2 4302 5
2 4303 22
2 4305 9
2 4306 5
2 4307 3
2 4308 7
2 4309 5
2 4310 3
2 4311 6
2 4312 17
2 4313 10
2 4315 3
2 4316 7
2 4318 10
2 4319 3
2 4320 6
2 4321 4
2 4322 2
2 4323 7
2 4324 1851
2 4325 2
2 4326 2
2 4327 2
2 4328 7
2 4329 2
2 4331 1187
2 4332 6
2 4333 3
2 4334 6
2 4335 13
2 4336 4
2 4338 24
2 4339 1
2 4340 6
2 4341 2
2 4342 5
2 4343 12
2 4344 3
2 4345 1
2 4346 7
2 4347 4
2 4348 1
2 4349 6
2 4350 3
2 4351 4
2 4352 1
2 4353 7
2 4354 8
2 4355 2
2 4356 5
2 4357 4
2 4358 3
2 4359 2
2 4360 3
2 4361 6
2 4362 3
2 4363 3138
2 4364 4
2 4365 6
2 4366 14
2 4367 6
2 4368 6
2 4369 5
2 4370 6
2 4371 5
2 4372 2
2 4373 3
2 4374 1265
2 4375 1
2 4376 11
2 4377 1
2 4378 3608
2 4379 12
2 4380 2
2 4381 5
2 4383 2
2 4384 6
2 4385 6
2 4386 12
2 4387 6
2 4388 16
2 4389 715
2 4390 1
2 4391 2
2 4393 5
2 4394 4
2 4395 4
2 4396 2081
2 4397 8
2 4398 2
2 4399 6
2 4400 10
2 4401 4
2 4402 8
2 4403 6
2 4404 10
2 4406 3
2 4407 6
2 4408 2
2 4409 4
2 4410 6
2 4411 2
2 4413 2
2 4415 3
2 4416 3
2 4417 2
2 4418 6
2 4419 4
2 4422 3
2 4423 3
2 4425 4
2 4426 29
2 4427 4
2 4429 2
2 4430 3
2 4432 4
2 4433 4026
2 4434 42
2 4435 1
2 4436 15
2 4437 1187
2 4438 5
2 4439 4
2 4440 3
2 4442 2684
2 4443 2
2 4444 4
2 4445 3
2 4446 2
2 4447 6
2 4448 6
2 4449 1950
2 4450 3
2 4451 6
2 4452 5
2 4453 12
2 4454 1
2 4455 11
2 4456 11
2 4457 9
2 4458 3
2 4460 4
2 4462 8
2 4463 1934
2 4464 5
2 4466 11
2 4467 3909
2 4468 17
2 4469 3
2 4470 5
2 4471 5
2 4472 4
2 4473 2
2 4474 7
2 4475 7
2 4476 3
2 4477 3
2 4478 1
2 4479 1
2 4480 8
2 4481 3
2 4482 5
2 4483 1
2 4484 2765
2 4485 3
2 4486 1
2 4487 2
2 4488 2
2 4489 6
2 4490 5
2 4491 2
2 4492 5
2 4493 5
2 4494 4
2 4495 11
2 4496 6
2 4497 5
2 4498 3
2 4499 11
2 4500 4
2 4501 2
2 4502 1425
2 4504 5
2 4505 9
2 4506 3
2 4507 1
2 4508 2
2 4509 5
2 4510 7
2 4511 7
2 4512 2452
2 4513 5
2 4514 1
2 4515 2
2 4516 3
2 4518 7
2 4519 2
2 4520 1975
2 4521 5
2 4522 3
2 4523 9
2 4524 3
2 4525 6
2 4526 4
2 4527 7
2 4528 4
2 4529 9
2 4530 12
2 4531 5
2 4532 3
2 4533 2
2 4534 2
2 4536 7
2 4537 4
2 4538 6
2 4539 16
2 4540 3
2 4541 3
2 4542 1
2 4543 3
2 4544 6
2 4545 2024
2 4546 5
2 4547 21
2 4548 1703
2 4549 2
2 4551 987
2 4552 5
2 4553 5
2 4554 7
2 4555 20
2 4556 2
2 4557 4
2 4558 1104
2 4559 3
2 4560 3
2 4561 1
2 4562 3
2 4563 9
2 4564 1
2 4565 6
2 4566 8
2 4567 8
2 4568 1
2 4569 6200
2 4570 3
2 4571 2
2 4572 2
2 4573 3
2 4574 5
2 4575 7
2 4576 4
2 4578 1679
2 4579 1
2 4580 4
2 4582 4
2 4583 10
2 4584 3
2 4585 4
2 4586 8
2 4587 16
2 4588 5
2 4589 5
2 4590 3
2 4591 11
2 4592 2
2 4593 5
2 4594 4
2 4595 13
2 4596 3
2 4597 6
2 4598 2
2 4599 10
2 4600 7
2 4602 2265
2 4603 2
2 4604 2
2 4605 6
2 4606 4
2 4607 2
2 4608 20
2 4609 9
2 4610 5
2 4611 2776
2 4612 4
2 4613 1
2 4614 5
2 4615 3
2 4616 23
2 4617 5
2 4618 2
2 4619 3
2 4620 5
2 4621 1163
2 4623 4
2 4624 863
2 4625 2837
2 4626 2
2 4627 2
2 4628 3
2 4629 14
2 4630 3
2 4631 8
2 4632 7
2 4633 4
2 4634 2912
2 4635 2
2 4636 1105
2 4637 3
2 4638 5
2 4639 18
2 4640 1
2 4641 12
2 4642 1046
2 4643 3
2 4644 3
2 4645 4
2 4646 5
2 4647 2
2 4648 8
2 4650 2
2 4653 2
2 4654 1
2 4655 6
2 4656 959
2 4657 6
2 4658 2
2 4659 14
2 4660 1
2 4661 5
2 4662 3
2 4664 6
2 4665 2
2 4666 4
2 4668 3
2 4669 2939
2 4670 3
2 4671 3
2 4672 5
2 4673 2
2 4674 9
2 4675 1
2 4676 1630
2 4677 3
2 4678 11
2 4679 13
2 4680 3
2 4681 3
2 4683 1
2 4684 6
2 4685 241
2 4686 3
2 4687 3
2 4688 3
2 4689 1136
2 4690 1
2 4691 1
2 4692 3098
2 4693 4
2 4694 2
2 4696 8
2 4697 962
2 4698 18
2 4699 5
2 4702 8
2 4703 1
2 4704 2
2 4705 1
2 4706 5
2 4707 2
2 4708 2094
2 4709 1
2 4711 3
2 4712 5
2 4714 2
2 4715 6
2 4716 13
2 4717 8
2 4718 1
2 4719 3
2 4720 10
2 4721 37
2 4722 16
2 4723 1
2 4724 5
2 4725 7
2 4726 3
2 4727 2
2 4728 6
2 4729 3
2 4730 2
2 4732 6
2 4733 814
2 4734 2
2 4735 4
2 4736 1117
2 4737 16
2 4738 1363
2 4739 7
2 4740 4
2 4741 4
2 4742 4
2 4743 1650
2 4744 6
2 4745 6
2 4746 13
2 4747 33
2 4748 4
2 4749 6
2 4750 1471
2 4752 1
2 4753 981
2 4754 2
2 4755 4
2 4756 3
2 4757 1
2 4758 4
2 4759 5
2 4760 4
2 4761 1
2 4762 5
2 4763 14
2 4764 4
2 4765 2
2 4766 2
2 4767 8547
2 4768 9
2 4769 2518
2 4770 3
2 4771 3
2 4772 4
2 4773 11
2 4774 4
2 4775 14
2 4776 1
2 4777 3
2 4778 14
2 4779 8
2 4780 3
2 4781 12
2 4782 3
2 4783 5
2 4785 2
2 4786 6
2 4787 3
2 4788 13
2 4789 10
2 4790 2
2 4791 4
2 4792 4
2 4793 3
2 4794 1242
2 4795 7
2 4796 9
2 4797 1
2 4798 3
2 4799 9
2 4800 6
2 4801 1
2 4802 5
2 4803 18
2 4804 5
2 4805 7
2 4806 4
2 4807 4
2 4809 7
2 4810 2
2 4811 19
2 4812 5
2 4813 3
2 4814 18
2 4815 2
2 4816 33
2 4817 9
2 4818 900
2 4819 3
2 4820 5
2 4821 1
2 4822 2
2 4823 5
2 4826 730
2 4827 8
2 4828 3
2 4829 7
2 4830 3293
2 4831 6
2 4832 923
2 4833 5
2 4834 1
2 4835 5
2 4836 12
2 4837 11
2 4838 13
2 4839 6
2 4840 2
2 4841 9
2 4842 6
2 4844 2
2 4845 4
2 4846 20
2 4847 3
2 4849 3
2 4850 617
2 4851 14
2 4852 4
2 4853 5
2 4854 1
2 4856 1958
2 4857 4
2 4858 2
2 4859 6
2 4860 3
2 4861 5342
2 4862 2502
2 4863 14
2 4864 2
2 4865 12
2 4867 5
2 4868 3
2 4869 2972
2 4870 7
2 4871 32
2 4872 4
2 4873 2
2 4874 5
2 4875 3
2 4876 662
2 4877 7
2 4878 1833
2 4879 28
2 4880 10
2 4881 23
2 4882 15
2 4883 7
2 4884 3
2 4885 5
2 4887 14
2 4888 3
2 4889 4
2 4890 5
2 4891 1
2 4892 20
2 4893 5
2 4894 1410
2 4895 10
2 4896 3
2 4897 14
2 4898 1
2 4900 3
2 4901 6
2 4902 2576
2 4903 4
2 4904 862
2 4905 4
2 4906 1
2 4907 10
2 4908 1
2 4909 3
2 4910 3106
2 4911 3
2 4913 1365
2 4914 4
2 4916 6
2 4917 3
2 4918 2
2 4919 692
2 4920 11
2 4921 2
2 4922 154
2 4923 1
2 4924 5
2 4925 3
2 4927 4
2 4928 5
2 4929 2
2 4930 3
2 4931 4
2 4932 11
2 4933 1
2 4934 8
2 4935 2
2 4936 7
2 4937 1
2 4939 1
2 4940 4
2 4941 7
2 4942 5
2 4943 4
2 4944 10
2 4945 2057
2 4946 2
2 4947 3
2 4949 1
2 4950 5
2 4951 3
2 4952 1
2 4953 1
2 4954 5
2 4955 4
2 4956 20
2 4957 3
2 4958 1
2 4959 2067
2 4960 7
2 4961 2
2 4962 6
2 4964 851
2 4965 3
2 4966 1
2 4967 2
2 4968 2
2 4969 16
2 4971 1
2 4972 6
2 4973 2
2 4974 2
2 4975 7
2 4976 2
2 4977 5
2 4978 2
2 4979 1
2 4980 4
2 4981 6
2 4982 6
2 4984 908
2 4985 4
2 4986 5
2 4989 4
2 4990 4
2 4991 12
2 4993 11
2 4996 3
2 4997 2
2 4998 2953
2 4999 1
2 5000 1
2 5001 7
2 5002 1
2 5003 1
2 5004 1
2 5005 5
2 5006 4
2 5007 5
2 5008 3
2 5009 2
2 5010 7
2 5011 4
2 5012 4
2 5013 2
2 5014 2
2 5015 23
2 5016 4
2 5017 1
2 5018 9
2 5019 2
2 5021 4
2 5022 13
2 5023 3
2 5024 5
2 5025 3001
2 5026 1557
2 5028 3
2 5029 3
2 5030 2
2 5031 4
2 5032 5
2 5033 3
2 5034 3
2 5035 9
2 5036 5
2 5037 5
2 5038 2
2 5039 109
2 5042 1
2 5043 3
2 5044 6
2 5045 5
2 5046 4
2 5048 2
2 5049 12
2 5050 4
2 5051 1
2 5052 2
2 5053 11
2 5055 3
2 5056 3
2 5057 3
2 5058 1962
2 5059 9
2 5060 1
2 5061 9
2 5062 4
2 5063 2
2 5064 3
2 5065 7
2 5066 2
2 5067 1
2 5068 2609
2 5069 12
2 5071 1
2 5072 3518
2 5073 5
2 5075 18
2 5076 9
2 5077 2
2 5079 6
2 5080 3
2 5081 4
2 5083 4
2 5084 9
2 5085 7
2 5086 4165
2 5087 3
2 5088 17
2 5089 2
2 5090 1
2 5092 4
2 5093 16
2 5094 1922
2 5095 1079
2 5097 8
2 5098 1
2 5099 7
2 5100 7
2 5101 3
2 5102 8
2 5103 3
2 5104 2
2 5105 11
2 5106 8
2 5107 3
2 5109 3
2 5110 3
2 5111 5
2 5112 1
2 5113 1319
2 5115 7
2 5116 6132
2 5117 3
2 5118 461
2 5119 3
2 5120 1
2 5121 3
2 5122 2
2 5123 5
2 5124 3
2 5125 4
2 5126 4
2 5128 420
2 5129 5
2 5130 8
2 5131 4
2 5134 2
2 5135 1
2 5136 405
2 5137 1
2 5139 2
2 5140 3
2 5141 10
2 5143 3
2 5144 1
2 5145 5
2 5146 3
2 5147 4
2 5148 771
2 5149 1
2 5150 6
2 5152 7
2 5153 3
2 5154 54
2 5157 3
2 5158 1
2 5159 4
3 1 1
3 2 2
3 5 4
3 6 4
3 9 3
3 10 3
3 11 5
3 12 4
3 13 3
3 14 1
3 15 1
3 19 3
3 20 5
3 21 1
3 22 1
3 23 5
3 24 2
3 25 7
3 27 1079
3 28 7
3 29 1
3 30 3
3 31 343
3 32 158
3 33 1
3 34 1
3 35 2
3 36 1000
3 37 677
3 38 1
3 39 3
3 40 2
3 41 4
3 42 420
3 43 3
3 45 4
3 46 5
3 47 1
3 48 4
3 49 12
3 50 4
3 51 4
3 52 3
3 53 10
3 54 7
3 55 1
3 56 3
3 57 2
3 58 6
3 59 1
3 60 4
3 61 4
3 62 2
3 63 5
3 64 2
3 65 1
3 66 1
3 67 2
3 68 4
3 69 5
3 70 2
3 71 6
3 73 2
3 74 2
3 75 2
3 76 4
3 77 4
3 78 2
3 79 2
3 80 195
3 82 422
3 83 4
3 84 1
3 86 5
3 87 1327
3 88 2
3 89 1064
3 90 3
3 91 4
3 93 2
3 94 2
3 95 4
3 96 1
3 97 522
3 99 663
3 100 409
3 101 3
3 102 411
3 103 1
3 104 3
3 105 3
3 106 2
3 107 5
3 108 1
3 109 4
3 110 2
3 111 2
3 112 1
3 113 6
3 114 4
3 115 4
3 116 458
3 117 3
3 118 3
3 119 3
3 120 256
3 122 268
3 123 2
3 124 1
3 125 2
3 126 1
3 127 698
3 128 3
3 129 2
3 130 2
3 131 2
3 133 259
3 134 3
3 135 3
3 136 2
3 137 1
3 139 3
3 140 5
3 141 15
3 142 3
3 143 2
3 144 2
3 145 8
3 146 1
3 147 1
3 148 3
3 149 3
3 150 2
3 151 3
3 152 451
3 153 2
3 154 5
3 155 1
3 156 2
3 158 1
3 159 1
3 160 1
3 162 3
3 163 3
3 165 2
3 166 2
3 167 2
3 168 3
3 169 8
3 170 3
3 171 6
3 172 4
3 175 3
3 176 484
3 177 2
3 178 7
3 179 15
3 180 2
3 181 1
3 182 470
3 184 8
3 186 3
3 187 600
3 189 5
3 190 3
3 192 629
3 193 7
3 194 7
3 195 1
3 196 692
3 198 4
3 199 2
3 200 5
3 201 668
3 202 57
3 204 1
3 205 2
3 206 4
3 207 1
3 208 1400
3 209 5
3 210 1
3 211 5
3 212 4
3 213 1
3 214 3
3 215 2
3 216 9
3 217 1
3 218 3
3 219 1
3 220 2
3 221 1
3 222 1
3 223 456
3 224 3
3 225 810
3 226 4
3 227 3
3 228 1
3 230 1
3 231 1
3 232 3
3 233 6
3 234 1
3 235 2
3 237 3
3 239 8
3 240 431
3 241 890
3 242 5
3 243 2
3 244 1
3 245 1
3 246 6
3 248 3
3 249 6
3 250 4
3 253 6
3 254 696
3 256 1
3 258 1
3 259 2
3 260 518
3 261 3
3 262 2
3 263 5
3 264 2
3 265 691
3 266 3
3 267 6
3 268 3
3 269 2
3 270 1
3 272 4
3 273 2
3 274 2
3 275 2
3 276 3
3 278 1
3 279 1
3 280 2
3 281 115
3 282 3
3 283 4
3 284 2
3 285 713
3 286 8
3 287 1
3 288 1092
3 289 668
3 290 2
3 291 406
3 292 1
3 293 3
3 294 3
3 295 4
3 296 1
3 297 4
3 298 4
3 300 1
3 301 2
3 302 1
3 303 3
3 304 1
3 306 4
3 307 3
3 308 1
3 309 1
3 310 2
3 311 1
3 312 3
3 313 2
3 314 333
3 315 10
3 316 2
3 317 4
3 319 796
3 321 3
3 322 1
3 323 8
3 324 3
3 325 3
3 326 1
3 327 3
3 328 2
3 329 1
3 330 2
3 332 2
3 333 733
3 334 4
3 335 1
3 336 623
3 338 4
3 339 345
3 340 1
3 341 815
3 342 3
3 343 548
3 344 3
3 345 313
3 346 4
3 347 7
3 348 6
3 349 5
3 350 7
3 351 5
3 352 1
3 353 1
3 355 3
3 356 4
3 357 297
3 358 4
3 359 4
3 360 1
3 362 4
3 363 4
3 364 588
3 365 12
3 366 4
3 367 1
3 368 6
3 369 4
3 370 3
3 371 5
3 372 4
3 373 303
3 374 1
3 375 260
3 376 3
3 377 428
3 379 4
3 380 2
3 382 1
3 384 1
3 386 423
3 387 1
3 388 5
3 389 1
3 390 3
3 391 4
3 392 5
3 393 4
3 394 3
3 396 1998
3 398 1
3 400 382
3 401 2
3 402 625
3 403 2
3 404 3
3 405 1
3 406 4
3 407 6
3 408 1278
3 409 3
3 410 645
3 411 777
3 412 7
3 413 428
3 414 2
3 416 8
3 417 3
3 419 422
3 421 601
3 424 2
3 426 188
3 427 3
3 428 3
3 429 4
3 430 4
3 432 1
3 433 4
3 434 1
3 435 3
3 436 2
3 437 1073
3 438 2
3 439 4
3 440 1
3 441 2
3 442 3
3 443 2
3 444 2
3 445 1
3 446 1
3 447 1
3 448 3
3 449 3
3 450 3
3 451 3
3 452 1
3 453 1
3 454 2
3 455 2
3 456 2
3 457 6
3 458 3
3 461 9
3 462 264
3 463 734
3 464 2
3 465 2
3 466 4
3 467 8
3 468 3
3 469 8
3 470 2
3 471 1
3 472 1
3 474 4
3 476 2
3 478 6
3 479 5
3 480 2
3 481 6
3 482 2
3 483 2
3 484 3
3 486 1013
3 487 3
3 488 349
3 489 5
3 490 4
3 491 1
3 492 4
3 493 2
3 495 2
3 496 2
3 497 1405
3 498 2
3 500 2
3 501 11
3 502 1
3 503 3
3 504 3
3 505 2
3 506 2
3 508 4
3 509 682
3 510 335
3 511 2
3 512 588
3 513 1360
3 514 3
3 516 6
3 517 1
3 518 2
3 519 5
3 520 22
3 522 3
3 523 5
3 524 424
3 525 306
3 526 3
3 527 6
3 528 5
3 529 1
3 530 4
3 532 2
3 533 558
3 535 1
3 537 1
3 538 1
3 539 7
3 540 5
3 542 4
3 543 6
3 544 2
3 545 2
3 546 4
3 547 1
3 548 3
3 549 3
3 550 7
3 551 364
3 552 4
3 553 25
3 554 1428
3 555 2
3 556 3
3 557 2
3 558 3
3 559 4
3 560 2
3 561 3
3 562 2
3 563 5
3 564 1
3 565 292
3 566 2
3 568 3
3 569 3
3 570 1
3 571 1
3 572 3
3 573 8
3 574 1
3 575 1
3 576 2
3 578 7
3 580 4
3 581 2
3 583 1
3 584 1023
3 586 1
3 587 1
3 588 2
3 589 3
3 590 1
3 591 1
3 592 168
3 593 1
3 594 5
3 595 3
3 596 2
3 597 4
3 598 1
3 599 784
3 600 2
3 601 2
3 602 1
3 604 257
3 606 2
3 607 351
3 609 757
3 610 2
3 611 1
3 612 3
3 613 2
3 614 7
3 615 520
3 616 4
3 619 3
3 620 2
3 621 2
3 622 2
3 623 7
3 624 6
3 625 4
3 626 1
3 627 2
3 628 9
3 629 2
3 630 2
3 631 5
3 633 4
3 634 2
3 635 7
3 636 509
3 637 2
3 639 2
3 640 173
3 641 1
3 642 2
3 643 7
3 644 8
3 647 35
3 648 2
3 649 2
3 650 1
3 651 307
3 652 4
3 653 3
3 654 4
3 656 1
3 657 5
3 658 3
3 659 13
3 660 2
3 661 7
3 662 3
3 664 4
3 665 2
3 666 1
3 667 309
3 668 2
3 669 2734
3 670 4
3 671 1
3 672 1
3 673 5
3 674 4
3 675 2
3 676 6
3 677 8
3 678 2
3 679 3
3 680 7
3 681 2
3 682 3
3 684 2
3 685 1
3 686 1
3 687 4
3 688 5
3 689 1496
3 690 3
3 691 2
3 694 4
3 695 3
3 696 1344
3 698 5
3 699 6
3 700 2
3 701 2
3 702 1
3 703 2
3 705 3
3 706 2
3 707 5
3 708 223
3 709 6
3 710 5
3 711 2
3 712 8
3 713 12
3 714 428
3 715 1
3 716 3
3 717 7
3 719 4
3 720 367
3 721 526
3 725 1
3 726 2
3 727 483
3 728 2
3 729 3
3 730 1
3 731 1
3 732 5
3 733 3
3 734 5
3 735 2
3 736 1
3 738 4
3 739 3
3 740 3
3 741 5
3 742 1
3 743 1
3 744 1
3 745 1
3 746 411
3 748 4
3 749 1051
3 750 1
3 751 2
3 753 2
3 754 1
3 755 2
3 756 8
3 757 594
3 758 3
3 759 1244
3 760 14
3 761 1402
3 762 3
3 763 3
3 764 1691
3 765 8
3 768 6
3 769 1
3 770 3
3 771 8
3 773 1
3 774 4
3 775 6
3 776 484
3 777 678
3 778 1
3 779 8
3 780 1
3 781 2
3 782 2
3 783 1
3 784 1
3 785 855
3 787 1
3 788 3
3 789 1
3 791 2
3 792 7
3 795 4
3 796 1
3 797 1
3 798 7
3 799 4
3 800 495
3 801 3
3 802 766
3 803 1
3 804 656
3 805 302
3 806 545
3 807 2
3 808 1
3 809 5
3 810 3
3 811 4
3 812 3
3 814 2
3 815 2
3 816 2
3 817 4
3 818 3
3 819 5
3 820 3
3 822 328
3 823 2
3 824 2
3 825 1
3 826 1
3 827 2
3 829 4
3 830 5
3 831 3
3 832 4
3 833 1
3 834 1
3 835 1
3 836 1
3 837 3
3 838 2
3 839 5
3 840 1
3 841 5
3 843 1224
3 845 2
3 847 4
3 849 1
3 850 2
3 851 862
3 852 1
3 853 3
3 854 2
3 856 3
3 857 4
3 858 442
3 860 4
3 861 1
3 862 3
3 864 4
3 865 3
3 867 3
3 868 977
3 869 2
3 870 698
3 872 1
3 873 1
3 874 1
3 875 3
3 876 2
3 877 2
3 878 2
3 879 2
3 880 2
3 881 616
3 882 3
3 883 4
3 884 3
3 885 3
3 886 5
3 887 627
3 888 5
3 889 1
3 890 148
3 892 2
3 893 331
3 894 2
3 896 5
3 897 67
3 898 4
3 899 3
3 900 7
3 902 2
3 904 1
3 906 1
3 907 1
3 908 2
3 909 1
3 911 1
3 912 11
3 914 797
3 915 1
3 916 6
3 917 3
3 918 2088
3 919 1
3 920 2
3 921 1057
3 922 283
3 923 2
3 925 392
3 926 1
3 928 982
3 929 2
3 930 1
3 931 2
3 932 913
3 933 1
3 934 996
3 935 2
3 936 6
3 937 13
3 938 446
3 939 2
3 940 3
3 941 1
3 943 2
3 944 1
3 945 1
3 946 1
3 947 1
3 948 1
3 949 1155
3 950 2
3 951 3
3 952 1
3 953 1
3 955 2
3 956 4
3 958 2
3 959 6
3 961 1
3 962 5
3 963 1
3 964 7
3 965 7
3 966 4
3 970 6
3 971 725
3 972 3
3 973 3
3 974 3
3 975 1843
3 978 4
3 979 3
3 980 3
3 981 2
3 982 2
3 983 1
3 985 371
3 986 17
3 987 526
3 988 4
3 989 1
3 990 9
3 992 3434
3 993 5
3 995 17
3 996 2
3 997 3
3 998 349
3 1000 3
3 1001 1
3 1002 5
3 1003 2
3 1004 4
3 1005 3
3 1006 3
3 1007 5
3 1008 1
3 1009 4
3 1010 1
3 1011 3
3 1012 4
3 1013 2
3 1014 731
3 1015 1
3 1017 2
3 1019 1
3 1022 1
3 1023 1
3 1024 4
3 1025 1
3 1028 7
3 1029 433
3 1030 1
3 1031 4
3 1032 468
3 1033 5
3 1034 543
3 1035 4
3 1036 1
3 1037 3
3 1038 5
3 1039 2
3 1040 5
3 1041 4
3 1042 3
3 1043 460
3 1044 1
3 1045 2
3 1046 18
3 1047 1
3 1048 7
3 1049 2
3 1050 1
3 1051 666
3 1052 7
3 1053 9
3 1054 2
3 1057 1
3 1058 2
3 1059 3
3 1060 1
3 1061 53
3 1062 3
3 1064 3
3 1065 5
3 1066 3
3 1067 1207
3 1068 3
3 1070 3
3 1071 3
3 1072 3
3 1073 7
3 1076 324
3 1077 275
3 1079 1
3 1080 25
3 1081 485
3 1083 3
3 1084 1
3 1085 4
3 1087 2
3 1088 11
3 1089 2
3 1090 6
3 1091 3
3 1092 2
3 1093 403
3 1094 1
3 1096 621
3 1097 1
3 1098 1
3 1099 2
3 1100 3
3 1101 244
3 1102 3
3 1104 3
3 1105 7
3 1106 2
3 1107 9
3 1108 2
3 1109 1
3 1110 1
3 1111 1
3 1112 1
3 1113 5
3 1114 326
3 1115 1
3 1116 18
3 1117 7
3 1118 2
3 1119 3
3 1120 3
3 1121 3
3 1122 6
3 1123 2
3 1124 234
3 1125 1
3 1126 7
3 1127 4
3 1128 1
3 1129 2
3 1130 3
3 1131 3
3 1132 1
3 1134 3
3 1135 1
3 1136 521
3 1137 3
3 1138 3
3 1139 203
3 1140 5
3 1141 3
3 1142 3
3 1143 3
3 1145 3
3 1146 4
3 1147 7
3 1148 1
3 1150 427
3 1151 6
3 1152 7
3 1153 3
3 1154 1540
3 1155 266
3 1156 412
3 1157 1
3 1158 1
3 1159 1
3 1160 5
3 1162 1
3 1163 366
3 1164 5
3 1165 2
3 1166 486
3 1168 5
3 1169 4
3 1170 2
3 1171 2
3 1172 4
3 1173 497
3 1174 421
3 1176 1
3 1179 3
3 1180 3
3 1181 3
3 1182 1
3 1184 2
3 1186 3
3 1187 3
3 1188 3
3 1189 1
3 1190 3
3 1191 2
3 1192 6
3 1193 2
3 1194 2
3 1195 1
3 1196 5
3 1197 1
3 1198 5
3 1199 1
3 1204 4
3 1205 4
3 1206 2
3 1207 2
3 1209 1
3 1210 2
3 1211 1
3 1214 4
3 1215 952
3 1216 2
3 1217 2
3 1218 5
3 1219 2
3 1220 1
3 1221 3
3 1222 8
3 1223 3
3 1224 482
3 1225 1
3 1226 7
3 1227 1
3 1229 5
3 1230 548
3 1232 1
3 1233 1
3 1236 9
3 1237 1
3 1238 443
3 1240 1
3 1241 5
3 1242 1
3 1243 2
3 1244 23
3 1245 205
3 1246 1
3 1247 5
3 1248 4
3 1249 1
3 1250 1
3 1253 1
3 1254 1
3 1255 3
3 1256 3
3 1257 1
3 1258 1
3 1259 30
3 1260 4
3 1261 839
3 1262 4
3 1263 1
3 1264 3
3 1265 359
3 1266 6
3 1268 419
3 1269 397
3 1271 6
3 1272 2
3 1273 1051
3 1274 5
3 1275 2
3 1276 1
3 1277 4
3 1278 9
3 1279 11
3 1280 4
3 1281 3
3 1282 1
3 1283 5
3 1284 3
3 1285 3
3 1286 2
3 1287 2
3 1288 6
3 1289 6
3 1290 11
3 1291 1
3 1293 6
3 1294 1
3 1295 2
3 1297 2
3 1300 2
3 1301 5
3 1302 7
3 1303 3
3 1304 1197
3 1305 1
3 1306 2
3 1307 513
3 1308 3
3 1311 1
3 1312 4
3 1313 5
3 1314 2
3 1318 1
3 1319 6
3 1320 6
3 1321 5
3 1322 1
3 1323 5
3 1324 4
3 1326 3
3 1327 529
3 1328 1411
3 1329 782
3 1330 2
3 1331 1
3 1332 2
3 1333 1
3 1334 5
3 1335 2
3 1336 1324
3 1338 1347
3 1339 2
3 1340 6
3 1341 3
3 1343 2
3 1344 4
3 1345 3
3 1346 11
3 1347 2
3 1348 2
3 1350 8
3 1351 2
3 1352 3
3 1353 2
3 1357 5
3 1358 333
3 1359 680
3 1360 2
3 1362 3
3 1363 2
3 1364 3
3 1365 2
3 1366 2
3 1367 471
3 1368 3
3 1369 4
3 1370 9
3 1373 2
3 1374 4
3 1375 2
3 1377 1
3 1378 273
3 1380 4
3 1382 2
3 1383 1
3 1385 1
3 1386 4
3 1388 3
3 1389 2
3 1390 6
3 1391 2
3 1392 1
3 1393 3
3 1396 1
3 1397 1
3 1398 1
3 1399 2
3 1400 521
3 1401 1
3 1402 1522
3 1403 5
3 1404 1
3 1405 1
3 1406 3
3 1408 547
3 1409 5
3 1410 2
3 1411 3
3 1413 4
3 1414 4
3 1415 2
3 1417 4
3 1418 2
3 1419 2
3 1421 1
3 1423 1
3 1424 1
3 1426 3
3 1427 2
3 1428 7
3 1430 467
3 1431 1
3 1432 6
3 1433 7
3 1434 1
3 1435 21
3 1436 1
3 1437 1
3 1438 3
3 1439 1
3 1440 8
3 1441 4
3 1442 4
3 1443 4
3 1444 5
3 1446 4
3 1447 588
3 1448 2
3 1449 5
3 1453 6
3 1454 4
3 1456 3
3 1457 1
3 1458 2
3 1459 1
3 1460 5
3 1461 2
3 1462 6
3 1463 2
3 1466 1
3 1467 475
3 1469 2
3 1470 3
3 1471 2
3 1472 3
3 1473 2
3 1474 1
3 1475 4
3 1476 1
3 1477 553
3 1478 3
3 1479 2
3 1480 2
3 1481 4
3 1482 1
3 1483 2
3 1484 10
3 1485 1
3 1486 3
3 1487 5
3 1488 578
3 1489 2
3 1490 9
3 1491 1
3 1493 3
3 1494 5
3 1495 1
3 1496 1
3 1497 299
3 1498 5
3 1499 5
3 1500 392
3 1502 2
3 1503 14
3 1505 4
3 1506 9
3 1507 3
3 1508 2
3 1510 8
3 1511 4
3 1512 2
3 1514 3
3 1515 2
3 1516 865
3 1517 2
3 1518 6
3 1519 1
3 1520 1
3 1521 2
3 1523 480
3 1524 1
3 1525 339
3 1526 2
3 1527 2
3 1528 1
3 1529 4
3 1530 7
3 1531 3
3 1532 2
3 1533 443
3 1534 12
3 1535 2
3 1536 4
3 1537 4
3 1539 3
3 1540 2
3 1541 2
3 1542 3
3 1543 2
3 1544 1434
3 1545 3
3 1546 5
3 1547 1
3 1548 708
3 1549 9
3 1550 1
3 1551 1
3 1552 2
3 1553 2
3 1554 3
3 1555 3
3 1556 1
3 1557 3
3 1558 3
3 1560 2
3 1561 3
3 1562 1
3 1564 1
3 1565 3
3 1566 2
3 1568 820
3 1569 5
3 1570 2
3 1571 5
3 1572 1
3 1573 2
3 1574 3
3 1575 5
3 1576 268
3 1577 5
3 1578 4
3 1580 2
3 1581 5
3 1582 4
3 1583 5
3 1585 13
3 1586 1
3 1587 2
3 1588 4
3 1590 4
3 1591 427
3 1592 2
3 1593 2
3 1594 1
3 1595 3
3 1596 1
3 1597 1
3 1598 6
3 1599 1
3 1600 4
3 1601 4
3 1603 6
3 1605 761
3 1606 3
3 1607 1
3 1608 3
3 1609 1
3 1611 3
3 1612 551
3 1613 3
3 1614 3
3 1615 11
3 1616 3
3 1617 2
3 1618 377
3 1619 3
3 1621 1
3 1622 1
3 1623 4055
3 1624 2
3 1626 2
3 1627 3
3 1628 10
3 1629 2
3 1630 3
3 1632 2
3 1633 1
3 1634 1
3 1635 4
3 1636 1270
3 1637 299
3 1638 1
3 1639 3
3 1640 3
3 1641 2
3 1642 13
3 1643 3
3 1644 2
3 1645 2388
3 1647 3
3 1648 5
3 1649 4
3 1650 3
3 1651 5
3 1652 6
3 1653 793
3 1654 3
3 1655 3
3 1656 319
3 1658 2
3 1659 309
3 1660 5
3 1662 1
3 1664 1
3 1665 594
3 1667 2
3 1668 2
3 1669 2
3 1670 3
3 1671 4
3 1672 510
3 1673 4
3 1674 4
3 1676 3
3 1677 4
3 1678 4
3 1679 651
3 1680 4
3 1681 5
3 1682 1
3 1683 3
3 1684 1
3 1685 1
3 1686 7
3 1687 8
3 1688 3
3 1689 565
3 1691 441
3 1692 3
3 1693 425
3 1695 3
3 1696 4
3 1697 5
3 1699 2
3 1701 477
3 1702 4
3 1703 245
3 1704 1
3 1705 3
3 1706 3
3 1707 4
3 1709 2
3 1710 1
3 1711 7
3 1712 3
3 1713 13
3 1714 4
3 1715 4
3 1716 672
3 1717 2
3 1718 425
3 1719 4
3 1720 340
3 1721 5
3 1722 180
3 1723 2
3 1724 687
3 1726 1
3 1727 3
3 1728 2
3 1729 5
3 1731 7
3 1732 4
3 1733 2
3 1734 2
3 1735 1
3 1736 34
3 1737 404
3 1738 3
3 1739 1
3 1740 3
3 1741 2
3 1742 459
3 1743 2
3 1744 4
3 1745 3
3 1747 5
3 1748 1
3 1749 2
3 1750 5
3 1751 2
3 1752 547
3 1753 9
3 1754 4
3 1755 2
3 1756 1
3 1757 2
3 1758 1
3 1759 1
3 1760 1
3 1761 1
3 1762 1
3 1764 1
3 1765 2
3 1766 1
3 1767 1
3 1769 1
3 1770 2
3 1771 6
3 1772 4
3 1773 1
3 1774 3
3 1775 2
3 1777 4
3 1778 4
3 1779 5
3 1780 2
3 1781 3
3 1783 463
3 1784 1
3 1786 667
3 1787 1438
3 1788 1
3 1790 2
3 1791 4
3 1792 4
3 1793 3
3 1794 1
3 1795 1
3 1796 1
3 1797 3
3 1799 3
3 1800 1
3 1801 1
3 1802 3
3 1803 215
3 1804 2
3 1805 2
3 1806 2336
3 1807 1
3 1810 5
3 1811 2
3 1812 5
3 1813 1
3 1814 3
3 1815 371
3 1816 2
3 1817 11
3 1818 3
3 1819 1
3 1820 1
3 1821 2
3 1822 4
3 1823 1
3 1824 2
3 1825 6
3 1827 5
3 1828 2
3 1829 2
3 1830 3
3 1832 4
3 1833 1
3 1835 2
3 1836 3
3 1837 9
3 1838 2
3 1839 1264
3 1840 5
3 1841 2
3 1842 6
3 1843 3
3 1844 6
3 1846 3
3 1847 2
3 1848 3
3 1849 464
3 1850 1
3 1852 5
3 1853 4
3 1854 2
3 1856 5
3 1857 4
3 1858 1
3 1859 2
3 1861 2
3 1863 2
3 1865 3
3 1867 2
3 1868 3
3 1869 2
3 1870 8
3 1871 3
3 1872 3
3 1874 1
3 1875 1
3 1876 1
3 1877 1701
3 1878 1
3 1879 3
3 1880 1147
3 1881 146
3 1882 1
3 1884 3
3 1885 3
3 1886 304
3 1887 3
3 1888 3
3 1889 2
3 1890 2
3 1891 2
3 1892 863
3 1893 157
3 1894 2
3 1895 301
3 1896 2
3 1898 1
3 1900 4
3 1901 2
3 1902 4
3 1903 1073
3 1904 4
3 1905 2
3 1906 1
3 1907 946
3 1908 5
3 1909 272
3 1910 8
3 1911 3
3 1912 6
3 1913 1
3 1914 667
3 1915 3
3 1916 2
3 1917 3
3 1918 118
3 1920 641
3 1921 6
3 1922 3
3 1923 5
3 1924 5
3 1925 1
3 1926 5
3 1927 1
3 1928 2
3 1929 3
3 1930 381
3 1931 1
3 1932 4
3 1933 2
3 1934 1
3 1936 1
3 1937 4
3 1938 2
3 1939 1
3 1940 1
3 1942 2
3 1943 2
3 1944 2
3 1945 457
3 1946 668
3 1947 809
3 1948 1
3 1949 7
3 1950 3
3 1951 4
3 1952 1
3 1953 3
3 1954 10
3 1955 5
3 1956 3
3 1957 453
3 1960 1
3 1961 1
3 1963 3
3 1964 1
3 1965 10
3 1966 4
3 1968 3
3 1969 587
3 1970 473
3 1971 2
3 1972 2
3 1974 4
3 1975 7
3 1976 1
3 1977 1
3 1978 2
3 1979 624
3 1981 3
3 1982 2
3 1983 966
3 1984 2
3 1985 12
3 1986 27
3 1988 516
3 1989 5
3 1991 1
3 1992 2
3 1994 3
3 1995 1
3 1996 4
3 1998 1
3 1999 7
3 2000 1
3 2001 4
3 2002 2
3 2003 8
3 2004 4
3 2005 1
3 2006 1
3 2007 3
3 2009 2
3 2011 2
3 2012 1
3 2013 619
3 2014 3
3 2015 1
3 2016 526
3 2017 1
3 2018 6
3 2019 5
3 2020 1
3 2021 4
3 2022 2
3 2023 1
3 2024 1
3 2025 5
3 2026 1
3 2027 3
3 2028 1
3 2029 5
3 2030 1
3 2031 203
3 2032 1
3 2034 1
3 2035 3
3 2036 477
3 2037 1
3 2038 4
3 2039 4
3 2040 2
3 2041 3
3 2042 1
3 2043 451
3 2044 3
3 2045 88
3 2046 4
3 2047 844
3 2048 1
3 2049 1
3 2050 1
3 2051 1
3 2052 5
3 2053 1
3 2054 6
3 2055 2
3 2057 2
3 2058 473
3 2059 1
3 2060 1
3 2061 482
3 2063 4
3 2064 203
3 2065 463
3 2066 2
3 2067 1
3 2068 4
3 2069 1
3 2070 5
3 2071 316
3 2072 1
3 2073 515
3 2074 1
3 2075 1
3 2077 2
3 2078 1
3 2080 3
3 2081 1096
3 2083 2
3 2085 1
3 2086 2
3 2088 2
3 2089 2
3 2090 423
3 2091 509
3 2093 15
3 2094 1
3 2095 352
3 2097 1
3 2098 535
3 2100 1
3 2101 4
3 2102 2
3 2103 4
3 2105 3
3 2106 3
3 2108 1
3 2109 5
3 2110 564
3 2111 3
3 2112 3
3 2113 2
3 2114 1
3 2117 3
3 2120 8
3 2121 2
3 2122 211
3 2123 316
3 2124 2
3 2126 1113
3 2127 4
3 2128 5
3 2129 1
3 2130 6
3 2132 2
3 2133 2
3 2134 3
3 2135 1
3 2136 3
3 2137 1
3 2138 3
3 2139 2
3 2140 152
3 2142 2
3 2143 2
3 2144 397
3 2145 1
3 2146 3
3 2148 1
3 2149 1
3 2150 1
3 2151 7
3 2152 2
3 2153 2
3 2154 4
3 2155 257
3 2156 20
3 2157 2
3 2158 4
3 2159 2
3 2160 612
3 2161 3
3 2162 12
3 2163 2
3 2164 7
3 2165 6
3 2166 173
3 2167 2
3 2168 195
3 2170 3
3 2172 2
3 2173 3
3 2174 2
3 2175 2
3 2176 7
3 2177 4
3 2179 737
3 2180 1
3 2181 1
3 2184 1
3 2185 1
3 2186 1
3 2187 400
3 2188 5
3 2189 277
3 2191 6
3 2193 2
3 2194 2
3 2195 1
3 2197 1
3 2198 2
3 2199 1
3 2200 2
3 2201 1
3 2202 417
3 2203 297
3 2205 2
3 2206 4
3 2207 1
3 2209 479
3 2210 2
3 2211 3
3 2212 8
3 2213 3
3 2215 555
3 2216 7
3 2217 1
3 2218 6
3 2219 1
3 2220 1
3 2221 1
3 2222 2
3 2223 468
3 2224 785
3 2225 3
3 2226 5
3 2227 1
3 2229 25
3 2230 1
3 2232 501
3 2233 3
3 2234 1
3 2235 1
3 2236 2
3 2237 2
3 2238 508
3 2239 2
3 2240 461
3 2241 2
3 2242 4
3 2243 13
3 2245 3
3 2247 3
3 2248 5
3 2250 4
3 2251 3
3 2252 1
3 2254 3
3 2255 3
3 2256 2
3 2257 5
3 2258 601
3 2260 437
3 2261 4
3 2262 5
3 2263 3
3 2264 2
3 2265 3
3 2266 3
3 2267 1
3 2268 1
3 2269 549
3 2270 992
3 2271 1
3 2272 3
3 2273 2
3 2274 489
3 2275 4
3 2276 418
3 2277 2
3 2278 2
3 2279 7
3 2281 3
3 2282 4
3 2283 1
3 2284 5
3 2286 865
3 2287 2
3 2288 289
3 2289 3
3 2291 9
3 2292 1
3 2293 4
3 2295 1
3 2296 714
3 2297 5
3 2298 856
3 2299 6
3 2300 347
3 2301 1
3 2302 3
3 2303 7
3 2304 2
3 2306 208
3 2307 2
3 2308 1
3 2309 5
3 2310 1
3 2311 3
3 2312 1
3 2313 4
3 2315 2
3 2317 3
3 2318 2
3 2320 5
3 2321 5
3 2322 2
3 2323 496
3 2324 317
3 2325 2
3 2326 6
3 2327 2
3 2329 1
3 2330 191
3 2331 1
3 2332 123
3 2333 5
3 2334 9
3 2335 1
3 2336 2
3 2337 4
3 2338 2
3 2340 3
3 2341 1
3 2342 3
3 2343 2
3 2344 234
3 2348 550
3 2349 2
3 2350 293
3 2351 9
3 2352 2
3 2353 6
3 2354 2
3 2355 277
3 2356 3
3 2357 3
3 2358 2
3 2359 375
3 2361 4
3 2362 2
3 2363 5
3 2365 1
3 2367 2
3 2368 2
3 2369 1
3 2370 3
3 2371 2
3 2372 1
3 2374 3
3 2375 3
3 2376 6
3 2378 3
3 2379 1
3 2380 2
3 2381 8
3 2382 3
3 2383 3
3 2385 7
3 2386 1
3 2387 664
3 2388 2
3 2390 308
3 2391 1463
3 2392 2
3 2394 3
3 2396 5
3 2397 4
3 2398 1
3 2399 1
3 2401 2
3 2402 3
3 2403 1
3 2404 233
3 2405 4
3 2406 1
3 2407 408
3 2408 1
3 2409 10
3 2410 3
3 2411 2
3 2412 2
3 2413 11
3 2414 4
3 2415 530
3 2416 3
3 2417 4
3 2418 4
3 2419 2
3 2420 1
3 2421 1
3 2422 2
3 2423 2
3 2424 3
3 2425 2
3 2426 4
3 2427 1
3 2428 1
3 2429 367
3 2430 153
3 2431 1
3 2432 2
3 2433 4
3 2434 2
3 2435 3
3 2436 2
3 2437 3
3 2439 2
3 2440 13
3 2442 1
3 2443 3
3 2444 6
3 2445 3
3 2446 2
3 2447 25
3 2448 8
3 2449 3
3 2450 5
3 2451 3
3 2452 7
3 2453 2
3 2454 3
3 2455 1
3 2456 4
3 2457 1
3 2458 3
3 2459 6
3 2460 5
3 2461 961
3 2462 5
3 2463 410
3 2464 2
3 2465 1
3 2466 3
3 2467 473
3 2468 2
3 2469 2
3 2470 2
3 2473 4
3 2474 2
3 2475 2
3 2476 6
3 2477 1
3 2478 3
3 2479 2
3 2480 1
3 2481 24
3 2482 1271
3 2483 7
3 2484 1
3 2485 1
3 2486 1
3 2487 3
3 2488 3
3 2489 1
3 2490 1
3 2491 2
3 2492 6
3 2493 2
3 2494 2
3 2495 1
3 2496 2
3 2497 3
3 2498 2
3 2499 2
3 2500 1
3 2501 2
3 2502 1
3 2503 11
3 2504 3
3 2506 3
3 2507 501
3 2508 2
3 2509 4
3 2510 160
3 2511 6
3 2512 3
3 2513 527
3 2514 4
3 2515 2
3 2516 1
3 2517 3
3 2518 4
3 2519 3
3 2520 3
3 2521 1715
3 2522 4
3 2523 3
3 2524 5
3 2525 1880
3 2526 1
3 2530 3
3 2531 6
3 2532 2
3 2533 4
3 2534 6
3 2535 2
3 2536 2
3 2537 2
3 2539 497
3 2540 737
3 2541 2
3 2542 1
3 2543 6
3 2544 1
3 2545 4
3 2546 3
3 2547 2
3 2548 2
3 2549 2
3 2550 2
3 2552 1
3 2553 6
3 2554 843
3 2555 2
3 2556 2
3 2557 2
3 2558 3
3 2562 1
3 2563 4
3 2564 1
3 2565 2
3 2566 1
3 2567 1
3 2568 1
3 2569 3
3 2570 3
3 2571 4
3 2572 2
3 2573 2
3 2574 7
3 2575 3
3 2578 7
3 2579 422
3 2581 2
3 2582 1
3 2583 1
3 2584 3
3 2586 4
3 2587 1
3 2588 3
3 2589 1
3 2590 4
3 2591 1
3 2592 2
3 2593 4
3 2594 3
3 2596 2
3 2597 3
3 2598 1
3 2601 2
3 2602 4
3 2603 14
3 2604 1
3 2605 1
3 2606 1
3 2607 2
3 2608 1
3 2610 3
3 2611 2
3 2613 1
3 2614 2
3 2615 608
3 2616 8
3 2618 2
3 2619 1
3 2620 2
3 2621 2
3 2622 3
3 2624 414
3 2625 14
3 2626 7
3 2627 4
3 2628 2
3 2629 2
3 2630 2
3 2631 13
3 2632 576
3 2633 2
3 2635 21
3 2636 2
3 2637 9
3 2638 6
3 2639 18
3 2640 3
3 2641 3
3 2642 3
3 2643 4
3 2644 4
3 2645 3
3 2646 4
3 2647 2
3 2648 1
3 2649 1
3 2651 2
3 2652 7
3 2653 2
3 2654 1
3 2655 2
3 2656 1
3 2657 2
3 2658 3
3 2659 3
3 2660 1
3 2661 4
3 2663 2
3 2664 5
3 2665 5
3 2666 472
3 2667 513
3 2669 4
3 2671 1167
3 2672 3
3 2674 1
3 2675 4
3 2676 1
3 2677 10
3 2678 3
3 2679 3
3 2680 2
3 2681 1
3 2682 3
3 2684 1280
3 2685 206
3 2686 4
3 2687 1
3 2688 11
3 2690 1
3 2691 4
3 2692 5
3 2693 4
3 2694 3
3 2695 3
3 2696 976
3 2697 1
3 2698 2
3 2699 2
3 2700 2
3 2701 7
3 2703 2
3 2704 3
3 2705 4
3 2706 1
3 2707 2
3 2708 2
3 2709 2
3 2710 4
3 2711 2
3 2712 6
3 2713 1
3 2714 1501
3 2715 4
3 2716 3
3 2717 2
3 2718 2
3 2719 387
3 2721 7
3 2722 3
3 2723 2
3 2724 3
3 2725 1
3 2726 1
3 2727 688
3 2728 1
3 2729 4
3 2730 1
3 2731 8
3 2732 3
3 2733 347
3 2734 2
3 2735 2
3 2737 4
3 2738 2
3 2739 3
3 2740 6
3 2741 1
3 2742 998
3 2743 1
3 2744 18
3 2745 2
3 2746 3
3 2747 3
3 2748 2
3 2749 4
3 2751 4
3 2752 3
3 2753 6
3 2754 5
3 2755 6
3 2757 5
3 2758 2
3 2759 290
3 2761 3
3 2762 2
3 2763 3
3 2765 4
3 2766 1185
3 2767 6
3 2768 3
3 2769 7
3 2770 4
3 2771 2
3 2772 3
3 2773 1
3 2774 1
3 2775 2
3 2776 5
3 2777 2
3 2778 1
3 2779 5
3 2780 1434
3 2781 3
3 2782 6
3 2783 3
3 2785 1
3 2786 12
3 2787 1
3 2788 8
3 2789 3
3 2790 2
3 2791 2
3 2792 728
3 2793 1
3 2794 452
3 2795 4
3 2796 1
3 2797 3
3 2798 3
3 2799 2
3 2801 4
3 2802 1
3 2803 3
3 2804 5
3 2807 4
3 2809 428
3 2810 1399
3 2811 4
3 2812 2
3 2813 4
3 2814 2
3 2815 6
3 2816 236
3 2817 10
3 2818 559
3 2819 8
3 2820 2
3 2821 483
3 2822 2
3 2823 6
3 2824 3
3 2825 2
3 2826 2
3 2827 4
3 2829 4
3 2830 4
3 2831 4
3 2832 4
3 2833 2
3 2834 5
3 2835 1
3 2836 481
3 2837 4
3 2838 2
3 2839 3
3 2840 2
3 2841 4
3 2843 2
3 2844 75
3 2846 295
3 2847 501
3 2848 1
3 2849 2
3 2850 1
3 2852 2
3 2853 1
3 2854 218
3 2855 582
3 2857 4
3 2858 3
3 2861 2
3 2862 3
3 2863 506
3 2864 3
3 2865 1912
3 2866 3
3 2867 2
3 2868 4
3 2869 5
3 2870 1
3 2871 2
3 2872 3
3 2873 6
3 2874 1
3 2875 5
3 2877 2
3 2878 381
3 2879 5
3 2880 4
3 2881 3
3 2882 3
3 2883 3
3 2884 1
3 2885 2
3 2887 712
3 2888 475
3 2889 3
3 2890 2
3 2891 728
3 2892 2
3 2893 5
3 2895 305
3 2896 3
3 2897 2
3 2899 1
3 2900 5
3 2901 6
3 2902 2
3 2903 3
3 2905 14
3 2906 4
3 2907 1
3 2910 3
3 2911 3
3 2912 4
3 2913 1
3 2914 2
3 2915 1
3 2916 468
3 2919 3
3 2920 1
3 2921 500
3 2924 1526
3 2925 2
3 2926 538
3 2927 2
3 2928 1
3 2929 1
3 2931 2
3 2932 5
3 2933 3
3 2934 4
3 2935 4
3 2936 3
3 2937 309
3 2938 3
3 2939 1
3 2940 2
3 2941 213
3 2942 5
3 2943 3
3 2944 1
3 2945 1
3 2946 1252
3 2947 4
3 2948 2
3 2949 1
3 2950 5
3 2951 1111
3 2952 1
3 2953 1
3 2954 265
3 2955 1
3 2956 5
3 2957 2
3 2958 1
3 2959 5
3 2960 640
3 2961 4
3 2962 1
3 2963 1
3 2964 3
3 2965 6
3 2967 2
3 2968 5
3 2969 3
3 2970 539
3 2971 2
3 2972 5
3 2973 3
3 2975 6
3 2976 3
3 2977 1
3 2978 714
3 2979 4
3 2980 2
3 2981 1
3 2982 1
3 2983 3
3 2984 340
3 2985 6
3 2986 4
3 2987 6
3 2988 4
3 2989 5
3 2990 6
3 2991 15
3 2992 5
3 2993 1
3 2994 516
3 2995 1
3 2996 346
3 2997 3
3 3000 2
3 3001 357
3 3004 7
3 3005 3
3 3006 2
3 3008 2
3 3009 3
3 3011 1
3 3012 558
3 3013 1
3 3014 1
3 3015 491
3 3016 87
3 3017 4
3 3018 379
3 3019 3
3 3021 4
3 3022 2
3 3023 7
3 3024 4
3 3025 1
3 3026 4
3 3027 3
3 3028 2
3 3029 1
3 3030 6
3 3031 4
3 3032 3
3 3034 7
3 3035 5
3 3036 10
3 3037 1
3 3038 5
3 3039 784
3 3040 2
3 3041 2
3 3042 6
3 3043 2
3 3044 2
3 3045 1
3 3048 1
3 3049 2
3 3050 3
3 3051 377
3 3052 2
3 3053 2
3 3055 2
3 3056 1
3 3057 3
3 3058 4
3 3059 7
3 3060 3
3 3063 29
3 3064 1054
3 3065 6
3 3066 1
3 3067 5
3 3068 5
3 3069 2
3 3070 3
3 3071 4
3 3072 4
3 3073 1
3 3074 2
3 3075 2
3 3076 6
3 3077 3
3 3078 465
3 3079 4
3 3080 3
3 3081 6
3 3083 2
3 3084 1
3 3085 1
3 3087 5
3 3088 3
3 3089 4
3 3090 2
3 3091 1
3 3093 2
3 3094 1
3 3095 6
3 3096 1
3 3097 6
3 3098 1
3 3100 562
3 3101 2
3 3102 2
3 3103 3
3 3104 3
3 3105 2
3 3106 1
3 3107 2
3 3108 2
3 3109 400
3 3110 2
3 3111 340
3 3112 7
3 3113 9
3 3114 3
3 3115 4
3 3116 2
3 3117 3
3 3118 2
3 3119 3
3 3120 3
3 3121 2
3 3122 4
3 3123 2
3 3124 3
3 3125 5
3 3126 1
3 3127 1
3 3128 2
3 3129 1
3 3130 7
3 3131 2
3 3132 392
3 3133 5
3 3135 2
3 3136 2
3 3137 460
3 3138 3
3 3139 7
3 3140 1
3 3141 2879
3 3142 6
3 3143 7
3 3144 3
3 3145 556
3 3146 610
3 3147 1
3 3148 5
3 3149 4
3 3150 2
3 3152 2020
3 3153 1
3 3154 4
3 3155 3
3 3156 2
3 3159 4
3 3160 8
3 3161 4
3 3162 3
3 3163 3
3 3165 7
3 3166 1
3 3167 15
3 3168 6
3 3169 4
3 3170 6
3 3171 7
3 3172 5
3 3173 2
3 3174 1
3 3175 5
3 3176 2
3 3177 3
3 3178 6
3 3180 658
3 3181 33
3 3182 482
3 3183 3
3 3184 4
3 3185 3
3 3186 2
3 3188 539
3 3189 1
3 3191 5
3 3192 2
3 3193 474
3 3194 4
3 3195 4
3 3196 3
3 3197 2
3 3198 686
3 3199 1
3 3200 5
3 3201 5
3 3202 4
3 3203 843
3 3204 3
3 3206 1
3 3207 6
3 3208 7
3 3209 2
3 3210 3
3 3211 3
3 3212 1
3 3213 2
3 3214 4
3 3215 10
3 3216 2
3 3217 3
3 3218 436
3 3219 2
3 3220 1
3 3221 3
3 3222 9
3 3223 537
3 3224 2
3 3225 2
3 3226 5
3 3227 3
3 3228 4
3 3229 2
3 3230 3
3 3231 815
3 3232 4
3 3233 2
3 3234 3
3 3236 2
3 3237 26
3 3238 1
3 3239 4
3 3240 3
3 3241 5
3 3242 4
3 3243 6
3 3244 4
3 3245 2
3 3246 2
3 3247 6
3 3248 3
3 3249 3
3 3250 2
3 3251 10
3 3252 1094
3 3254 557
3 3255 4
3 3257 443
3 3258 5
3 3259 5
3 3261 1521
3 3262 1
3 3263 1
3 3264 2
3 3265 1
3 3266 5
3 3267 2
3 3268 467
3 3269 730
3 3270 1349
3 3271 4
3 3272 3
3 3273 824
3 3275 3
3 3276 2
3 3277 4
3 3279 3
3 3281 9
3 3283 3
3 3284 4
3 3285 5
3 3286 2
3 3287 6
3 3288 7
3 3289 4
3 3290 2
3 3291 3
3 3292 366
3 3293 2
3 3294 2
3 3295 3
3 3296 1
3 3297 3
3 3298 7
3 3299 349
3 3300 4
3 3302 1
3 3303 5
3 3304 3
3 3305 2
3 3307 1
3 3308 6
3 3310 2
3 3311 3
3 3312 7
3 3313 323
3 3314 4
3 3315 2
3 3316 3
3 3317 3
3 3319 1
3 3320 3
3 3321 3
3 3322 6
3 3323 5
3 3324 14
3 3325 3
3 3326 2
3 3327 2
3 3328 1
3 3329 1203
3 3331 4
3 3332 3
3 3333 4
3 3334 6
3 3335 144
3 3336 3
3 3337 2
3 3338 5
3 3339 1
3 3340 4
3 3341 1
3 3342 5
3 3343 4
3 3344 1
3 3345 4
3 3346 6
3 3347 2
3 3348 1
3 3350 4
3 3351 9
3 3352 18
3 3353 2
3 3354 2
3 3355 2
3 3356 1
3 3357 754
3 3358 803
3 3359 1
3 3360 5
3 3361 4
3 3362 4
3 3363 5
3 3364 2
3 3365 3
3 3366 3
3 3367 2
3 3368 3
3 3370 410
3 3371 3
3 3372 3
3 3373 3
3 3374 4
3 3375 289
3 3376 3
3 3377 6
3 3378 9
3 3380 1101
3 3381 5
3 3383 644
3 3386 6
3 3387 3
3 3388 1
3 3389 7
3 3390 1
3 3392 4
3 3394 1
3 3395 3
3 3396 3
3 3397 2
3 3398 907
3 3399 1
3 3400 3
3 3402 426
3 3403 1286
3 3404 2
3 3405 6
3 3406 3
3 3407 3
3 3408 588
3 3409 1
3 3410 2
3 3411 3
3 3413 631
3 3414 2
3 3415 468
3 3416 2
3 3417 3
3 3419 3
3 3420 1
3 3421 6
3 3422 614
3 3423 16
3 3424 1
3 3425 3
3 3427 4
3 3428 6
3 3429 4
3 3430 2
3 3431 3
3 3433 3
3 3434 1275
3 3435 2
3 3436 5
3 3437 7
3 3438 4
3 3439 5
3 3440 2
3 3441 1
3 3442 1
3 3443 3
3 3444 14
3 3445 251
3 3446 3
3 3447 374
3 3448 2
3 3449 4
3 3450 4
3 3451 1432
3 3452 1
3 3453 1
3 3454 2
3 3455 3
3 3457 4
3 3458 4
3 3459 2
3 3460 842
3 3461 2
3 3462 2
3 3463 2
3 3464 4
3 3465 1
3 3466 3
3 3467 2
3 3468 6
3 3469 2
3 3470 3
3 3471 2
3 3472 4
3 3473 2
3 3474 2
3 3475 4
3 3476 6
3 3477 1
3 3478 162
3 3480 1
3 3481 1
3 3483 1
3 3484 4
3 3485 4
3 3486 11
3 3487 4
3 3489 4
3 3490 1
3 3491 1
3 3492 2
3 3493 2
3 3494 804
3 3495 5
3 3496 5
3 3497 1550
3 3499 2
3 3500 7
3 3501 3
3 3502 2
3 3503 1
3 3504 3
3 3505 2
3 3506 2
3 3507 3
3 3508 7
3 3509 5
3 3510 302
3 3511 12
3 3512 1
3 3513 345
3 3515 2
3 3516 5
3 3517 3
3 3518 3
3 3519 720
3 3520 1
3 3521 7
3 3522 2
3 3523 2
3 3524 1
3 3525 704
3 3526 1
3 3527 2
3 3528 3
3 3530 3
3 3531 1
3 3532 4
3 3533 1
3 3534 438
3 3535 8
3 3536 259
3 3537 5
3 3538 11
3 3539 2
3 3540 1
3 3542 3
3 3543 305
3 3544 2
3 3545 2
3 3546 2
3 3547 2
3 3548 8
3 3549 11
3 3550 362
3 3552 3
3 3553 6
3 3554 334
3 3555 2
3 3556 1
3 3557 3
3 3558 2
3 3559 22
3 3560 581
3 3561 269
3 3562 3
3 3563 1
3 3565 3
3 3566 3
3 3567 3
3 3568 3
3 3569 988
3 3570 1
3 3571 2
3 3572 5
3 3573 6
3 3575 3
3 3576 1
3 3577 678
3 3578 2
3 3579 18
3 3580 360
3 3582 4
3 3583 533
3 3586 1
3 3587 5
3 3588 2
3 3589 3
3 3590 6
3 3591 4
3 3592 399
3 3593 4
3 3594 4
3 3595 1
3 3596 1
3 3598 3
3 3599 3
3 3600 782
3 3601 3
3 3602 2
3 3603 5
3 3604 3
3 3605 2
3 3607 3
3 3608 2
3 3609 2
3 3610 2
3 3611 3
3 3612 4
3 3613 2
3 3614 2
3 3615 2
3 3616 2
3 3617 3
3 3619 1
3 3620 8
3 3621 4
3 3622 2
3 3623 1
3 3624 6
3 3625 8
3 3626 3
3 3627 2
3 3628 4
3 3629 1
3 3630 1
3 3631 2
3 3632 2
3 3633 5
3 3634 3
3 3635 2
3 3636 1
3 3637 5
3 3638 4
3 3639 5
3 3640 5
3 3641 2
3 3642 2
3 3643 11
3 3644 1234
3 3645 278
3 3646 4
3 3647 3
3 3648 3
3 3649 544
3 3651 2
3 3652 2
3 3653 3
3 3656 4
3 3657 2
3 3658 5
3 3659 3
3 3660 2
3 3661 13
3 3662 3
3 3663 5
3 3664 2
3 3665 3
3 3666 575
3 3667 6
3 3668 4
3 3669 514
3 3670 2
3 3671 778
3 3672 3
3 3673 1
3 3675 1
3 3677 3
3 3678 2
3 3679 1
3 3680 1
3 3681 3
3 3682 227
3 3683 4
3 3686 5
3 3687 1
3 3688 610
3 3689 2
3 3690 2
3 3691 2
3 3692 6
3 3693 2
3 3694 1
3 3695 2
3 3696 2
3 3697 2
3 3698 4
3 3699 4
3 3700 37
3 3701 5
3 3703 4
3 3704 2
3 3706 509
3 3707 6
3 3708 1
3 3709 2
3 3710 3
3 3711 4
3 3713 267
3 3714 7
3 3715 3
3 3716 2
3 3717 3
3 3718 1
3 3719 1
3 3720 5
3 3721 4
3 3722 4
3 3723 2
3 3724 406
3 3725 4
3 3726 4
3 3727 8
3 3728 1
3 3729 431
3 3730 3
3 3731 599
3 3732 2
3 3733 2
3 3734 1
3 3737 1
3 3738 563
3 3739 2
3 3740 3
3 3741 3
3 3742 3
3 3744 3
3 3745 1
3 3746 2
3 3747 2
3 3748 1
3 3749 75
3 3750 6
3 3751 1
3 3752 4
3 3753 4
3 3754 2
3 3755 3
3 3756 6
3 3757 2
3 3758 7
3 3759 2
3 3761 1
3 3762 2
3 3763 2
3 3764 346
3 3765 1
3 3766 4
3 3767 1
3 3768 1547
3 3769 2
3 3770 2
3 3771 5
3 3772 3
3 3773 9
3 3774 4
3 3777 1
3 3778 4
3 3779 1
3 3780 1
3 3782 2
3 3783 6
3 3784 591
3 3785 7
3 3786 526
3 3787 5
3 3790 3
3 3791 3
3 3792 4
3 3793 2
3 3794 3
3 3795 2
3 3796 17
3 3797 1
3 3799 487
3 3800 2
3 3801 2
3 3802 4
3 3803 5
3 3804 5
3 3806 2
3 3807 1284
3 3808 2
3 3809 3
3 3810 4
3 3812 2
3 3813 1
3 3814 4
3 3815 8
3 3816 2
3 3817 1
3 3818 3
3 3819 502
3 3820 2
3 3824 1
3 3825 2
3 3827 1
3 3828 16
3 3829 5
3 3832 3
3 3834 3
3 3835 320
3 3836 3
3 3837 7
3 3838 5
3 3839 10
3 3840 2
3 3841 3
3 3842 1
3 3843 2
3 3845 3
3 3846 2
3 3847 2
3 3848 2
3 3849 5
3 3850 2
3 3851 2
3 3852 1
3 3853 4
3 3854 3
3 3855 3
3 3856 3
3 3857 2
3 3859 1
3 3861 3
3 3862 2305
3 3863 13
3 3864 3
3 3865 1
3 3866 4
3 3867 551
3 3869 457
3 3870 5
3 3871 451
3 3872 1
3 3874 7
3 3876 4
3 3877 8
3 3878 2
3 3879 124
3 3880 1
3 3882 1
3 3883 455
3 3884 4
3 3885 3
3 3886 4
3 3887 4
3 3888 1
3 3889 3
3 3890 3
3 3891 2
3 3892 2
3 3893 2
3 3894 339
3 3895 13
3 3896 4
3 3897 3
3 3898 2
3 3899 2
3 3900 3
3 3901 5
3 3902 2
3 3903 1102
3 3904 4
3 3905 2
3 3906 5
3 3907 1
3 3908 4
3 3909 1
3 3910 41
3 3911 1
3 3912 845
3 3913 10
3 3914 3
3 3915 1910
3 3916 2
3 3917 5
3 3919 1
3 3921 3
3 3922 5
3 3923 1
3 3924 9
3 3925 1
3 3926 3
3 3927 3
3 3929 1
3 3931 2
3 3932 1
3 3934 360
3 3935 56
3 3936 5
3 3939 1
3 3940 6
3 3941 1
3 3942 1
3 3943 4
3 3944 1
3 3946 2
3 3947 3
3 3948 2
3 3949 1
3 3950 3
3 3951 8
3 3952 2
3 3953 1
3 3954 8
3 3955 12
3 3956 4
3 3957 1
3 3958 2
3 3960 1
3 3961 2
3 3962 1
3 3963 3
3 3964 2
3 3965 3
3 3966 5
3 3967 3
3 3968 3
3 3970 3
3 3972 2
3 3973 2
3 3974 589
3 3975 292
3 3976 3
3 3977 1
3 3978 3
3 3980 1
3 3981 2
3 3982 1
3 3983 3
3 3984 5
3 3985 3
3 3987 1
3 3988 842
3 3989 8
3 3990 2
3 3991 508
3 3992 3
3 3993 3015
3 3994 174
3 3995 5
3 3996 1
3 3997 1
3 3998 4
3 3999 1
3 4000 1
3 4001 10
3 4002 1
3 4003 694
3 4004 2
3 4005 2
3 4006 320
3 4007 1
3 4008 2
3 4009 1
3 4010 2
3 4011 413
3 4012 3
3 4013 2
3 4016 3
3 4017 3
3 4018 4
3 4019 5
3 4020 1204
3 4021 3
3 4022 334
3 4023 1
3 4024 4
3 4025 2
3 4028 3
3 4029 6
3 4031 4
3 4032 1
3 4033 2
3 4034 1
3 4035 6
3 4036 6
3 4037 4
3 4038 2
3 4039 2
3 4041 1
3 4042 494
3 4043 2
3 4044 3
3 4045 3
3 4046 2
3 4047 8
3 4048 5
3 4049 919
3 4050 5
3 4051 7
3 4052 2
3 4053 1
3 4054 533
3 4055 502
3 4056 3
3 4057 1
3 4058 4
3 4059 3
3 4060 6
3 4061 1
3 4063 3
3 4064 9
3 4065 3
3 4066 3249
3 4068 6
3 4069 4
3 4070 7
3 4071 2
3 4072 2
3 4074 3
3 4075 4
3 4076 6
3 4077 4
3 4078 7
3 4079 339
3 4080 5
3 4081 1
3 4082 5
3 4085 1
3 4086 1
3 4087 4
3 4088 1
3 4089 4
3 4090 120
3 4091 2
3 4092 1
3 4093 1
3 4094 1
3 4095 2
3 4098 3
3 4100 227
3 4101 3
3 4103 3
3 4104 2
3 4105 3
3 4107 4
3 4108 4
3 4109 4
3 4110 1
3 4112 548
3 4113 4
3 4114 2
3 4115 3
3 4116 328
3 4117 1
3 4119 1
3 4120 632
3 4121 1
3 4122 2
3 4123 2
3 4124 309
3 4125 3
3 4126 2
3 4127 6
3 4128 4
3 4129 2
3 4130 1
3 4131 5
3 4133 3
3 4134 5
3 4135 2
3 4136 3
3 4137 1
3 4138 4
3 4139 1
3 4140 4
3 4141 2
3 4142 3
3 4143 7
3 4144 765
3 4146 6
3 4148 11
3 4149 5
3 4150 2
3 4152 1
3 4153 18
3 4154 4
3 4155 2
3 4156 1
3 4158 2
3 4159 2
3 4160 757
3 4161 3
3 4162 3
3 4163 4
3 4165 3
3 4166 1
3 4167 464
3 4168 4
3 4169 7
3 4170 3
3 4171 1310
3 4172 3
3 4173 1
3 4174 1
3 4175 3
3 4176 5
3 4177 680
3 4178 8
3 4179 7
3 4181 1
3 4182 1
3 4183 4
3 4184 1
3 4185 4
3 4186 443
3 4189 5
3 4190 1
3 4191 4
3 4192 4
3 4193 1
3 4196 1
3 4197 2
3 4198 1
3 4199 2
3 4200 477
3 4201 267
3 4202 3
3 4203 1471
3 4204 2
3 4205 2
3 4206 1
3 4207 5
3 4208 704
3 4209 2
3 4210 1
3 4212 7
3 4213 677
3 4214 2
3 4215 4
3 4217 3
3 4218 4
3 4220 469
3 4221 1
3 4223 1
3 4224 4
3 4225 3
3 4226 2
3 4227 2
3 4229 28
3 4231 712
3 4232 883
3 4233 6
3 4234 6
3 4235 4
3 4236 275
3 4237 3
3 4238 3
3 4239 2
3 4240 4
3 4242 2
3 4243 4
3 4244 4
3 4245 6
3 4246 1
3 4247 4
3 4248 278
3 4249 5
3 4251 3
3 4252 364
3 4253 5
3 4254 1
3 4255 9
3 4257 268
3 4258 2
3 4260 2
3 4261 4
3 4262 697
3 4263 2
3 4264 2
3 4265 4
3 4266 3
3 4267 12
3 4268 2
3 4269 4
3 4270 2
3 4271 3
3 4272 5
3 4273 1
3 4274 4
3 4275 2
3 4276 10
3 4277 1
3 4278 2
3 4279 3
3 4280 496
3 4281 1
3 4282 4
3 4285 1656
3 4286 1
3 4287 1
3 4288 4
3 4290 2
3 4291 1
3 4294 4
3 4295 1
3 4296 1
3 4297 1
3 4298 989
3 4299 4
3 4300 2
3 4301 1
3 4302 5
3 4303 7
3 4305 6
3 4306 3
3 4307 1
3 4308 3
3 4309 1
3 4310 5
3 4311 469
3 4312 4
3 4313 2
3 4315 5
3 4316 1
3 4318 3
3 4319 3
3 4320 3
3 4321 533
3 4323 1
3 4324 3
3 4325 1
3 4326 1
3 4327 1
3 4328 90
3 4329 1
3 4332 4
3 4333 2
3 4334 5
3 4335 4
3 4336 1
3 4338 4
3 4339 817
3 4340 2
3 4341 2
3 4342 3
3 4343 2
3 4344 2
3 4345 5
3 4346 4
3 4347 604
3 4348 1
3 4349 2
3 4350 1
3 4351 2
3 4352 9
3 4353 4
3 4354 5
3 4355 2
3 4356 2
3 4357 2
3 4358 4
3 4359 434
3 4360 483
3 4361 1
3 4362 1
3 4363 2
3 4364 5
3 4365 1104
3 4366 333
3 4368 6
3 4369 1
3 4370 257
3 4371 5
3 4372 4
3 4374 8
3 4375 4
3 4376 2
3 4377 8
3 4378 5
3 4379 4
3 4380 3
3 4381 1
3 4382 5
3 4385 1
3 4386 2
3 4387 4
3 4388 1
3 4389 4
3 4390 1137
3 4391 491
3 4393 3
3 4394 4
3 4395 5
3 4396 6
3 4397 3
3 4398 1
3 4399 5
3 4400 1
3 4401 3
3 4402 1
3 4403 6
3 4404 3
3 4407 373
3 4408 2
3 4409 1
3 4413 1
3 4415 878
3 4416 370
3 4417 988
3 4418 1
3 4419 118
3 4420 2
3 4423 764
3 4424 6
3 4425 3
3 4426 2
3 4427 4
3 4428 561
3 4429 1
3 4431 1
3 4432 1
3 4433 5
3 4434 2
3 4435 280
3 4436 1
3 4437 5
3 4438 4
3 4439 7
3 4440 3
3 4441 2
3 4442 4
3 4443 401
3 4444 4
3 4446 2
3 4447 3
3 4448 4
3 4449 3
3 4450 5
3 4451 3
3 4452 220
3 4453 1
3 4454 1
3 4455 2
3 4456 3
3 4457 8
3 4458 1
3 4460 438
3 4462 707
3 4463 3
3 4464 10
3 4466 468
3 4467 4
3 4468 4
3 4469 640
3 4470 1457
3 4471 1
3 4472 2
3 4473 3
3 4474 1
3 4475 1
3 4476 5
3 4477 543
3 4478 1
3 4479 1
3 4480 3
3 4481 1
3 4482 682
3 4483 2
3 4484 1
3 4485 2
3 4486 2
3 4488 3
3 4489 5
3 4490 4
3 4491 3
3 4492 3
3 4493 1
3 4494 2
3 4495 698
3 4496 2
3 4497 673
3 4498 1369
3 4499 3
3 4500 1
3 4501 1
3 4503 9
3 4504 1
3 4505 3
3 4506 3
3 4507 1
3 4508 2
3 4509 104
3 4510 1
3 4511 2
3 4512 4
3 4513 4
3 4515 551
3 4516 3
3 4517 2
3 4518 6
3 4519 2
3 4521 1
3 4522 2437
3 4523 1
3 4524 2
3 4525 4
3 4526 2
3 4527 4
3 4528 2
3 4529 7
3 4530 566
3 4531 354
3 4532 264
3 4533 2
3 4534 1
3 4536 3
3 4537 5
3 4538 5
3 4539 4
3 4540 2
3 4541 1203
3 4542 1
3 4543 1
3 4544 2
3 4545 1
3 4546 1
3 4547 1
3 4548 4
3 4549 2
3 4550 2
3 4551 2
3 4552 3
3 4553 240
3 4554 167
3 4555 1
3 4556 2
3 4557 2
3 4558 2
3 4559 2
3 4560 3
3 4561 1
3 4562 2
3 4563 2
3 4564 2
3 4565 6
3 4566 1
3 4567 15
3 4568 1
3 4569 3
3 4570 980
3 4571 1
3 4574 1
3 4575 621
3 4576 1112
3 4578 2
3 4579 3
3 4580 3
3 4582 2
3 4583 6
3 4584 3
3 4585 7
3 4586 1
3 4587 363
3 4588 3
3 4589 616
3 4590 2
3 4591 3
3 4592 3
3 4593 3
3 4594 1
3 4595 11
3 4596 1
3 4598 5
3 4600 4
3 4602 5
3 4603 709
3 4604 389
3 4605 630
3 4606 1
3 4607 2237
3 4608 398
3 4609 1
3 4610 4
3 4611 1
3 4613 5
3 4614 2
3 4615 3
3 4616 5
3 4617 2
3 4618 1
3 4619 426
3 4620 1
3 4621 12
3 4623 2
3 4624 2
3 4625 2
3 4626 3
3 4627 1
3 4628 3
3 4629 4
3 4630 1
3 4631 3
3 4632 3
3 4633 1
3 4634 3
3 4635 4
3 4636 3
3 4637 1
3 4638 2
3 4639 1
3 4640 3
3 4641 2
3 4642 5
3 4643 8
3 4644 320
3 4645 4
3 4646 4
3 4647 5
3 4648 9
3 4650 2
3 4653 245
3 4654 1
3 4656 2
3 4657 3
3 4659 882
3 4660 4
3 4661 491
3 4662 1215
3 4663 547
3 4664 2
3 4665 151
3 4666 3
3 4667 388
3 4668 889
3 4669 2
3 4670 2
3 4671 2
3 4672 2
3 4674 4
3 4675 2
3 4676 1
3 4677 1
3 4678 6
3 4679 3
3 4680 607
3 4681 324
3 4683 278
3 4684 2
3 4686 5
3 4688 543
3 4689 2
3 4691 2
3 4692 4
3 4693 5
3 4694 1
3 4696 2
3 4697 7
3 4698 2
3 4699 2
3 4700 1
3 4702 2
3 4703 2
3 4704 5
3 4705 2
3 4706 8
3 4707 7
3 4708 155
3 4709 5
3 4711 172
3 4712 10
3 4714 989
3 4715 2
3 4716 2
3 4717 4
3 4718 7
3 4719 2
3 4720 2
3 4721 9
3 4722 3
3 4723 5
3 4724 2
3 4725 2
3 4726 3
3 4727 2
3 4730 2
3 4732 375
3 4733 1
3 4734 2
3 4735 3
3 4736 2
3 4737 2
3 4738 1
3 4739 3
3 4740 4
3 4741 1
3 4742 2
3 4743 4
3 4744 2
3 4745 3
3 4746 908
3 4747 6
3 4749 1
3 4750 33
3 4753 1
3 4754 2
3 4755 5
3 4756 1
3 4757 1
3 4758 1878
3 4759 551
3 4760 1
3 4761 2
3 4762 2
3 4763 3
3 4764 1
3 4765 474
3 4766 2
3 4767 3
3 4768 2
3 4769 2
3 4770 4
3 4771 3
3 4772 6
3 4773 3
3 4774 4
3 4775 6
3 4776 1
3 4777 2
3 4778 2
3 4779 2
3 4780 3
3 4781 2
3 4782 1
3 4783 1
3 4785 2
3 4786 7
3 4787 2
3 4788 1
3 4789 7
3 4790 2
3 4791 2
3 4792 1
3 4793 3
3 4794 4
3 4795 3
3 4796 3
3 4797 366
3 4798 1
3 4799 5
3 4800 5
3 4801 788
3 4802 3
3 4803 3
3 4804 3
3 4805 2
3 4806 2
3 4807 1
3 4809 3
3 4810 4
3 4811 1
3 4812 4
3 4813 1
3 4814 1
3 4815 2
3 4816 3
3 4817 4
3 4818 7
3 4819 2
3 4820 2
3 4821 3
3 4822 2
3 4823 464
3 4824 3
3 4825 1
3 4827 135
3 4829 3
3 4830 1
3 4831 2
3 4832 4
3 4833 453
3 4834 444
3 4835 2
3 4836 3
3 4837 3
3 4838 7
3 4839 3
3 4840 3
3 4841 15
3 4842 1
3 4843 1
3 4844 2
3 4845 2
3 4846 4
3 4847 1
3 4848 514
3 4849 4
3 4850 1
3 4851 11
3 4852 3
3 4853 1
3 4854 273
3 4855 3
3 4856 3
3 4857 2
3 4858 3
3 4859 2
3 4860 2
3 4861 1
3 4862 7
3 4863 5
3 4864 1
3 4865 1
3 4866 3
3 4867 1418
3 4868 456
3 4869 3
3 4870 4
3 4871 3
3 4872 8
3 4873 494
3 4874 6
3 4875 4
3 4876 2
3 4877 6
3 4878 5
3 4879 2
3 4880 394
3 4881 2
3 4882 1
3 4883 3
3 4884 1364
3 4885 494
3 4887 1
3 4888 3
3 4889 472
3 4890 2
3 4891 521
3 4892 4
3 4894 4
3 4896 15
3 4897 4
3 4898 1
3 4900 3
3 4901 1
3 4902 1
3 4903 1
3 4904 2
3 4905 3
3 4906 2
3 4908 2
3 4909 5
3 4910 3
3 4911 1
3 4912 1
3 4913 3
3 4914 12
3 4915 2
3 4916 2
3 4917 2
3 4918 1
3 4919 8
3 4920 1
3 4921 4
3 4922 4
3 4923 8
3 4924 3
3 4925 2
3 4927 13
3 4928 4
3 4929 1
3 4930 6
3 4931 2
3 4932 10
3 4934 6
3 4935 2
3 4936 2
3 4937 505
3 4939 506
3 4940 637
3 4942 3
3 4943 1
3 4944 2
3 4945 3
3 4946 311
3 4947 1
3 4949 4
3 4950 4
3 4951 1
3 4953 1
3 4955 1
3 4956 1
3 4958 3
3 4961 2
3 4963 8
3 4964 11
3 4966 3
3 4967 2
3 4968 3
3 4969 1
3 4970 1
3 4971 515
3 4972 7
3 4973 2
3 4974 2
3 4975 4
3 4976 386
3 4977 2
3 4978 2
3 4979 1
3 4980 3
3 4981 5
3 4982 2
3 4984 3
3 4985 1
3 4986 2
3 4987 3
3 4989 3
3 4990 1
3 4991 2
3 4992 2
3 4993 2
3 4996 2
3 4997 1
3 4998 5
3 5000 807
3 5001 2
3 5002 2
3 5003 3
3 5004 6
3 5005 357
3 5006 3
3 5007 948
3 5008 8
3 5010 2
3 5011 2
3 5012 248
3 5013 5
3 5014 2
3 5015 4
3 5016 445
3 5017 3
3 5018 3
3 5019 3
3 5020 1
3 5022 4
3 5023 2
3 5024 2
3 5026 1
3 5027 8
3 5028 391
3 5029 5
3 5031 2
3 5033 1
3 5034 135
3 5035 8
3 5037 3
3 5038 2
3 5039 4
3 5042 2
3 5043 243
3 5045 330
3 5046 1
3 5048 958
3 5049 2
3 5050 4
3 5051 1
3 5054 1
3 5055 1
3 5056 5
3 5057 184
3 5058 6
3 5059 2
3 5060 2
3 5062 1
3 5064 2
3 5065 512
3 5066 283
3 5067 2
3 5068 31
3 5069 2
3 5070 1
3 5072 2
3 5073 3
3 5074 9
3 5075 4
3 5076 4
3 5077 7
3 5078 1
3 5079 7
3 5080 4
3 5081 3
3 5083 1
3 5084 5
3 5085 574
3 5086 1
3 5087 2
3 5088 4
3 5089 2
3 5090 4
3 5092 8
3 5093 1
3 5094 2
3 5097 3
3 5098 3
3 5099 4
3 5100 4
3 5101 1
3 5102 86
3 5103 2
3 5104 2
3 5105 3
3 5106 2
3 5107 1
3 5108 4
3 5109 1
3 5110 3
3 5111 3
3 5112 2
3 5113 1
3 5115 395
3 5118 1
3 5119 4
3 5120 1
3 5121 3
3 5122 408
3 5123 8
3 5124 1
3 5126 2
3 5128 1
3 5129 3
3 5130 2
3 5131 1
3 5132 34
3 5133 1
3 5134 136
3 5135 1
3 5136 5
3 5137 1
3 5140 2
3 5141 2
3 5143 722
3 5144 2
3 5145 3
3 5147 277
3 5148 3
3 5150 9
3 5152 9
3 5153 473
3 5154 433
3 5156 348
3 5157 4
3 5158 3
3 5159 5
4 1 9
4 2 245
4 3 13
4 4 2
4 5 6
4 6 11
4 7 2
4 9 2
4 10 6
4 11 4
4 12 1
4 13 1254
4 14 5
4 15 1
4 16 4
4 17 261
4 18 93
4 19 6
4 20 973
4 21 9
4 22 618
4 23 1
4 24 3
4 25 5
4 26 268
4 27 4
4 28 395
4 29 2
4 30 2
4 31 4
4 32 3
4 33 2
4 34 4
4 35 6
4 36 7
4 37 7
4 38 245
4 39 277
4 40 12
4 41 682
4 42 3
4 43 490
4 44 3
4 45 2
4 46 8
4 47 3
4 50 5
4 51 764
4 52 3
4 53 8
4 54 3
4 55 189
4 56 3
4 57 3
4 58 4
4 59 9
4 60 387
4 61 6
4 62 1
4 63 8
4 64 7
4 65 6
4 67 941
4 68 8
4 69 5
4 70 5
4 71 5
4 72 4
4 73 2
4 74 4
4 75 6
4 76 5
4 77 1
4 79 4
4 80 10
4 81 4
4 82 4
4 83 2
4 84 5
4 86 1
4 87 1
4 88 1881
4 89 1
4 90 12
4 91 1
4 93 4
4 94 6
4 95 1199
4 96 3
4 97 2
4 99 4
4 100 5
4 101 5
4 102 3
4 104 2
4 105 10
4 106 2242
4 107 4
4 108 5
4 109 278
4 110 7
4 111 3
4 112 1
4 113 7
4 114 1
4 115 2
4 116 4
4 117 4
4 118 374
4 119 2
4 120 5
4 121 2
4 122 2
4 123 2
4 124 13
4 125 661
4 126 2
4 127 14
4 128 8
4 129 9
4 130 352
4 131 5
4 133 4
4 134 3
4 135 4
4 136 1
4 137 43
4 138 651
4 139 3
4 140 1
4 141 67
4 142 6
4 143 5
4 144 819
4 145 7
4 146 3
4 147 1
4 148 2
4 149 9
4 150 1
4 151 7
4 152 4
4 153 4
4 154 2
4 155 4
4 156 649
4 157 3
4 158 5
4 159 3
4 160 2
4 161 7
4 162 5
4 165 4
4 166 2
4 167 9
4 168 4
4 169 5
4 170 2542
4 171 811
4 172 2
4 173 285
4 175 1345
4 176 4
4 177 4
4 178 463
4 179 2
4 180 2
4 181 2
4 182 10
4 183 2
4 184 5
4 185 2
4 186 2029
4 187 5
4 188 2
4 189 17
4 190 4
4 192 4
4 193 1066
4 194 5
4 196 7
4 198 4
4 200 1047
4 201 1
4 202 1
4 204 4
4 205 5
4 206 3
4 207 3
4 208 1
4 209 1099
4 210 2
4 211 3
4 212 1
4 213 2
4 214 5
4 215 3
4 216 159
4 217 4
4 218 3
4 219 7
4 220 6
4 221 4
4 222 661
4 223 3
4 224 32
4 225 4
4 226 2
4 227 8
4 228 4
4 229 3
4 230 3
4 231 3
4 232 805
4 233 10
4 234 6
4 235 700
4 236 2
4 237 8
4 238 981
4 239 4
4 240 4
4 241 1
4 242 291
4 243 606
4 244 11
4 245 499
4 246 5
4 247 11
4 248 449
4 249 3
4 250 1066
4 251 5
4 252 622
4 254 1
4 256 1
4 258 530
4 259 5
4 260 6
4 261 1029
4 262 4
4 263 476
4 264 22
4 265 7
4 266 603
4 267 3
4 268 3
4 269 3
4 270 3
4 271 1
4 272 3
4 274 2
4 275 241
4 276 2
4 278 3
4 279 2
4 280 1
4 281 6
4 282 3
4 283 4
4 284 12
4 285 11
4 286 9
4 287 2
4 288 3
4 289 2
4 290 1
4 291 4
4 292 5
4 293 4
4 294 6
4 295 5
4 296 3
4 297 4
4 298 7
4 299 2
4 300 836
4 301 5
4 302 6
4 303 1
4 304 3
4 305 327
4 306 4
4 307 6
4 308 2
4 309 4
4 310 2
4 311 2
4 312 255
4 313 3
4 314 6
4 315 1
4 316 6
4 317 8
4 319 11
4 321 7
4 322 2
4 323 5
4 324 451
4 325 255
4 326 2
4 327 1360
4 328 1255
4 329 2
4 330 3
4 331 2
4 332 4
4 333 5
4 334 2
4 335 5
4 336 4
4 338 4
4 339 3
4 340 268
4 341 4
4 342 9
4 343 1
4 344 3
4 345 2
4 346 3
4 347 8
4 348 2
4 349 7
4 350 886
4 351 3
4 352 6
4 353 2
4 355 3
4 356 4
4 357 5
4 358 3
4 359 582
4 360 1
4 361 1871
4 362 1
4 363 4
4 365 5
4 366 404
4 367 1
4 368 4
4 369 1
4 370 2
4 371 9
4 372 15
4 374 2
4 376 1
4 377 1
4 378 4
4 379 6
4 380 9
4 381 1
4 382 4
4 383 573
4 384 4
4 385 651
4 386 8
4 387 1
4 388 794
4 389 9
4 390 913
4 391 16
4 392 4
4 393 3
4 394 3
4 395 55
4 396 3
4 397 6
4 398 3
4 399 4
4 400 2
4 401 2
4 402 7
4 403 10
4 404 3
4 406 7
4 407 4
4 408 7
4 409 3
4 410 4
4 411 5
4 412 6
4 413 2
4 415 416
4 416 14
4 417 4
4 419 4
4 421 5
4 422 2
4 423 3
4 424 3
4 425 3
4 426 7
4 427 537
4 428 832
4 429 3
4 430 2
4 432 1
4 433 1
4 434 3
4 435 5
4 436 3
4 437 4
4 438 3
4 439 4
4 440 6
4 441 1
4 442 4
4 443 6
4 444 687
4 445 4
4 446 2
4 447 1
4 448 1
4 449 1
4 450 3
4 451 1
4 452 4
4 453 6
4 454 4
4 455 953
4 456 1
4 457 5
4 458 2
4 459 5
4 460 3
4 461 10
4 462 7
4 463 2
4 464 4
4 465 4
4 466 4
4 467 4
4 468 179
4 469 11
4 470 3
4 471 4
4 472 2
4 473 231
4 474 7
4 475 453
4 476 326
4 478 12
4 479 293
4 480 1
4 481 8
4 482 7
4 483 3
4 484 772
4 485 1
4 486 12
4 487 1
4 489 6
4 490 984
4 491 6
4 492 592
4 495 2
4 496 5
4 497 11
4 498 3
4 499 758
4 500 2
4 501 1
4 502 7
4 503 6
4 504 3
4 505 5
4 506 371
4 507 604
4 508 290
4 509 3
4 510 2
4 511 6
4 513 4
4 514 474
4 515 260
4 516 2
4 517 1
4 518 3
4 519 4
4 520 7
4 521 3
4 523 938
4 524 9
4 526 1
4 527 321
4 528 5
4 529 2
4 530 6
4 531 7
4 532 2
4 533 2
4 535 3
4 537 1
4 538 6
4 539 11
4 540 1
4 541 1
4 542 5
4 543 5
4 544 3
4 545 1
4 546 2
4 547 3
4 548 8
4 549 5
4 550 2
4 551 2
4 552 5
4 553 532
4 554 2
4 556 232
4 557 2
4 558 6
4 559 8
4 560 611
4 561 2
4 562 1
4 563 7
4 564 12
4 565 6
4 566 6
4 567 5
4 568 3
4 569 817
4 570 3
4 571 479
4 572 700
4 573 3
4 574 6
4 575 1
4 576 2
4 577 4
4 578 4
4 580 412
4 581 8
4 583 5
4 584 3
4 586 2
4 587 3
4 588 3
4 589 4
4 590 3
4 591 2
4 592 5
4 593 9
4 594 3
4 595 7
4 596 5
4 597 5
4 598 2
4 600 4
4 601 5
4 604 3
4 605 2
4 606 10
4 607 3
4 608 1
4 609 2
4 610 1
4 611 4
4 612 3
4 613 6
4 614 5
4 615 1
4 616 716
4 619 5
4 620 1
4 621 415
4 622 241
4 623 6
4 624 1
4 625 4
4 626 3
4 627 5
4 628 6
4 629 9
4 630 3
4 631 3
4 632 1
4 633 5
4 634 11
4 635 2
4 636 7
4 637 6
4 638 5
4 639 1
4 640 2
4 641 498
4 642 3
4 643 5
4 644 4
4 645 2
4 646 594
4 647 4
4 648 739
4 649 5
4 650 2
4 651 7
4 652 2
4 653 2
4 654 1166
4 655 5
4 656 3
4 657 6
4 658 8
4 659 4
4 660 10
4 661 6
4 662 114
4 663 521
4 664 5
4 665 1
4 666 1
4 667 5
4 668 6
4 669 2
4 670 8
4 671 8
4 672 3
4 673 4
4 675 6
4 676 5
4 677 7
4 678 2
4 679 10
4 680 2
4 681 3
4 682 3
4 683 1
4 684 4
4 685 3
4 686 2
4 687 543
4 688 5
4 689 10
4 690 2
4 691 1
4 692 1
4 693 3
4 694 3
4 695 665
4 696 2
4 697 4
4 698 1
4 699 6
4 700 3
4 701 8
4 702 2
4 703 26
4 704 3
4 705 5
4 706 8
4 707 2
4 708 8
4 709 3
4 710 420
4 711 6
4 712 389
4 713 5
4 714 3
4 715 2
4 716 4
4 717 1
4 718 2
4 720 4
4 721 4
4 722 2
4 723 3
4 724 206
4 725 1
4 726 1494
4 727 4
4 728 215
4 729 2
4 730 5
4 731 407
4 732 6
4 733 5
4 735 3
4 736 2
4 738 4
4 739 15
4 740 360
4 741 1
4 742 4
4 743 2
4 744 1
4 745 328
4 746 2
4 748 14
4 749 2
4 750 6
4 751 6
4 753 5
4 754 3
4 755 1
4 756 5
4 757 4
4 758 4
4 759 2
4 760 2
4 761 6
4 762 298
4 763 3612
4 764 6
4 765 6
4 766 826
4 767 4
4 768 8
4 769 8
4 770 2
4 771 10
4 772 16
4 773 2
4 774 1
4 775 8
4 776 3
4 777 8
4 778 532
4 779 2499
4 780 16
4 781 958
4 782 570
4 783 2
4 784 531
4 785 7
4 786 12
4 787 310
4 788 13
4 789 1
4 790 2
4 791 269
4 792 3
4 793 11
4 794 1
4 795 6
4 796 3
4 797 7
4 798 4
4 799 4
4 800 3
4 801 4
4 802 2
4 803 3
4 804 8
4 805 2
4 806 4
4 807 748
4 808 2
4 809 3
4 810 2
4 811 3
4 812 4
4 813 6
4 814 345
4 816 3
4 817 2
4 818 4
4 819 1
4 820 1
4 821 1
4 822 3
4 823 4
4 824 5
4 825 5
4 826 7
4 827 3
4 828 1157
4 829 6
4 830 3
4 831 3
4 832 7
4 833 3
4 834 3
4 836 891
4 837 1
4 838 5
4 839 2
4 840 2
4 841 1
4 842 3
4 843 2
4 844 5
4 845 4
4 846 3
4 847 1
4 849 4
4 850 670
4 851 3
4 852 3
4 853 7
4 854 6
4 855 2
4 857 23
4 858 3
4 859 472
4 860 3
4 861 5
4 862 2
4 863 179
4 864 1045
4 865 3
4 867 2
4 868 3
4 869 3
4 870 1
4 871 3
4 872 5
4 873 4
4 874 297
4 875 2
4 876 3
4 877 2
4 878 4
4 879 169
4 880 3
4 881 2
4 882 7
4 883 238
4 885 7
4 886 5
4 887 2
4 888 1
4 889 5
4 890 1
4 892 10
4 893 3
4 894 2
4 895 2
4 896 17
4 897 5
4 898 643
4 899 1
4 900 6
4 901 3
4 902 3
4 904 3
4 906 1
4 907 2
4 908 6
4 909 3
4 910 631
4 911 2
4 912 5
4 913 2
4 914 7
4 915 789
4 916 3
4 917 2
4 918 6
4 919 4
4 920 7
4 921 3
4 922 4
4 924 2
4 925 3
4 926 585
4 927 5
4 928 4
4 929 1
4 930 4
4 931 7
4 932 44
4 933 395
4 934 5
4 935 6
4 936 1
4 937 2
4 938 2
4 939 3
4 940 5
4 941 5
4 943 2
4 944 4
4 945 5
4 946 2
4 947 7
4 948 6
4 949 4
4 950 3
4 951 3049
4 952 2
4 954 6
4 955 3
4 956 5
4 957 853
4 958 2
4 959 11
4 961 3
4 962 7
4 963 9
4 964 4
4 965 2
4 966 2
4 967 4
4 968 5
4 970 3
4 971 6
4 972 7
4 973 3
4 974 3
4 975 2
4 977 818
4 978 18
4 979 3
4 980 101
4 981 3
4 982 3
4 983 3
4 984 5
4 985 2
4 986 379
4 988 619
4 990 8
4 992 796
4 993 531
4 994 5
4 995 6
4 996 4
4 997 8
4 998 8
4 999 448
4 1000 415
4 1001 6
4 1002 1
4 1004 5
4 1005 23
4 1006 2
4 1007 2
4 1008 5
4 1009 8
4 1010 964
4 1011 6
4 1012 2
4 1013 4
4 1014 3
4 1015 4
4 1016 3
4 1017 1
4 1018 1
4 1019 8
4 1020 1
4 1022 1364
4 1023 797
4 1025 6
4 1027 2
4 1028 1228
4 1029 4
4 1030 3
4 1031 4
4 1032 2
4 1033 691
4 1034 1
4 1035 1
4 1036 3
4 1037 3
4 1038 6
4 1039 398
4 1040 2
4 1041 2
4 1042 1
4 1043 5
4 1044 4
4 1045 5
4 1046 3
4 1047 4
4 1048 5
4 1049 4
4 1050 4
4 1051 5
4 1052 10
4 1053 5
4 1054 2
4 1055 5
4 1056 3
4 1057 2
4 1058 3
4 1059 543
4 1060 3
4 1061 1
4 1062 203
4 1063 3
4 1064 599
4 1065 7
4 1066 233
4 1067 6
4 1068 4
4 1069 4
4 1070 3
4 1071 1
4 1076 2
4 1077 3
4 1079 594
4 1080 3
4 1081 8
4 1082 354
4 1083 5
4 1084 237
4 1085 792
4 1086 1
4 1087 2
4 1088 3
4 1089 32
4 1090 2
4 1091 3
4 1092 4
4 1093 4
4 1094 5
4 1096 3
4 1097 314
4 1098 4
4 1099 4
4 1100 7
4 1101 3
4 1102 1
4 1103 2
4 1104 20
4 1105 369
4 1106 24
4 1107 2
4 1108 593
4 1109 270
4 1110 1
4 1111 4
4 1112 1
4 1113 2
4 1114 1
4 1115 993
4 1116 2
4 1117 5
4 1118 7
4 1119 8
4 1120 1
4 1121 7
4 1122 4
4 1123 2
4 1124 1
4 1125 4
4 1126 1
4 1127 4
4 1128 6
4 1129 5
4 1130 5
4 1131 3
4 1132 5
4 1134 5
4 1136 3
4 1137 5
4 1138 2
4 1139 3
4 1140 3
4 1141 334
4 1142 3
4 1143 3
4 1145 393
4 1146 6
4 1147 4
4 1148 1
4 1149 9
4 1150 3
4 1151 362
4 1152 3
4 1153 4
4 1155 6
4 1156 3
4 1157 10
4 1158 3
4 1159 11
4 1160 4
4 1162 3
4 1163 2
4 1164 5
4 1165 2
4 1166 136
4 1168 645
4 1169 3
4 1170 1
4 1171 4
4 1172 6
4 1173 2
4 1174 1
4 1175 12
4 1176 4
4 1177 3
4 1179 2
4 1180 828
4 1181 1
4 1182 6
4 1184 17
4 1185 5
4 1186 2
4 1187 2
4 1188 6
4 1189 7
4 1190 1162
4 1191 1414
4 1192 3
4 1193 3
4 1194 3
4 1195 2
4 1196 12
4 1197 3
4 1198 6
4 1199 4
4 1204 35
4 1205 2
4 1206 6
4 1207 3
4 1209 613
4 1210 3
4 1214 637
4 1215 3
4 1216 495
4 1217 1
4 1218 1
4 1220 22
4 1221 3
4 1222 4
4 1223 13
4 1224 1
4 1225 8
4 1226 13
4 1227 2
4 1228 2
4 1229 5
4 1230 2
4 1232 12
4 1233 1646
4 1234 2
4 1235 6
4 1236 942
4 1237 3
4 1238 6
4 1239 1
4 1240 1499
4 1241 8
4 1242 3
4 1243 662
4 1244 4
4 1245 3
4 1246 7
4 1247 3
4 1248 4
4 1249 2
4 1250 5
4 1252 8
4 1253 127
4 1254 6
4 1255 10
4 1256 1240
4 1257 3
4 1258 3
4 1259 2
4 1260 4
4 1261 1
4 1262 6
4 1263 1
4 1264 11
4 1265 1
4 1266 12
4 1267 583
4 1268 5
4 1269 7
4 1270 6
4 1271 19
4 1272 8
4 1273 5
4 1274 7
4 1275 2
4 1276 3
4 1277 2
4 1278 3
4 1279 5
4 1280 5
4 1281 320
4 1282 1000
4 1283 2
4 1285 8
4 1286 2
4 1287 1
4 1288 3
4 1289 4
4 1290 640
4 1291 12
4 1292 1
4 1293 3
4 1294 4
4 1295 5
4 1297 5
4 1298 12
4 1299 3
4 1300 2
4 1301 6
4 1302 2
4 1303 2
4 1304 2
4 1305 3
4 1306 9
4 1307 5
4 1308 15
4 1309 6
4 1310 5
4 1311 8
4 1312 4
4 1313 7
4 1314 6
4 1315 3
4 1316 1
4 1317 1
4 1318 20
4 1319 6
4 1320 2
4 1321 2
4 1322 4
4 1323 647
4 1324 2
4 1325 7
4 1326 9
4 1327 4
4 1328 7
4 1329 5
4 1330 6
4 1331 3
4 1332 6
4 1333 5
4 1334 13
4 1335 5
4 1336 11
4 1337 2
4 1338 3
4 1339 4
4 1340 5
4 1341 3
4 1342 4
4 1343 761
4 1344 3
4 1345 5
4 1346 11
4 1347 1
4 1348 292
4 1350 3
4 1351 2
4 1352 6
4 1353 3
4 1356 5
4 1357 1
4 1358 2
4 1360 1
4 1361 242
4 1362 8
4 1363 3
4 1364 5
4 1365 2
4 1366 4
4 1367 37
4 1368 3
4 1370 415
4 1371 10
4 1373 850
4 1374 4
4 1375 11
4 1376 896
4 1377 7
4 1378 7
4 1379 1
4 1380 352
4 1382 1
4 1383 3
4 1385 3
4 1386 3
4 1388 3
4 1389 1
4 1390 7
4 1391 2
4 1392 4
4 1393 3
4 1394 8
4 1395 3
4 1396 15
4 1397 2
4 1398 1
4 1399 4
4 1400 4
4 1401 7
4 1402 3
4 1403 3
4 1404 2
4 1405 4
4 1406 1121
4 1408 7
4 1409 3
4 1410 1310
4 1411 1
4 1413 5
4 1414 5
4 1415 1
4 1416 1
4 1417 6
4 1419 2
4 1420 2
4 1421 5
4 1422 4
4 1423 4
4 1424 2
4 1425 1031
4 1426 3
4 1427 3
4 1428 4
4 1430 6
4 1431 1
4 1432 7
4 1433 6
4 1434 2
4 1435 3
4 1436 5
4 1437 3
4 1438 958
4 1439 1
4 1440 5
4 1441 3
4 1442 279
4 1444 1059
4 1445 312
4 1446 4
4 1447 6
4 1448 3
4 1449 6
4 1451 2
4 1452 2
4 1453 2
4 1454 6
4 1455 1
4 1456 4
4 1457 4
4 1458 2
4 1459 3
4 1460 3
4 1461 285
4 1462 3
4 1463 3
4 1464 1
4 1466 1
4 1467 1
4 1468 1
4 1469 3
4 1470 5
4 1471 7
4 1472 4
4 1473 7
4 1474 2
4 1475 3
4 1476 4
4 1477 3
4 1478 2
4 1479 2
4 1480 3
4 1481 1
4 1482 4
4 1483 6
4 1484 4
4 1485 8
4 1486 237
4 1487 2
4 1488 2
4 1489 4
4 1490 3
4 1491 4
4 1492 1
4 1493 532
4 1494 1318
4 1495 8
4 1496 1
4 1497 1
4 1498 1587
4 1499 11
4 1500 3
4 1502 241
4 1503 4
4 1504 11
4 1505 5
4 1506 11
4 1507 5
4 1508 3
4 1510 8
4 1511 6
4 1512 2
4 1514 2
4 1515 2
4 1517 2
4 1518 396
4 1519 5
4 1520 2
4 1521 3
4 1522 5
4 1523 3
4 1524 7
4 1525 3
4 1526 555
4 1527 3
4 1528 7
4 1529 3
4 1530 1
4 1531 4
4 1532 4
4 1533 5
4 1534 10
4 1535 3
4 1536 3218
4 1537 4
4 1538 2
4 1539 5
4 1540 8
4 1541 9
4 1542 3
4 1543 6
4 1544 3
4 1545 6
4 1546 10
4 1547 3
4 1548 6
4 1549 1
4 1550 5
4 1551 2
4 1552 345
4 1553 388
4 1554 629
4 1555 419
4 1556 4
4 1557 773
4 1558 2
4 1560 465
4 1561 3
4 1562 4
4 1563 2
4 1564 3
4 1565 5
4 1566 931
4 1567 5
4 1568 5
4 1569 3
4 1570 22
4 1571 2
4 1572 2
4 1574 2145
4 1575 3
4 1576 3
4 1577 7
4 1578 4
4 1579 1
4 1580 9166
4 1581 1
4 1582 2
4 1583 5
4 1584 6
4 1585 6
4 1586 6
4 1587 3
4 1588 5
4 1589 331
4 1590 2
4 1591 2
4 1592 1
4 1593 1
4 1594 4
4 1595 2
4 1596 2
4 1597 4
4 1598 4
4 1599 8
4 1600 6
4 1601 928
4 1602 5
4 1603 11
4 1605 7
4 1606 19
4 1607 210
4 1608 9
4 1609 535
4 1611 2
4 1612 3
4 1613 1114
4 1614 2
4 1615 2
4 1616 1
4 1617 4
4 1618 1
4 1619 2
4 1621 8
4 1622 5
4 1623 4
4 1624 3
4 1625 569
4 1626 8
4 1627 1
4 1628 2
4 1629 3
4 1630 581
4 1631 4
4 1632 2
4 1633 6
4 1634 5
4 1635 5
4 1636 4
4 1637 3
4 1638 362
4 1639 4
4 1640 6
4 1641 4
4 1642 14
4 1644 4
4 1645 4
4 1646 3
4 1647 2
4 1648 4
4 1649 15
4 1650 9
4 1651 4
4 1652 7
4 1653 4
4 1654 5
4 1655 3
4 1656 5
4 1657 4
4 1658 2
4 1659 3
4 1660 2
4 1661 2
4 1662 16
4 1664 5
4 1665 3
4 1666 5
4 1667 4
4 1668 3
4 1669 138
4 1670 3
4 1671 1
4 1672 2
4 1673 1
4 1675 6
4 1676 1
4 1677 666
4 1678 690
4 1679 211
4 1680 526
4 1681 2
4 1682 2
4 1683 5
4 1684 2
4 1685 2
4 1686 2
4 1687 7
4 1688 2
4 1689 4
4 1690 8
4 1691 7
4 1692 2
4 1693 8
4 1694 4
4 1695 2
4 1696 1
4 1697 2
4 1699 1217
4 1700 9
4 1701 4
4 1702 3
4 1704 5
4 1705 6
4 1706 4
4 1707 6
4 1709 5
4 1710 3
4 1711 641
4 1712 5
4 1713 4
4 1714 5
4 1715 1
4 1716 2
4 1717 10
4 1719 3
4 1720 2
4 1721 4
4 1722 1
4 1723 7
4 1724 4
4 1725 4
4 1726 47
4 1727 3
4 1728 4
4 1729 535
4 1730 2
4 1731 477
4 1732 226
4 1734 7
4 1736 1
4 1737 3
4 1738 5
4 1739 2
4 1740 5
4 1741 852
4 1742 8
4 1743 2
4 1744 4
4 1745 3
4 1747 1154
4 1748 2
4 1749 835
4 1751 2
4 1752 2
4 1753 10
4 1754 3
4 1755 3
4 1756 5
4 1757 3
4 1758 3
4 1759 4
4 1760 476
4 1761 8
4 1762 3
4 1763 1
4 1764 4
4 1765 2
4 1766 1
4 1768 2
4 1769 6
4 1770 6
4 1771 4
4 1772 5
4 1773 3
4 1774 374
4 1775 2
4 1777 5
4 1779 787
4 1780 1
4 1781 2
4 1783 18
4 1784 11
4 1785 2
4 1787 2
4 1788 5
4 1789 5
4 1790 3
4 1791 5
4 1792 432
4 1793 2
4 1794 3
4 1795 2
4 1796 7
4 1797 4
4 1799 631
4 1800 602
4 1801 2
4 1802 1
4 1803 3
4 1804 1
4 1805 7
4 1806 1
4 1807 5
4 1809 2
4 1810 4
4 1811 4
4 1812 353
4 1813 5
4 1814 2
4 1815 4
4 1816 447
4 1817 5
4 1818 4
4 1819 556
4 1820 4
4 1821 6
4 1822 9
4 1823 4
4 1824 3
4 1825 210
4 1826 3
4 1827 2
4 1828 2
4 1829 3
4 1830 743
4 1831 878
4 1832 8
4 1833 3
4 1834 7
4 1835 6
4 1837 5
4 1838 7
4 1839 1
4 1840 5
4 1841 2
4 1842 4
4 1843 1
4 1844 5
4 1846 6
4 1848 1
4 1849 6
4 1850 2
4 1851 2
4 1852 3
4 1853 3
4 1854 1
4 1855 3
4 1856 9
4 1857 5
4 1858 5
4 1859 1
4 1862 317
4 1863 4
4 1864 438
4 1865 4
4 1866 3
4 1867 2
4 1868 2
4 1869 6
4 1870 3
4 1871 9
4 1872 4
4 1874 4
4 1875 3
4 1876 2
4 1877 3
4 1878 7
4 1879 1
4 1880 6
4 1881 5
4 1882 3
4 1884 7
4 1885 642
4 1886 3
4 1887 4
4 1888 515
4 1889 3
4 1890 4
4 1891 6
4 1892 3
4 1893 7
4 1894 6
4 1895 6
4 1896 3
4 1898 309
4 1900 918
4 1901 1
4 1902 562
4 1903 2
4 1904 4
4 1905 3
4 1906 309
4 1907 4
4 1908 818
4 1909 4
4 1910 4
4 1912 2
4 1913 342
4 1914 2
4 1915 2
4 1916 3
4 1917 2
4 1918 5
4 1919 398
4 1920 4
4 1921 4
4 1922 2
4 1923 13
4 1924 1
4 1925 6
4 1926 1046
4 1927 2
4 1928 8
4 1929 5
4 1931 1
4 1932 2
4 1933 3
4 1934 7
4 1935 5
4 1936 2
4 1937 8
4 1938 6
4 1939 3
4 1940 3
4 1941 38
4 1942 3
4 1943 1061
4 1944 19
4 1945 5
4 1946 2
4 1947 4
4 1948 500
4 1949 6
4 1950 4
4 1951 1
4 1952 1
4 1953 6
4 1954 4
4 1955 5
4 1956 5
4 1957 6
4 1960 4
4 1961 824
4 1962 3
4 1963 1
4 1964 8
4 1965 2
4 1966 3
4 1968 1
4 1969 4
4 1970 2
4 1971 6
4 1972 1
4 1973 2
4 1975 6
4 1977 1
4 1978 6
4 1979 7
4 1980 25
4 1981 308
4 1982 3
4 1983 2
4 1985 567
4 1986 2
4 1987 5
4 1988 1
4 1989 4
4 1990 2
4 1991 519
4 1992 1
4 1993 552
4 1994 1
4 1995 1
4 1996 1
4 1997 2
4 1998 9
4 1999 3
4 2000 4
4 2001 8
4 2002 7
4 2004 2
4 2005 11
4 2006 2
4 2007 2
4 2008 5
4 2009 4
4 2011 2
4 2012 2
4 2013 8
4 2014 4
4 2015 10
4 2016 1
4 2017 3
4 2018 5
4 2019 503
4 2020 1
4 2021 5
4 2022 1077
4 2023 3
4 2024 3
4 2025 4
4 2026 4
4 2027 1
4 2028 4
4 2029 3
4 2031 6
4 2032 438
4 2035 3
4 2036 2
4 2037 373
4 2038 6
4 2039 510
4 2040 538
4 2041 4
4 2043 3
4 2044 10
4 2045 3
4 2046 2
4 2047 5
4 2048 4
4 2049 4
4 2050 4
4 2051 2
4 2052 3
4 2053 1
4 2054 519
4 2055 513
4 2056 508
4 2057 5
4 2058 5
4 2059 5
4 2060 2
4 2061 4
4 2063 316
4 2064 1
4 2065 4
4 2066 2
4 2067 5
4 2068 3
4 2069 2
4 2070 11
4 2071 5
4 2072 1
4 2073 3
4 2074 266
4 2075 939
4 2077 3
4 2078 6
4 2079 341
4 2080 4
4 2081 3
4 2082 4
4 2083 12
4 2084 3
4 2085 51
4 2086 4
4 2087 349
4 2088 1
4 2089 2
4 2090 1
4 2092 1
4 2093 4
4 2094 801
4 2095 8
4 2096 3
4 2097 3
4 2098 3
4 2100 492
4 2101 2
4 2102 5
4 2103 814
4 2104 3
4 2105 687
4 2106 641
4 2107 1
4 2108 4
4 2109 6
4 2110 1
4 2111 271
4 2112 7
4 2113 3
4 2114 2
4 2116 8
4 2117 5
4 2118 26
4 2120 6
4 2121 4
4 2122 3
4 2123 3
4 2124 1
4 2125 22
4 2126 4
4 2127 2
4 2128 9
4 2129 10
4 2130 1
4 2132 4
4 2133 6
4 2134 3
4 2135 4
4 2136 2
4 2137 1
4 2138 5
4 2139 12
4 2140 8
4 2142 3
4 2143 3
4 2144 6
4 2145 3
4 2147 4
4 2148 3
4 2149 5
4 2150 5
4 2151 5
4 2152 5
4 2153 3
4 2154 2
4 2156 46
4 2157 1
4 2158 6
4 2159 5
4 2160 1
4 2161 4
4 2162 3
4 2163 459
4 2165 3
4 2166 6
4 2167 5
4 2168 5
4 2169 1
4 2170 3
4 2171 3
4 2172 7
4 2173 2
4 2174 4
4 2175 1
4 2176 2
4 2177 5
4 2178 372
4 2179 1
4 2180 3
4 2181 2
4 2182 1
4 2184 255
4 2185 3
4 2187 4
4 2188 5
4 2189 4
4 2191 1
4 2192 5
4 2193 1
4 2194 591
4 2195 9
4 2196 7
4 2197 5
4 2198 4
4 2199 3
4 2200 5
4 2201 313
4 2202 9
4 2203 2
4 2205 784
4 2206 1
4 2207 8
4 2208 54
4 2209 6
4 2210 2
4 2211 292
4 2212 5
4 2213 1
4 2214 2
4 2215 12
4 2216 48
4 2217 5
4 2218 3
4 2219 2
4 2220 6
4 2221 5
4 2222 2
4 2223 1
4 2224 9
4 2225 4
4 2226 2
4 2227 3
4 2228 1
4 2229 4
4 2230 6
4 2231 778
4 2232 2
4 2233 501
4 2234 481
4 2235 1
4 2236 3
4 2237 20
4 2238 2
4 2239 1
4 2240 1
4 2241 3
4 2242 436
4 2243 5
4 2244 9
4 2245 9
4 2246 2
4 2247 3
4 2248 9
4 2249 4
4 2250 4
4 2251 4
4 2252 1
4 2253 8
4 2254 1
4 2255 227
4 2256 3
4 2257 1
4 2258 6
4 2259 7
4 2260 6
4 2261 8
4 2262 12
4 2263 246
4 2264 1
4 2265 1
4 2266 2
4 2267 4
4 2268 1
4 2269 3
4 2270 2
4 2271 5
4 2272 3
4 2273 516
4 2274 3
4 2275 2
4 2276 10
4 2277 2
4 2278 6
4 2279 1
4 2280 1
4 2281 5
4 2282 1
4 2283 3
4 2284 3
4 2286 5
4 2287 332
4 2288 6
4 2289 3
4 2290 189
4 2291 16
4 2292 646
4 2293 1
4 2294 3
4 2295 1
4 2296 2
4 2297 9
4 2298 3
4 2299 3
4 2300 2
4 2302 1031
4 2303 8
4 2304 3
4 2306 1
4 2307 5
4 2308 3
4 2309 6
4 2310 857
4 2311 3
4 2312 2
4 2313 2
4 2314 1221
4 2315 4
4 2317 4
4 2318 63
4 2320 311
4 2321 3
4 2322 2
4 2323 2
4 2324 6
4 2325 10
4 2326 4
4 2327 4
4 2328 5
4 2329 2
4 2330 5
4 2331 1
4 2332 3
4 2333 540
4 2334 5
4 2335 2
4 2336 6
4 2337 2
4 2338 6
4 2339 4
4 2340 3
4 2341 353
4 2342 344
4 2343 5
4 2344 8
4 2345 2
4 2348 4
4 2349 1383
4 2350 3
4 2351 990
4 2352 1150
4 2353 12
4 2354 2
4 2355 2
4 2356 4
4 2357 4
4 2358 1
4 2359 7
4 2360 358
4 2361 5
4 2362 2
4 2363 2
4 2365 560
4 2366 5
4 2367 348
4 2368 2
4 2369 8
4 2370 1144
4 2371 5
4 2372 3
4 2373 2
4 2374 180
4 2375 1
4 2376 5
4 2377 785
4 2378 3
4 2379 1
4 2380 2
4 2381 9
4 2382 1
4 2383 1274
4 2385 1
4 2386 309
4 2387 7
4 2388 733
4 2390 3
4 2391 5
4 2392 3
4 2393 599
4 2394 4
4 2396 6
4 2397 125
4 2398 3
4 2399 7
4 2400 753
4 2401 3
4 2402 5
4 2403 3
4 2404 8
4 2405 2
4 2406 4
4 2407 8
4 2408 717
4 2409 2
4 2410 5
4 2411 678
4 2412 3
4 2413 5
4 2414 8
4 2415 1
4 2416 3
4 2417 1515
4 2418 6
4 2419 429
4 2420 990
4 2421 3
4 2422 1
4 2423 48
4 2424 523
4 2425 2
4 2426 2
4 2427 3
4 2428 3
4 2429 4
4 2430 3
4 2431 1
4 2432 3
4 2433 8
4 2434 1
4 2435 5
4 2436 4
4 2437 2
4 2438 3
4 2439 5
4 2440 1081
4 2441 3
4 2442 14
4 2443 1291
4 2444 18
4 2445 1
4 2446 2
4 2447 727
4 2448 6
4 2449 1
4 2450 648
4 2451 43
4 2452 2
4 2453 5
4 2454 489
4 2455 3
4 2456 10
4 2457 2
4 2458 1
4 2459 4
4 2460 1
4 2461 611
4 2462 3
4 2463 4
4 2464 99
4 2465 539
4 2466 3
4 2467 1
4 2468 5
4 2469 3
4 2470 3
4 2471 1283
4 2473 2
4 2474 6
4 2476 3
4 2477 11
4 2478 2
4 2479 4
4 2480 2
4 2481 2
4 2482 2
4 2483 1
4 2484 3
4 2485 17
4 2486 2
4 2487 748
4 2488 6
4 2489 6
4 2490 4
4 2491 493
4 2492 2
4 2493 616
4 2494 1
4 2495 3
4 2496 548
4 2497 3
4 2498 1
4 2499 9
4 2500 3
4 2501 260
4 2502 924
4 2503 4
4 2504 4
4 2505 3
4 2506 4
4 2507 3
4 2508 4
4 2509 9
4 2510 7
4 2511 184
4 2512 4
4 2513 5
4 2514 3
4 2515 902
4 2516 8
4 2517 7
4 2518 4
4 2519 9
4 2520 15
4 2521 8
4 2522 5
4 2523 474
4 2524 3
4 2525 3
4 2526 2
4 2527 1
4 2528 1
4 2530 3
4 2531 307
4 2532 2
4 2534 7
4 2536 2
4 2537 5
4 2538 1
4 2539 911
4 2540 2
4 2541 5
4 2542 10
4 2543 8
4 2544 3
4 2545 5
4 2546 2
4 2547 786
4 2548 1
4 2549 7
4 2550 2
4 2552 3
4 2553 1
4 2554 3
4 2555 839
4 2556 4
4 2557 9
4 2558 254
4 2559 2
4 2560 5
4 2562 3
4 2563 2
4 2564 826
4 2565 1
4 2566 1
4 2567 3
4 2568 613
4 2569 5
4 2570 1747
4 2571 2
4 2572 477
4 2573 2
4 2574 4
4 2575 2
4 2577 12
4 2578 6
4 2579 1
4 2581 18
4 2582 1
4 2584 1211
4 2586 4
4 2587 492
4 2588 11
4 2589 1
4 2590 319
4 2591 3
4 2592 3
4 2593 2
4 2594 237
4 2595 2
4 2596 474
4 2597 3
4 2598 5
4 2600 10
4 2601 1
4 2602 5
4 2603 3
4 2604 2
4 2605 2
4 2606 4
4 2607 2
4 2608 5
4 2609 6
4 2610 6
4 2611 5
4 2612 3
4 2613 2
4 2614 4
4 2615 3
4 2616 697
4 2617 4
4 2618 4
4 2619 3
4 2620 1
4 2621 2
4 2622 2
4 2623 5
4 2624 6
4 2626 330
4 2627 2
4 2628 2
4 2629 2261
4 2630 1
4 2631 6
4 2632 7
4 2633 1
4 2634 293
4 2635 2
4 2636 4
4 2637 2
4 2638 6
4 2639 6
4 2640 6
4 2641 3
4 2642 2
4 2643 485
4 2644 1
4 2645 1
4 2646 9
4 2647 4
4 2648 6
4 2649 5
4 2651 1
4 2652 1
4 2653 460
4 2654 2
4 2655 5
4 2656 4
4 2659 13
4 2660 2
4 2661 7
4 2662 3
4 2663 5
4 2664 2
4 2665 1
4 2666 4
4 2667 4
4 2668 7
4 2669 3
4 2670 5
4 2671 2
4 2672 3
4 2673 4
4 2674 583
4 2675 3
4 2676 4
4 2677 1
4 2678 4
4 2679 3
4 2680 2
4 2681 163
4 2682 5
4 2684 4
4 2685 5
4 2686 1
4 2687 1
4 2688 6
4 2689 1
4 2690 1
4 2691 1816
4 2692 3
4 2693 3
4 2694 4
4 2695 968
4 2697 2
4 2698 7
4 2699 4
4 2700 1
4 2701 5
4 2703 4
4 2704 3
4 2705 5
4 2706 9
4 2707 3
4 2708 5
4 2709 535
4 2710 1
4 2711 7
4 2712 6
4 2713 11
4 2714 3
4 2715 31
4 2716 3
4 2717 2
4 2718 2
4 2721 709
4 2722 3
4 2723 1455
4 2724 1
4 2725 1
4 2726 1
4 2727 4
4 2728 8079
4 2729 7
4 2730 227
4 2731 12
4 2732 4
4 2733 5
4 2734 444
4 2735 1328
4 2736 1
4 2737 311
4 2738 520
4 2739 5
4 2740 239
4 2741 14
4 2742 2
4 2743 2
4 2744 985
4 2745 784
4 2746 6
4 2747 3
4 2748 6
4 2749 4
4 2750 2
4 2751 3
4 2752 4
4 2753 5
4 2754 10
4 2755 3
4 2756 6
4 2757 3
4 2758 2
4 2759 8
4 2760 25
4 2761 141
4 2762 5
4 2763 12
4 2765 3
4 2767 5
4 2768 1
4 2769 5
4 2770 3
4 2771 6
4 2772 4
4 2773 3
4 2774 457
4 2776 4
4 2777 6
4 2778 3
4 2779 4
4 2781 4
4 2782 4
4 2783 1097
4 2784 3
4 2785 494
4 2786 1
4 2787 3
4 2788 1073
4 2789 4
4 2790 4
4 2791 6
4 2792 2
4 2793 5
4 2794 2
4 2795 9
4 2796 2
4 2797 7
4 2798 9
4 2799 5
4 2801 25
4 2802 619
4 2804 6
4 2805 4
4 2806 1
4 2807 5
4 2808 5
4 2809 2
4 2810 5
4 2811 2
4 2812 3
4 2813 1
4 2814 824
4 2815 2
4 2816 2
4 2817 5
4 2818 4
4 2819 3
4 2820 1192
4 2821 1
4 2822 4
4 2823 6
4 2824 2
4 2825 15
4 2826 2
4 2827 4
4 2828 4
4 2829 10
4 2830 3
4 2831 329
4 2832 651
4 2834 3
4 2835 1
4 2836 1
4 2837 10
4 2838 740
4 2839 994
4 2840 4
4 2841 780
4 2843 1
4 2844 5
4 2845 1030
4 2846 2
4 2847 5
4 2848 3
4 2849 5
4 2850 1
4 2851 1
4 2852 5
4 2853 4
4 2854 1
4 2855 5
4 2856 1
4 2857 8
4 2858 3
4 2859 7
4 2861 2
4 2862 7
4 2863 3
4 2864 315
4 2865 12
4 2866 5798
4 2867 1
4 2868 3
4 2869 6
4 2870 5
4 2871 2
4 2872 10
4 2873 715
4 2874 7
4 2875 13
4 2876 6
4 2877 1195
4 2878 9
4 2879 3
4 2880 3
4 2881 4
4 2882 1
4 2883 1
4 2884 9
4 2885 705
4 2887 2
4 2888 3
4 2889 5
4 2890 3
4 2891 1
4 2892 1
4 2893 286
4 2894 5
4 2895 6
4 2896 11
4 2897 3
4 2898 3
4 2899 5
4 2900 9
4 2901 6
4 2902 8
4 2903 4
4 2905 6
4 2906 5
4 2907 1
4 2908 2
4 2909 6
4 2910 3
4 2911 4
4 2912 2
4 2913 12
4 2914 2
4 2915 1
4 2916 12
4 2917 2
4 2919 2
4 2920 1111
4 2921 2
4 2923 2
4 2924 7
4 2925 4
4 2926 5
4 2927 139
4 2928 2
4 2929 1
4 2930 11
4 2931 4
4 2932 2
4 2933 455
4 2934 5
4 2935 2
4 2936 6
4 2937 3
4 2938 11
4 2939 4
4 2940 390
4 2941 5
4 2942 5
4 2943 901
4 2944 3
4 2946 1
4 2947 12
4 2948 5
4 2949 2
4 2950 137
4 2951 2
4 2952 2
4 2953 1
4 2954 2
4 2955 7
4 2956 800
4 2957 8
4 2958 227
4 2959 3
4 2960 2
4 2961 4
4 2962 6
4 2963 3
4 2964 3
4 2965 2
4 2966 4
4 2967 7
4 2968 1
4 2969 212
4 2970 7
4 2971 8
4 2972 208
4 2973 3
4 2974 3
4 2975 11
4 2976 6
4 2977 2
4 2978 1
4 2980 8
4 2981 4
4 2982 2
4 2983 742
4 2984 4
4 2985 3
4 2986 5
4 2987 4
4 2988 3
4 2989 275
4 2990 5
4 2991 3
4 2992 5
4 2993 3
4 2994 5
4 2995 375
4 2996 4
4 2997 4
4 2999 4
4 3000 6
4 3001 7
4 3003 2
4 3004 3
4 3005 5
4 3006 370
4 3008 5
4 3009 764
4 3010 4
4 3011 6
4 3012 11
4 3013 1
4 3014 3
4 3015 3
4 3016 3
4 3017 3
4 3018 3
4 3019 1
4 3021 7
4 3022 7
4 3023 587
4 3024 805
4 3025 1615
4 3026 16
4 3027 4
4 3028 5
4 3029 1
4 3030 322
4 3031 363
4 3032 8
4 3033 1
4 3034 2
4 3036 366
4 3037 1
4 3038 20
4 3039 2
4 3040 7
4 3041 3
4 3042 3
4 3043 8
4 3044 18
4 3045 2
4 3046 5
4 3047 258
4 3048 6
4 3049 5
4 3050 5
4 3051 4
4 3052 642
4 3053 3
4 3054 506
4 3055 5
4 3056 3
4 3057 7
4 3058 5
4 3059 5
4 3060 4
4 3061 2
4 3062 822
4 3063 6
4 3064 3
4 3065 3
4 3066 4
4 3067 4
4 3068 2
4 3069 2
4 3070 7
4 3071 900
4 3072 9
4 3073 4
4 3074 6
4 3076 1
4 3077 1
4 3078 5
4 3079 5
4 3080 3
4 3081 3
4 3083 6
4 3085 2
4 3087 4
4 3088 3
4 3090 416
4 3091 399
4 3092 3
4 3093 4
4 3094 6
4 3095 5
4 3096 5
4 3097 524
4 3098 3
4 3099 305
4 3100 5
4 3101 3
4 3102 289
4 3103 940
4 3105 4
4 3106 6
4 3107 5
4 3108 3
4 3109 3
4 3110 2
4 3111 1
4 3112 3
4 3113 7
4 3114 2
4 3116 3
4 3117 4
4 3118 4
4 3119 3
4 3120 2
4 3121 3
4 3122 3
4 3123 384
4 3124 4
4 3125 4
4 3126 2
4 3127 5
4 3128 6
4 3129 252
4 3130 4
4 3131 1
4 3132 4
4 3133 2
4 3135 655
4 3136 4
4 3137 2
4 3138 128
4 3139 7
4 3140 3
4 3141 1
4 3142 5
4 3143 8
4 3144 4
4 3145 3
4 3146 8
4 3147 801
4 3148 313
4 3149 6
4 3150 2
4 3151 1
4 3153 6
4 3154 5
4 3155 4
4 3156 5
4 3157 3
4 3158 7
4 3159 1
4 3160 10
4 3161 4
4 3162 3
4 3163 3
4 3165 4
4 3166 393
4 3167 4
4 3168 6
4 3169 781
4 3170 186
4 3171 17
4 3172 698
4 3173 1
4 3174 4
4 3175 2
4 3176 5
4 3178 3
4 3180 148
4 3182 11
4 3183 4
4 3184 3
4 3185 693
4 3186 750
4 3187 4
4 3188 9
4 3189 2
4 3190 373
4 3191 3
4 3192 5
4 3193 4
4 3194 4
4 3196 404
4 3197 2
4 3198 2
4 3199 2
4 3200 6
4 3201 4
4 3202 2
4 3203 2
4 3204 3
4 3205 11
4 3206 3
4 3207 7
4 3208 2
4 3209 5
4 3210 5
4 3212 8
4 3214 2
4 3215 4
4 3216 1
4 3217 9
4 3219 2
4 3220 1
4 3221 1
4 3222 697
4 3223 3
4 3224 2
4 3225 7
4 3226 5
4 3227 4
4 3229 1
4 3230 3
4 3231 1
4 3232 14
4 3233 5
4 3234 717
4 3236 1
4 3237 1
4 3238 4
4 3239 2
4 3240 1
4 3241 3
4 3242 794
4 3243 5
4 3244 3
4 3245 4
4 3246 3
4 3247 6
4 3248 463
4 3249 5
4 3250 827
4 3251 7
4 3252 4
4 3253 5
4 3254 7
4 3255 1
4 3257 4
4 3258 985
4 3259 15
4 3260 3
4 3261 7
4 3262 26
4 3263 2
4 3264 7
4 3265 302
4 3266 2
4 3267 3
4 3268 5
4 3269 8
4 3270 1
4 3271 3
4 3272 2
4 3273 10
4 3274 1
4 3275 3
4 3276 1
4 3277 2
4 3278 2
4 3279 2
4 3281 7
4 3282 752
4 3283 3
4 3284 5
4 3285 9
4 3286 6
4 3287 674
4 3288 9
4 3289 3
4 3290 689
4 3291 6
4 3292 1
4 3293 2
4 3294 200
4 3295 1
4 3296 3
4 3297 2
4 3298 3
4 3299 4
4 3300 1
4 3302 6
4 3303 1
4 3304 4
4 3305 594
4 3306 932
4 3307 5
4 3308 851
4 3310 4
4 3311 4
4 3312 5
4 3313 2
4 3314 1
4 3315 1
4 3316 1
4 3317 9
4 3319 5
4 3320 8
4 3321 1
4 3322 4
4 3323 156
4 3324 3
4 3325 6
4 3326 2
4 3327 5
4 3328 3
4 3329 3
4 3331 247
4 3332 7
4 3333 7
4 3334 426
4 3335 10
4 3336 2
4 3337 6
4 3338 1
4 3339 7
4 3340 404
4 3341 855
4 3342 4
4 3343 292
4 3344 4
4 3346 4
4 3347 464
4 3348 5
4 3349 7
4 3350 2
4 3351 2
4 3352 3
4 3353 2
4 3354 3
4 3355 2
4 3357 5
4 3358 3
4 3359 5
4 3360 3
4 3361 7
4 3362 4
4 3363 5
4 3364 5
4 3365 8
4 3366 1
4 3368 7
4 3369 5
4 3370 6
4 3371 3
4 3372 4
4 3373 26
4 3375 4
4 3376 12
4 3377 8
4 3378 3
4 3379 7
4 3380 3
4 3381 2
4 3382 2
4 3383 3
4 3384 3
4 3385 5
4 3386 2
4 3387 3
4 3388 1
4 3389 4
4 3390 579
4 3391 9
4 3392 483
4 3393 3
4 3394 313
4 3395 36
4 3396 2
4 3397 4
4 3398 21
4 3399 3
4 3400 12
4 3401 431
4 3402 2
4 3403 3
4 3404 6
4 3405 5
4 3406 2
4 3407 1
4 3408 2
4 3409 8
4 3410 1951
4 3413 4
4 3414 5
4 3415 4
4 3416 3
4 3417 8
4 3418 23
4 3419 1
4 3420 2
4 3421 12
4 3422 3
4 3423 4
4 3424 2
4 3425 56
4 3426 766
4 3427 1
4 3428 9
4 3429 3
4 3430 2
4 3431 7
4 3432 6
4 3433 629
4 3434 9
4 3436 4
4 3437 7
4 3438 3
4 3439 2
4 3440 2
4 3441 5
4 3442 7
4 3443 2
4 3444 48
4 3445 1
4 3446 1
4 3447 5
4 3448 4
4 3449 6
4 3450 1
4 3451 4
4 3452 2
4 3453 7
4 3454 3
4 3455 5
4 3457 7
4 3458 2
4 3459 6
4 3460 2
4 3461 465
4 3462 1
4 3463 796
4 3464 12
4 3465 3
4 3467 8
4 3468 6
4 3469 5
4 3470 2
4 3471 2
4 3472 735
4 3473 8
4 3474 75
4 3475 3
4 3476 3
4 3477 2
4 3478 1
4 3479 2
4 3481 2
4 3482 1
4 3483 8
4 3484 1
4 3485 1042
4 3486 9
4 3487 468
4 3489 3
4 3490 6
4 3492 6
4 3493 4
4 3494 8
4 3495 12
4 3496 8
4 3497 2
4 3498 1
4 3499 1
4 3500 10
4 3501 9
4 3502 5
4 3503 2
4 3504 981
4 3505 413
4 3506 1
4 3507 8
4 3508 510
4 3509 1
4 3510 3
4 3511 2
4 3512 2
4 3513 4
4 3514 715
4 3515 2
4 3516 3
4 3517 1
4 3518 7
4 3519 4
4 3520 892
4 3521 2
4 3522 6
4 3523 2
4 3524 3
4 3525 7
4 3526 3
4 3527 3
4 3528 530
4 3530 721
4 3531 1
4 3532 2
4 3533 419
4 3534 2
4 3535 2
4 3536 3
4 3537 280
4 3538 3
4 3539 181
4 3540 1063
4 3542 4
4 3543 8
4 3544 9
4 3545 4
4 3546 3
4 3547 2
4 3548 4
4 3549 326
4 3550 12
4 3552 3
4 3553 9
4 3554 2
4 3555 2
4 3556 8
4 3557 1
4 3558 2
4 3559 904
4 3560 2
4 3561 3
4 3562 1
4 3563 3
4 3565 4
4 3566 4
4 3567 3
4 3568 6
4 3569 7
4 3570 3
4 3571 3
4 3572 3
4 3573 1
4 3574 2
4 3575 3
4 3576 5
4 3577 6
4 3578 1
4 3579 4
4 3580 3
4 3581 3
4 3584 7
4 3586 5
4 3587 1
4 3588 1
4 3589 2
4 3590 3
4 3591 3
4 3592 4
4 3593 3
4 3594 325
4 3595 1
4 3596 969
4 3597 1535
4 3598 6
4 3599 2
4 3600 1
4 3601 479
4 3602 1
4 3603 559
4 3604 4
4 3605 4
4 3606 2251
4 3607 6
4 3608 4
4 3610 2
4 3611 4
4 3612 230
4 3613 4
4 3615 8
4 3616 5
4 3617 5
4 3618 161
4 3619 603
4 3620 560
4 3621 7
4 3622 8
4 3623 1
4 3624 5
4 3625 7
4 3626 3
4 3627 1
4 3628 1
4 3629 4
4 3630 808
4 3631 10
4 3632 3
4 3633 3
4 3634 802
4 3635 2333
4 3636 3
4 3637 277
4 3638 2
4 3639 1
4 3640 8
4 3641 3
4 3642 4
4 3643 1417
4 3644 7
4 3645 9
4 3646 9
4 3647 2
4 3648 3
4 3649 6
4 3650 4
4 3651 2
4 3652 2
4 3653 12
4 3654 2
4 3655 1
4 3656 4
4 3657 3
4 3658 5
4 3659 4
4 3660 7
4 3661 4
4 3662 3
4 3663 3
4 3664 6
4 3665 3
4 3666 2
4 3667 11
4 3668 1099
4 3669 4
4 3670 4
4 3671 597
4 3672 4
4 3673 2
4 3674 5
4 3675 300
4 3676 3
4 3677 352
4 3678 1
4 3679 4
4 3680 2
4 3681 7
4 3683 2
4 3684 4
4 3686 1
4 3688 3
4 3689 1
4 3690 3
4 3691 624
4 3692 9
4 3693 623
4 3694 4
4 3695 4
4 3696 9
4 3697 670
4 3698 364
4 3699 236
4 3700 7
4 3701 3
4 3703 8
4 3704 5
4 3705 5
4 3706 1
4 3707 7
4 3708 4
4 3709 411
4 3710 3
4 3711 2
4 3712 7
4 3713 4
4 3714 5
4 3715 4
4 3716 5
4 3717 3
4 3718 4
4 3719 2
4 3720 5
4 3721 2
4 3722 4
4 3723 570
4 3724 1
4 3725 4
4 3726 1
4 3728 7
4 3729 4
4 3730 5
4 3731 4
4 3732 1
4 3733 6
4 3734 1
4 3736 12
4 3737 1
4 3738 3
4 3739 1
4 3740 2
4 3741 2
4 3742 7
4 3743 4
4 3744 1
4 3745 3
4 3746 5
4 3747 4
4 3748 1
4 3749 1
4 3750 1
4 3751 4
4 3752 5
4 3753 3
4 3754 3
4 3755 4
4 3756 666
4 3757 4
4 3758 7
4 3759 2
4 3761 3
4 3762 2
4 3763 6
4 3764 5
4 3765 5
4 3766 8
4 3768 4
4 3769 2
4 3770 4
4 3771 2
4 3772 3
4 3773 1
4 3774 2
4 3775 3
4 3776 1
4 3777 3
4 3778 3
4 3779 5
4 3780 2
4 3781 1023
4 3782 4
4 3783 4
4 3784 11
4 3785 5
4 3786 2
4 3787 6
4 3788 457
4 3791 617
4 3792 1
4 3793 2
4 3795 1
4 3796 2
4 3797 552
4 3798 515
4 3799 4
4 3800 1
4 3801 2
4 3802 6
4 3803 5
4 3804 449
4 3806 12
4 3807 2
4 3808 5
4 3809 4
4 3810 2
4 3813 2
4 3814 416
4 3815 3
4 3816 7
4 3817 4
4 3818 968
4 3819 5
4 3820 3
4 3821 2
4 3822 2
4 3823 7
4 3824 2
4 3825 6
4 3826 3
4 3827 1
4 3828 296
4 3829 6
4 3830 32
4 3831 1647
4 3832 488
4 3834 4
4 3835 6
4 3836 249
4 3837 5
4 3838 1
4 3839 2
4 3840 5
4 3841 7
4 3842 2
4 3843 5
4 3845 3
4 3846 5
4 3847 2
4 3848 307
4 3849 3
4 3850 3
4 3851 4
4 3852 4
4 3853 4
4 3854 7
4 3855 3
4 3856 2
4 3857 7
4 3859 760
4 3861 1
4 3862 2
4 3863 6
4 3864 1
4 3865 2
4 3866 4
4 3867 2
4 3869 580
4 3870 4
4 3871 1
4 3872 411
4 3873 6
4 3874 1
4 3875 1
4 3876 1
4 3877 5
4 3878 755
4 3879 2
4 3880 5
4 3881 3
4 3882 3
4 3883 3
4 3884 5
4 3885 5
4 3886 4
4 3887 5
4 3888 1
4 3889 635
4 3890 282
4 3891 5
4 3892 325
4 3893 4
4 3894 6
4 3895 3
4 3896 4
4 3897 6
4 3898 6
4 3899 6
4 3900 2
4 3901 2
4 3902 157
4 3903 2
4 3904 862
4 3906 852
4 3907 2
4 3908 2
4 3909 2
4 3910 1
4 3911 5
4 3912 24
4 3913 514
4 3914 493
4 3915 3
4 3916 5
4 3917 4
4 3918 4
4 3919 7
4 3920 1
4 3921 4
4 3922 2
4 3923 569
4 3924 1467
4 3925 453
4 3926 6
4 3927 25
4 3928 7
4 3929 3
4 3930 3
4 3931 526
4 3932 3
4 3934 3
4 3935 2
4 3936 4
4 3937 7
4 3938 2
4 3939 5
4 3940 12
4 3941 2
4 3942 5
4 3943 1
4 3944 4
4 3946 3
4 3947 1
4 3948 4
4 3949 1025
4 3950 2
4 3951 4
4 3952 830
4 3953 5
4 3954 3
4 3955 6
4 3956 5
4 3957 12
4 3958 3
4 3959 2
4 3960 4
4 3961 2454
4 3962 5
4 3963 6
4 3964 719
4 3965 3
4 3966 5
4 3967 3
4 3968 3
4 3969 1
4 3970 8
4 3972 2
4 3973 2
4 3974 4
4 3975 2
4 3976 2
4 3977 7
4 3978 19
4 3979 6
4 3980 3
4 3981 3
4 3982 106
4 3983 730
4 3984 340
4 3985 5
4 3986 2
4 3987 12
4 3988 2
4 3989 3
4 3991 2
4 3992 3
4 3993 2
4 3994 5
4 3995 1
4 3996 11
4 3997 2
4 3998 5
4 3999 5
4 4000 2
4 4001 1
4 4002 4
4 4003 3
4 4004 54
4 4005 431
4 4006 5
4 4007 3
4 4008 4
4 4009 3
4 4010 69
4 4011 2
4 4012 2
4 4013 1
4 4014 901
4 4015 8
4 4016 7
4 4017 2
4 4018 2
4 4019 2
4 4020 6
4 4021 3
4 4022 6
4 4024 5
4 4025 6
4 4027 4
4 4028 1
4 4029 394
4 4030 4
4 4031 5
4 4032 3
4 4033 4
4 4034 5
4 4036 1
4 4037 3
4 4038 4
4 4039 2
4 4040 4
4 4041 3
4 4042 5
4 4043 2
4 4044 4
4 4045 1
4 4046 1
4 4047 21
4 4048 2
4 4049 4
4 4050 2
4 4051 1
4 4052 131
4 4053 2
4 4054 4
4 4055 5
4 4056 4
4 4057 2
4 4058 1
4 4059 2
4 4060 2
4 4061 3
4 4062 271
4 4063 1
4 4064 3
4 4065 4
4 4066 13
4 4068 1
4 4069 680
4 4070 2
4 4071 5
4 4072 4
4 4074 2
4 4075 644
4 4076 2
4 4077 2
4 4078 9
4 4080 2
4 4081 2
4 4082 2
4 4085 927
4 4086 895
4 4087 405
4 4088 536
4 4089 2
4 4090 6
4 4091 6
4 4092 436
4 4093 7
4 4094 2
4 4095 3
4 4096 2
4 4098 4
4 4099 1
4 4100 4
4 4101 214
4 4102 1
4 4103 348
4 4104 4
4 4105 7
4 4106 5
4 4107 3
4 4108 5
4 4109 2
4 4110 7
4 4111 4
4 4112 8
4 4113 6
4 4114 4
4 4115 4
4 4116 1
4 4117 1
4 4119 4
4 4120 2
4 4121 4
4 4122 1
4 4123 218
4 4124 1
4 4125 7
4 4126 6
4 4127 5
4 4128 8
4 4129 3
4 4130 1197
4 4132 5
4 4133 4
4 4134 5
4 4135 2
4 4136 4
4 4137 2185
4 4138 3
4 4139 1
4 4140 1
4 4141 351
4 4142 191
4 4143 8
4 4144 3
4 4145 5
4 4146 7
4 4147 3
4 4148 4
4 4149 6
4 4150 4
4 4152 7
4 4153 611
4 4154 2
4 4155 1
4 4156 5
4 4157 246
4 4158 2
4 4159 3
4 4160 13
4 4161 2
4 4162 3
4 4163 5
4 4164 2
4 4165 2
4 4166 411
4 4167 4
4 4168 575
4 4169 8
4 4170 283
4 4171 2
4 4172 813
4 4173 2
4 4174 4
4 4175 2
4 4177 2
4 4178 3
4 4179 960
4 4180 4
4 4181 4
4 4182 1
4 4183 3
4 4184 3
4 4185 6
4 4186 4
4 4187 1
4 4188 2
4 4189 1
4 4190 511
4 4191 17
4 4192 562
4 4193 2
4 4194 3
4 4195 2
4 4196 595
4 4197 3
4 4198 1
4 4199 2
4 4200 3
4 4201 8
4 4202 2
4 4203 7
4 4204 4
4 4205 8
4 4206 1
4 4207 4
4 4208 7
4 4209 4
4 4210 5
4 4211 40
4 4212 5
4 4213 3
4 4214 7
4 4215 2
4 4216 1
4 4217 1
4 4218 3
4 4219 3
4 4220 4
4 4221 227
4 4222 2
4 4223 2
4 4224 6
4 4225 6
4 4226 689
4 4227 205
4 4228 6
4 4229 2893
4 4230 4
4 4231 4
4 4232 3
4 4233 5
4 4234 1
4 4235 434
4 4236 4
4 4237 587
4 4238 8
4 4239 2
4 4240 861
4 4242 4
4 4243 3
4 4244 1
4 4245 5
4 4246 499
4 4247 761
4 4248 5
4 4249 1
4 4251 4
4 4252 2
4 4253 4
4 4254 8
4 4255 176
4 4257 1
4 4258 2
4 4259 3
4 4260 18
4 4261 3
4 4262 1
4 4263 1
4 4264 1
4 4265 5
4 4266 4
4 4267 2
4 4268 8
4 4269 4
4 4270 1
4 4271 3
4 4272 1
4 4273 5
4 4274 1
4 4275 561
4 4276 12
4 4277 4
4 4278 5
4 4279 2
4 4280 3
4 4281 391
4 4282 3
4 4283 3
4 4285 5
4 4286 6
4 4287 2
4 4288 1
4 4289 2
4 4290 1
4 4291 4
4 4292 2
4 4293 5
4 4294 2
4 4295 471
4 4296 7
4 4297 356
4 4298 5
4 4299 6
4 4300 2
4 4301 917
4 4302 861
4 4303 15
4 4305 1
4 4306 3
4 4307 5
4 4308 3
4 4309 6
4 4310 4
4 4311 7
4 4312 3
4 4313 7
4 4315 2
4 4316 701
4 4318 3
4 4319 5
4 4320 1
4 4321 4
4 4322 2
4 4323 3
4 4324 6
4 4325 13
4 4326 1
4 4327 2
4 4328 550
4 4329 2
4 4331 14
4 4332 4
4 4333 1
4 4334 3
4 4335 14
4 4338 905
4 4339 6
4 4340 2
4 4341 358
4 4342 2
4 4343 439
4 4344 3
4 4345 9
4 4346 509
4 4347 6
4 4348 2
4 4349 756
4 4350 433
4 4351 1
4 4352 2
4 4353 319
4 4354 746
4 4355 5
4 4356 8
4 4357 2
4 4358 2
4 4359 4
4 4360 2
4 4361 2
4 4362 2
4 4363 5
4 4365 3
4 4366 6
4 4367 6
4 4368 1
4 4369 1
4 4370 8
4 4372 485
4 4373 3
4 4374 8
4 4375 7
4 4376 1
4 4377 6
4 4378 11
4 4379 4
4 4380 3
4 4381 2552
4 4382 2
4 4383 5
4 4384 2
4 4385 6
4 4386 308
4 4387 5
4 4388 5
4 4389 3
4 4390 2
4 4391 7
4 4392 2
4 4393 3
4 4394 2
4 4395 3
4 4396 3
4 4397 286
4 4398 5
4 4399 5
4 4400 1
4 4401 421
4 4402 7
4 4403 1115
4 4404 936
4 4406 2
4 4407 1
4 4408 1
4 4409 1
4 4410 4
4 4413 4
4 4415 3
4 4416 11
4 4417 2
4 4418 276
4 4419 5
4 4420 4
4 4421 3
4 4422 7
4 4423 2
4 4424 3
4 4425 2
4 4426 1
4 4427 3
4 4428 2
4 4429 3
4 4430 2
4 4431 2
4 4432 399
4 4433 3
4 4434 4
4 4435 4
4 4436 6
4 4437 5
4 4438 5
4 4439 45
4 4440 614
4 4441 1
4 4442 5
4 4443 1
4 4444 266
4 4445 2
4 4446 4
4 4447 11
4 4448 2
4 4449 1
4 4450 4
4 4451 4
4 4452 6
4 4453 2
4 4454 321
4 4456 363
4 4457 4
4 4458 9
4 4460 2
4 4462 6
4 4463 2
4 4464 4
4 4466 2
4 4467 7
4 4468 2
4 4469 1
4 4470 2
4 4471 337
4 4472 2
4 4473 8
4 4474 4
4 4475 176
4 4477 8
4 4478 3
4 4479 3
4 4480 10
4 4481 2
4 4482 4
4 4483 6
4 4484 2
4 4486 660
4 4487 5
4 4488 6
4 4489 5
4 4490 3
4 4491 685
4 4492 4
4 4493 558
4 4494 7
4 4495 4
4 4496 3
4 4497 3
4 4498 5
4 4499 3
4 4500 4
4 4501 2
4 4502 4
4 4503 7
4 4504 3
4 4505 152
4 4506 805
4 4507 3
4 4508 4
4 4509 2
4 4510 1
4 4511 3
4 4512 3
4 4513 11
4 4514 3
4 4515 4
4 4516 5
4 4517 6
4 4519 2
4 4520 7
4 4521 2
4 4522 4
4 4523 2
4 4524 4
4 4525 5
4 4526 10
4 4527 4
4 4528 4
4 4529 104
4 4530 4
4 4531 2
4 4533 9
4 4536 6
4 4537 6
4 4538 371
4 4539 1
4 4540 7
4 4541 3
4 4542 6
4 4543 7
4 4544 2
4 4545 4
4 4546 510
4 4547 4
4 4548 4
4 4549 9
4 4550 1
4 4551 4
4 4552 3
4 4553 3
4 4554 6
4 4555 564
4 4556 1
4 4557 1
4 4558 4
4 4559 294
4 4560 3
4 4561 6
4 4562 10
4 4563 2
4 4564 5
4 4565 4
4 4566 7
4 4567 1
4 4568 5
4 4569 4
4 4570 15
4 4571 2
4 4572 2
4 4573 1385
4 4574 8
4 4575 1368
4 4576 5
4 4578 1
4 4579 1
4 4580 1
4 4582 5
4 4583 4
4 4584 4
4 4585 737
4 4586 347
4 4587 7
4 4588 5
4 4589 3
4 4590 5
4 4591 1
4 4592 5
4 4593 3
4 4594 2
4 4595 6
4 4596 1
4 4597 836
4 4598 3
4 4599 1
4 4600 3
4 4601 2
4 4602 2
4 4603 2
4 4604 1
4 4605 5
4 4606 350
4 4607 1
4 4608 6
4 4609 10
4 4610 6
4 4611 2
4 4612 11
4 4613 1
4 4614 4
4 4615 473
4 4617 3
4 4618 3
4 4619 3
4 4620 7
4 4621 2
4 4623 5
4 4624 3
4 4625 4
4 4626 169
4 4627 1
4 4628 545
4 4629 2235
4 4630 1
4 4631 6
4 4632 811
4 4633 7
4 4634 5
4 4635 6
4 4636 6
4 4637 365
4 4638 7
4 4639 1
4 4640 6
4 4641 4
4 4642 2
4 4643 2
4 4644 3
4 4645 3
4 4646 13
4 4647 848
4 4648 10
4 4650 5
4 4653 6
4 4654 3
4 4655 1
4 4657 4
4 4658 5
4 4659 3
4 4660 4
4 4661 1
4 4662 4
4 4663 4
4 4664 3
4 4665 5
4 4666 3
4 4667 7
4 4668 2
4 4669 5
4 4670 7
4 4671 3
4 4672 419
4 4673 4
4 4674 3
4 4675 2
4 4676 2
4 4678 996
4 4679 1
4 4680 8
4 4681 7
4 4683 8
4 4684 3
4 4685 1
4 4686 1
4 4687 1
4 4688 3
4 4689 2
4 4690 6
4 4691 5
4 4692 6
4 4693 4
4 4694 2
4 4696 3
4 4697 20
4 4698 5
4 4699 2
4 4702 356
4 4703 1929
4 4704 5
4 4705 7
4 4707 6
4 4708 11
4 4709 1
4 4711 3
4 4712 519
4 4714 3
4 4715 3
4 4716 2
4 4717 5
4 4718 815
4 4719 379
4 4720 4
4 4721 6
4 4722 2
4 4723 882
4 4724 6
4 4725 6
4 4726 1
4 4727 4
4 4728 2
4 4729 428
4 4730 4
4 4732 6
4 4734 4
4 4735 6
4 4736 1
4 4737 323
4 4738 5
4 4739 1
4 4740 4
4 4741 2
4 4743 4
4 4744 5
4 4745 1174
4 4746 7
4 4747 139
4 4749 1
4 4750 7
4 4752 625
4 4753 7
4 4754 5
4 4755 11
4 4756 3
4 4757 1
4 4758 13
4 4759 5
4 4760 4
4 4761 5
4 4762 468
4 4763 835
4 4764 7
4 4765 7
4 4767 5
4 4768 6
4 4769 2
4 4770 5
4 4771 4
4 4772 8
4 4773 4
4 4774 6
4 4775 2
4 4776 5
4 4777 915
4 4778 3
4 4779 2
4 4780 3
4 4781 3
4 4782 1
4 4785 6
4 4786 8
4 4787 5
4 4788 2
4 4789 3
4 4790 342
4 4791 2
4 4792 2
4 4793 3
4 4794 4
4 4795 3
4 4796 9
4 4797 4
4 4798 366
4 4799 5
4 4800 506
4 4801 3
4 4803 2
4 4804 6
4 4805 3
4 4806 638
4 4807 3
4 4809 9
4 4810 2
4 4811 3
4 4812 7
4 4813 6
4 4814 7
4 4815 7
4 4816 5
4 4817 8
4 4818 4
4 4819 3
4 4820 2
4 4821 4
4 4822 4
4 4823 2
4 4824 2
4 4825 3
4 4826 1
4 4827 3
4 4828 310
4 4829 3
4 4830 2
4 4831 4
4 4832 7
4 4834 1
4 4835 217
4 4836 988
4 4837 3
4 4838 13
4 4839 276
4 4840 5
4 4841 4
4 4842 4
4 4843 2
4 4844 5
4 4845 5
4 4846 9
4 4847 7
4 4848 4
4 4849 4
4 4850 1
4 4851 9
4 4852 2
4 4853 1
4 4854 3
4 4855 5
4 4856 5
4 4857 2
4 4858 479
4 4859 502
4 4860 3
4 4861 3
4 4862 7
4 4863 6
4 4864 2
4 4865 3
4 4867 2
4 4868 2
4 4869 8
4 4870 4
4 4871 877
4 4872 3
4 4873 2
4 4874 7
4 4875 8
4 4876 2
4 4878 3
4 4879 840
4 4880 5
4 4881 433
4 4882 15
4 4883 3
4 4884 4
4 4885 2
4 4887 2
4 4888 4
4 4889 3
4 4890 7
4 4891 6
4 4892 2
4 4893 1
4 4894 4
4 4895 1
4 4896 2
4 4897 1
4 4898 8
4 4900 1
4 4902 5
4 4903 4
4 4904 3
4 4905 312
4 4906 3
4 4907 1
4 4908 6
4 4909 7
4 4910 7
4 4911 2
4 4912 1
4 4913 10
4 4914 9
4 4915 3
4 4916 3
4 4917 2
4 4918 411
4 4919 6
4 4920 3
4 4921 2
4 4922 15
4 4923 1
4 4924 3
4 4925 3
4 4926 1
4 4927 6
4 4928 5
4 4929 2
4 4930 756
4 4931 1853
4 4932 7
4 4933 4
4 4934 2
4 4935 1
4 4936 1
4 4937 3
4 4939 2
4 4940 2
4 4941 2
4 4942 3
4 4943 1
4 4944 228
4 4945 2
4 4946 7
4 4947 5
4 4949 5
4 4951 4
4 4952 2
4 4954 6
4 4955 1
4 4956 317
4 4957 1
4 4958 2
4 4959 3
4 4960 4
4 4961 508
4 4962 2
4 4963 1
4 4964 3
4 4965 6
4 4966 1
4 4967 2
4 4968 2
4 4969 12
4 4970 4
4 4972 2
4 4973 1
4 4974 4
4 4975 4
4 4976 2
4 4977 9
4 4978 1
4 4979 2
4 4980 501
4 4981 8
4 4982 2
4 4984 1
4 4985 762
4 4986 2
4 4987 1
4 4989 2
4 4991 6
4 4992 4
4 4993 9
4 4996 505
4 4997 4
4 4998 2
4 4999 2
4 5000 3
4 5001 372
4 5002 4
4 5003 6
4 5004 1106
4 5005 2
4 5006 3
4 5007 3
4 5008 2
4 5011 2
4 5012 4
4 5013 3
4 5014 1
4 5016 2
4 5017 2
4 5018 1
4 5019 571
4 5020 4
4 5021 4
4 5022 9
4 5023 8
4 5025 5
4 5026 4
4 5027 6
4 5028 1
4 5029 979
4 5030 9
4 5032 4
4 5033 345
4 5034 2
4 5035 2
4 5036 10
4 5037 8
4 5038 2
4 5039 8
4 5040 2
4 5042 1
4 5043 6
4 5044 844
4 5045 6
4 5046 5
4 5048 7
4 5049 13
4 5050 5
4 5051 1
4 5052 2
4 5053 2
4 5054 4
4 5055 5
4 5056 3
4 5057 1
4 5058 3
4 5059 5
4 5060 1
4 5061 3
4 5062 2
4 5063 3
4 5064 2
4 5065 4
4 5066 7
4 5067 2
4 5068 1
4 5069 1
4 5070 10
4 5071 1
4 5072 1
4 5073 1
4 5074 658
4 5075 2
4 5076 18
4 5077 257
4 5078 2
4 5079 2
4 5080 3
4 5081 4
4 5084 3
4 5085 6
4 5086 3
4 5087 8
4 5088 3
4 5089 2
4 5090 1
4 5092 1551
4 5093 3
4 5094 4
4 5097 2
4 5098 4
4 5099 2
4 5100 16
4 5101 441
4 5102 1
4 5103 2
4 5104 313
4 5105 2
4 5106 1
4 5107 1
4 5108 89
4 5109 3
4 5110 3
4 5111 3
4 5112 2
4 5113 1
4 5116 4
4 5117 3
4 5118 2
4 5119 8
4 5120 1
4 5121 5
4 5122 3
4 5123 809
4 5124 3
4 5126 4
4 5127 2
4 5128 3
4 5129 6
4 5130 4
4 5131 4
4 5133 2
4 5134 2
4 5135 2
4 5136 7
4 5137 1
4 5139 2
4 5140 3
4 5141 2
4 5143 4
4 5144 1
4 5145 263
4 5146 288
4 5147 3
4 5148 1
4 5149 4
4 5150 5
4 5152 653
4 5153 3
4 5154 3
4 5156 11
4 5157 76
4 5158 10
4 5159 6
5 1 4
5 3 2
5 4 3
5 5 3
5 6 8
5 9 6
5 10 2
5 11 1
5 12 3
5 13 4
5 14 505
5 16 1
5 17 1
5 18 4
5 20 5
5 21 7
5 22 2
5 23 3
5 24 2
5 25 4
5 26 1
5 27 2
5 28 3
5 29 1
5 31 4
5 32 2
5 33 271
5 34 1
5 35 355
5 36 3
5 37 2
5 38 1
5 39 2
5 40 2
5 41 5
5 42 4
5 44 3
5 45 3
5 46 8
5 47 2
5 49 1
5 50 7
5 51 1
5 52 1
5 53 7
5 55 2
5 56 1
5 57 2
5 58 1
5 59 1
5 60 3
5 61 5
5 62 1
5 63 2
5 64 129
5 65 2
5 66 331
5 67 3
5 68 6
5 69 10
5 70 7
5 71 3
5 72 3
5 73 265
5 74 2
5 75 2
5 76 3
5 77 2
5 78 53
5 79 4
5 80 3
5 81 86
5 82 1
5 84 6
5 86 1
5 87 2
5 88 4
5 89 2
5 90 255
5 91 2
5 93 381
5 94 6
5 95 3
5 96 1
5 97 6
5 99 3
5 100 1
5 101 4
5 102 1
5 104 156
5 105 4
5 106 6
5 107 4
5 108 145
5 109 3
5 110 4
5 112 5
5 113 2
5 114 1
5 115 2
5 116 3
5 117 254
5 118 3
5 119 3
5 122 3
5 123 1
5 124 2
5 126 2
5 127 2
5 128 4
5 129 2
5 130 4
5 133 3
5 134 302
5 135 3
5 136 1
5 137 1
5 138 11
5 139 7
5 140 3
5 141 15
5 142 2
5 143 2
5 144 4
5 145 2
5 146 1
5 147 2
5 148 3
5 150 3
5 151 4
5 152 3
5 153 4
5 154 2
5 155 4
5 156 1
5 157 179
5 158 162
5 159 1
5 160 3
5 161 296
5 162 4
5 163 7
5 165 3
5 166 2
5 167 1
5 168 5
5 169 34
5 170 2
5 171 1
5 172 1
5 173 2
5 175 7
5 176 1
5 177 1
5 178 3
5 179 2
5 181 291
5 183 1
5 184 6
5 186 436
5 187 1
5 189 3
5 190 4
5 192 1
5 193 5
5 194 4
5 196 2
5 198 2
5 199 168
5 201 4
5 202 4
5 205 1
5 206 4
5 207 1
5 208 4
5 210 4
5 212 81
5 213 199
5 214 2
5 216 5
5 217 2
5 218 4
5 219 1
5 220 2
5 221 2
5 222 3
5 223 5
5 224 2
5 225 6
5 226 2
5 227 5
5 228 5
5 229 150
5 230 4
5 231 90
5 232 3
5 233 9
5 234 604
5 235 3
5 236 109
5 237 99
5 238 3
5 239 1
5 240 3
5 241 2
5 242 1
5 243 2
5 244 3
5 245 4
5 246 4
5 247 1
5 248 1
5 249 127
5 250 6
5 251 2
5 252 2
5 253 5
5 254 4
5 256 1
5 258 4
5 259 3
5 261 3
5 262 1
5 263 3
5 264 2
5 265 2
5 266 8
5 267 28
5 268 46
5 269 1
5 271 2
5 272 3
5 273 36
5 274 1
5 276 3
5 278 1
5 279 2
5 280 1
5 281 5
5 282 2
5 283 85
5 284 3
5 285 3
5 286 6
5 288 5
5 289 1
5 290 1
5 292 1
5 293 3
5 294 3
5 295 2
5 296 3
5 297 2
5 298 1
5 299 2
5 300 2
5 302 11
5 303 3
5 305 2
5 306 3
5 307 3
5 308 1
5 309 5
5 310 2
5 311 2
5 312 2
5 313 2
5 314 4
5 315 130
5 316 3
5 317 406
5 319 5
5 321 1
5 322 2
5 323 5
5 324 1
5 325 10
5 326 2
5 327 2
5 328 2
5 329 3
5 330 1
5 331 1
5 332 4
5 334 255
5 335 1
5 336 2
5 338 125
5 339 2
5 340 4
5 341 1
5 342 5
5 343 9
5 344 5
5 345 5
5 346 163
5 347 4
5 348 1
5 349 4
5 350 3
5 352 3
5 353 4
5 355 3
5 356 2
5 357 2
5 358 5
5 359 4
5 363 65
5 364 2
5 365 3
5 366 2
5 367 3
5 368 6
5 369 90
5 370 4
5 371 4
5 372 2
5 373 2
5 374 201
5 375 2
5 376 2
5 377 5
5 378 303
5 379 2
5 380 600
5 381 1
5 382 5
5 384 3
5 385 3
5 386 404
5 389 2
5 390 1
5 391 3
5 392 1
5 393 86
5 394 1
5 395 3
5 396 1
5 398 3
5 399 4
5 400 3
5 401 1
5 402 1
5 403 287
5 404 2
5 405 210
5 406 4
5 407 7
5 408 2
5 409 1
5 410 1
5 411 1
5 412 4
5 415 8
5 416 3
5 417 2
5 421 3
5 422 2
5 423 102
5 424 8
5 425 174
5 426 5
5 427 142
5 428 1
5 430 8
5 432 3
5 433 3
5 434 2
5 435 2
5 436 2
5 437 2
5 438 4
5 439 1
5 440 4
5 441 2
5 442 49
5 443 1
5 444 2
5 445 6
5 446 80
5 447 2
5 449 1
5 450 3
5 452 1
5 453 302
5 454 3
5 455 1
5 456 5
5 457 5
5 458 4
5 459 1
5 460 3
5 461 2
5 462 5
5 463 2
5 464 356
5 465 1
5 466 3
5 467 2
5 468 2
5 469 3
5 470 1
5 471 148
5 472 6
5 473 3
5 475 1
5 476 2
5 478 6
5 479 3
5 481 269
5 482 3
5 484 3
5 485 1
5 486 2
5 488 2
5 489 1
5 490 1
5 491 1
5 492 6
5 493 94
5 495 5
5 496 5
5 497 2
5 498 3
5 499 2
5 500 1
5 501 1
5 503 2997
5 504 237
5 505 1
5 506 1
5 507 3
5 508 2
5 509 2
5 510 2
5 511 4
5 513 9
5 514 3
5 515 4
5 516 399
5 517 2
5 518 2
5 519 1
5 520 5
5 521 4
5 522 4
5 523 4
5 524 6
5 525 2
5 526 119
5 527 6
5 528 7
5 529 4
5 530 4
5 531 1
5 532 2
5 533 1
5 535 3
5 537 120
5 538 4
5 539 6
5 540 334
5 541 1
5 542 7
5 543 3
5 544 1
5 545 1
5 547 1
5 548 3
5 550 4
5 551 3
5 552 2
5 553 3
5 554 4
5 555 6
5 556 3
5 557 1
5 558 2
5 560 3
5 561 1
5 562 3
5 563 3
5 564 2
5 565 3
5 566 67
5 567 152
5 568 3
5 569 2
5 570 3
5 571 2
5 572 1
5 573 69
5 574 3
5 575 1
5 576 1
5 577 2
5 578 1
5 580 1
5 581 4
5 583 2
5 584 1
5 586 2
5 587 178
5 588 2
5 589 26
5 590 3
5 591 2
5 592 2
5 593 3
5 594 2
5 595 108
5 596 9
5 598 3
5 600 2
5 601 3
5 602 2
5 604 1
5 605 3
5 606 5
5 607 2
5 608 2
5 609 3
5 610 395
5 611 1
5 612 2
5 613 5
5 614 187
5 615 1
5 616 4
5 619 289
5 620 2
5 621 4
5 622 3
5 623 2
5 624 3
5 626 3
5 627 2
5 628 72
5 629 2
5 630 2
5 631 6
5 632 175
5 633 5
5 634 2
5 635 4
5 636 2
5 637 1
5 638 1
5 639 227
5 640 1
5 642 2
5 643 69
5 644 2
5 645 82
5 646 4
5 647 1
5 648 2
5 649 2
5 650 4
5 651 2
5 652 1
5 653 1
5 654 4
5 655 1
5 656 2
5 657 2
5 658 1
5 659 918
5 660 2
5 661 1
5 662 4
5 663 3
5 664 4
5 665 2
5 666 3
5 667 4
5 668 2
5 669 1
5 670 1
5 671 80
5 673 2
5 674 1
5 675 3
5 676 4
5 677 2
5 678 2
5 679 2
5 680 270
5 681 170
5 682 323
5 683 58
5 684 5
5 685 1
5 686 230
5 687 1
5 688 1
5 689 2
5 690 5
5 691 1
5 693 4
5 694 3
5 695 7
5 696 3
5 697 22
5 698 1
5 699 97
5 701 3
5 703 1
5 704 1
5 705 3
5 706 1
5 707 3
5 708 7
5 709 24
5 710 5
5 711 3
5 712 2
5 714 114
5 715 3
5 716 2
5 717 1
5 718 88
5 719 2
5 720 2
5 721 1
5 722 5
5 723 1
5 724 1
5 725 120
5 726 1
5 727 2
5 728 3
5 729 6
5 730 4
5 731 196
5 732 4
5 733 420
5 734 1
5 735 3
5 736 4
5 738 4
5 739 127
5 740 2
5 741 5
5 742 98
5 743 3
5 744 4
5 745 1
5 746 1
5 748 2
5 749 3
5 750 2
5 751 2
5 753 256
5 754 2
5 755 1
5 756 1
5 757 5
5 758 3
5 759 4
5 760 2
5 761 3
5 762 2
5 763 5
5 764 1
5 765 4
5 766 4
5 767 338
5 768 4
5 769 2
5 770 1
5 771 2
5 772 5
5 773 6
5 774 7
5 775 2
5 776 3
5 777 6
5 778 3
5 779 1
5 780 1
5 781 3
5 782 1
5 783 1
5 784 3
5 788 3
5 789 1
5 790 2
5 791 1
5 792 438
5 793 5
5 794 106
5 797 3
5 798 6
5 799 2
5 800 4
5 801 1
5 802 1
5 803 6
5 804 3
5 805 7
5 806 2
5 807 3
5 808 50
5 809 4
5 810 269
5 811 176
5 812 1
5 813 1
5 814 3
5 815 60
5 816 3
5 817 3
5 818 4
5 819 79
5 820 2
5 821 2
5 822 4
5 823 4
5 824 4
5 825 4
5 826 1
5 827 3
5 828 2
5 829 3
5 830 4
5 831 2
5 832 102
5 834 4
5 835 2
5 837 1
5 838 2
5 839 2
5 841 6
5 842 4
5 843 7
5 844 1
5 845 3
5 847 201
5 849 2
5 850 3
5 851 3
5 852 3
5 853 4
5 854 2
5 855 105
5 856 4
5 857 2
5 858 2
5 859 1
5 860 186
5 861 1
5 862 3
5 864 2
5 865 352
5 867 3
5 868 3
5 869 70
5 871 4
5 872 4
5 873 4
5 874 1
5 875 1
5 876 1
5 877 281
5 878 2
5 879 1
5 880 1
5 881 1
5 882 5
5 883 3
5 884 590
5 885 9
5 886 1
5 887 2
5 888 3
5 889 3
5 890 5
5 892 3
5 893 4
5 894 2
5 895 80
5 896 1
5 897 104
5 898 97
5 899 10
5 900 6
5 904 4
5 906 3
5 907 7
5 909 3
5 910 6
5 911 4
5 912 1
5 913 1
5 914 1
5 915 2
5 916 226
5 917 2
5 918 3
5 920 7
5 921 4
5 922 2
5 923 4
5 924 4
5 926 4
5 928 1
5 929 3
5 931 159
5 932 1
5 933 2
5 934 4
5 935 4
5 936 4
5 937 1
5 939 2
5 940 138
5 941 3
5 943 4
5 944 274
5 945 3
5 946 1
5 947 4
5 949 3
5 950 1
5 951 1
5 952 3
5 953 2
5 954 5
5 955 2
5 956 4
5 957 2
5 961 4
5 962 14151
5 963 2
5 964 4
5 965 2
5 966 2
5 967 4
5 968 84
5 970 157
5 971 6
5 973 130
5 974 63
5 977 4
5 978 7
5 979 2
5 980 2
5 981 1
5 982 2
5 983 5
5 984 1
5 985 22
5 986 2
5 987 3
5 990 2
5 992 1
5 993 5
5 994 1
5 995 3
5 996 56
5 997 3
5 998 3
5 999 3
5 1001 1
5 1002 5
5 1003 173
5 1004 291
5 1005 2
5 1006 369
5 1007 3
5 1008 2
5 1009 6
5 1010 4
5 1011 1
5 1012 2
5 1013 213
5 1014 1
5 1015 3
5 1017 3
5 1018 55
5 1019 2
5 1020 1
5 1022 1
5 1023 1
5 1024 330
5 1025 303
5 1028 2
5 1029 1
5 1030 3
5 1031 3
5 1032 2
5 1033 2
5 1034 1
5 1035 4
5 1036 1
5 1037 1
5 1038 3
5 1039 3
5 1041 3
5 1042 114
5 1044 5
5 1045 100
5 1046 3
5 1047 1
5 1050 3
5 1051 2
5 1052 3
5 1053 385
5 1054 1
5 1055 430
5 1056 2
5 1057 203
5 1058 3
5 1059 6
5 1060 1
5 1061 4
5 1062 3
5 1063 313
5 1064 1
5 1065 2
5 1066 2
5 1067 2
5 1069 5
5 1070 6
5 1072 1
5 1073 1
5 1076 1
5 1077 1
5 1079 2
5 1080 183
5 1081 2
5 1082 4
5 1083 372
5 1084 4
5 1085 4
5 1086 2
5 1087 2
5 1088 1
5 1089 8
5 1090 2
5 1091 147
5 1092 117
5 1093 5
5 1094 132
5 1096 3
5 1097 1
5 1099 4
5 1100 1
5 1101 2
5 1102 2
5 1103 250
5 1104 1
5 1105 3
5 1106 1
5 1107 1
5 1108 2
5 1109 4
5 1110 1
5 1111 3
5 1112 2
5 1113 3
5 1114 2
5 1115 1
5 1116 3
5 1117 1
5 1118 6
5 1119 4
5 1120 5
5 1121 4
5 1122 31
5 1123 3
5 1124 2
5 1125 4
5 1126 2
5 1127 125
5 1128 6
5 1129 3
5 1130 4
5 1131 2
5 1132 3
5 1133 4
5 1134 10
5 1135 2
5 1136 1
5 1137 3
5 1138 2
5 1139 2
5 1140 1
5 1141 1
5 1142 4
5 1143 1
5 1144 2
5 1146 3
5 1147 2
5 1148 4
5 1149 3
5 1150 3
5 1151 4
5 1152 5
5 1153 3
5 1154 3
5 1155 1
5 1156 3
5 1162 4
5 1163 2
5 1164 6
5 1165 323
5 1166 5
5 1168 3
5 1169 171
5 1171 6
5 1173 3
5 1174 1
5 1175 5
5 1176 6
5 1177 132
5 1179 4
5 1180 1
5 1181 426
5 1182 1
5 1183 207
5 1184 2
5 1185 2
5 1186 5
5 1187 1
5 1188 4
5 1189 252
5 1190 1
5 1191 1
5 1192 3
5 1193 5
5 1194 6
5 1195 4
5 1196 1
5 1197 4
5 1198 6
5 1199 151
5 1204 2
5 1205 250
5 1206 1
5 1207 4
5 1209 8
5 1210 2
5 1211 166
5 1215 2
5 1216 3
5 1217 178
5 1218 3
5 1220 235
5 1221 76
5 1223 74
5 1224 2
5 1225 3
5 1226 43
5 1227 2
5 1228 4
5 1229 450
5 1230 5
5 1232 4
5 1233 2
5 1234 1
5 1235 3
5 1236 6
5 1237 5
5 1238 2
5 1239 31
5 1240 1
5 1241 3
5 1242 3
5 1243 4
5 1244 3
5 1245 2
5 1246 30
5 1247 1
5 1248 4
5 1249 354
5 1250 2
5 1252 173
5 1253 1
5 1254 3
5 1255 2
5 1256 1
5 1257 208
5 1258 1
5 1259 2
5 1260 3
5 1261 3
5 1262 7
5 1263 4
5 1264 2
5 1265 1
5 1266 4
5 1267 6
5 1268 1
5 1270 2
5 1271 2
5 1272 2
5 1273 3
5 1274 1
5 1275 2
5 1276 2
5 1277 2
5 1278 5
5 1279 1
5 1280 3
5 1281 3
5 1282 5
5 1283 3
5 1284 4
5 1285 472
5 1286 38
5 1287 1
5 1288 170
5 1289 3
5 1290 68
5 1291 4
5 1292 2
5 1293 3
5 1294 3
5 1295 2
5 1297 4
5 1298 2
5 1299 2
5 1300 3
5 1301 796
5 1302 1
5 1303 2
5 1304 3
5 1305 1
5 1306 2
5 1308 2
5 1309 3
5 1310 1
5 1311 2
5 1312 5
5 1314 81
5 1315 4
5 1316 56
5 1318 3
5 1319 5
5 1320 2
5 1321 4
5 1322 1
5 1323 3
5 1324 2
5 1325 2
5 1326 1
5 1327 2
5 1328 5
5 1329 1
5 1330 2
5 1331 1
5 1332 300
5 1334 122
5 1335 1
5 1336 5
5 1337 6
5 1338 5
5 1339 33
5 1340 3
5 1341 3
5 1342 3
5 1343 5
5 1344 3
5 1346 6
5 1348 5
5 1350 5
5 1351 230
5 1352 72
5 1356 12
5 1357 2
5 1359 3
5 1360 1
5 1361 1
5 1362 24
5 1363 2
5 1366 6
5 1367 2
5 1368 64
5 1369 2
5 1370 174
5 1373 7
5 1374 1
5 1375 3
5 1376 2
5 1377 3
5 1378 4
5 1379 83
5 1380 1
5 1382 1
5 1383 5
5 1385 4
5 1386 6
5 1388 5
5 1389 2
5 1390 114
5 1391 6
5 1392 3
5 1393 1
5 1394 495
5 1395 1
5 1396 6
5 1397 5
5 1398 158
5 1399 4
5 1400 7
5 1401 1
5 1402 1
5 1403 3
5 1404 211
5 1405 2
5 1406 10
5 1408 2
5 1409 4
5 1410 4
5 1411 2
5 1413 1
5 1414 249
5 1415 2
5 1416 2
5 1417 680
5 1418 6
5 1419 3
5 1420 281
5 1421 4
5 1422 1
5 1423 4
5 1424 1
5 1425 2
5 1426 116
5 1428 2
5 1430 3
5 1431 1
5 1432 1
5 1433 108
5 1434 1
5 1435 2
5 1436 510
5 1438 1
5 1439 3
5 1440 5
5 1441 1
5 1442 1
5 1443 2
5 1444 1
5 1445 6
5 1446 497
5 1447 2
5 1448 1
5 1449 93
5 1451 6
5 1452 3
5 1453 4
5 1454 6
5 1455 3
5 1456 2
5 1457 2
5 1458 450
5 1459 649
5 1460 2
5 1461 1
5 1462 49
5 1463 1
5 1466 3
5 1468 2
5 1469 5
5 1470 3
5 1471 7
5 1472 275
5 1473 2
5 1474 1
5 1475 2
5 1476 1
5 1477 4
5 1479 1
5 1480 113
5 1481 2
5 1482 616
5 1483 1
5 1484 3
5 1485 151
5 1487 1
5 1488 3
5 1490 4
5 1491 302
5 1492 5
5 1493 7
5 1494 2
5 1495 6
5 1496 346
5 1497 3
5 1498 3
5 1500 317
5 1502 2
5 1504 2
5 1505 415
5 1506 2
5 1507 5
5 1508 3
5 1510 12
5 1511 130
5 1514 3
5 1515 2
5 1516 4
5 1517 111
5 1518 4
5 1519 2
5 1520 1
5 1521 2
5 1522 3
5 1523 3
5 1524 2
5 1525 3
5 1526 3
5 1527 3
5 1528 5
5 1529 5
5 1530 2
5 1531 3
5 1532 5
5 1533 4
5 1534 89
5 1535 1
5 1536 1
5 1537 2
5 1538 342
5 1539 8
5 1540 3
5 1541 6
5 1542 1
5 1544 27
5 1545 121
5 1546 2
5 1547 2
5 1548 2
5 1550 1
5 1552 1
5 1553 6
5 1554 3
5 1555 2
5 1556 2
5 1557 2
5 1558 1
5 1560 4
5 1561 1
5 1562 185
5 1564 10
5 1565 5
5 1566 2
5 1567 1
5 1568 4
5 1569 2
5 1570 177
5 1571 4
5 1572 1
5 1573 2
5 1575 3
5 1576 6
5 1577 2
5 1578 3
5 1579 4
5 1580 8
5 1581 2
5 1582 2
5 1583 3
5 1584 2
5 1585 4
5 1586 189
5 1587 271
5 1588 5
5 1589 2
5 1590 238
5 1591 1
5 1593 92
5 1594 4
5 1595 4
5 1596 1
5 1597 4
5 1598 1
5 1599 2
5 1600 1
5 1601 1
5 1602 4
5 1603 3
5 1605 2
5 1606 2
5 1607 2
5 1608 1
5 1611 3
5 1612 1
5 1613 1
5 1614 2
5 1617 2
5 1619 362
5 1621 2
5 1622 209
5 1623 1
5 1625 2
5 1626 4
5 1627 274
5 1628 3
5 1629 3
5 1630 5
5 1631 2
5 1632 283
5 1633 6
5 1634 1
5 1635 4
5 1636 2
5 1637 1
5 1638 2
5 1640 8
5 1642 12
5 1643 3
5 1644 4
5 1645 1
5 1646 1
5 1647 2
5 1648 3
5 1649 9
5 1650 11
5 1651 3
5 1652 2
5 1653 2
5 1654 3
5 1655 4
5 1656 1
5 1657 6
5 1658 3
5 1659 2
5 1660 2
5 1661 279
5 1662 329
5 1664 1
5 1665 2
5 1666 2
5 1667 4
5 1668 6
5 1669 1
5 1670 2
5 1671 1
5 1672 2
5 1673 2
5 1674 5
5 1675 6
5 1676 5
5 1677 4
5 1678 3
5 1679 8
5 1680 1
5 1681 9
5 1683 3
5 1684 3
5 1685 311
5 1686 4
5 1687 6
5 1688 2
5 1690 3
5 1691 3
5 1692 2
5 1693 3
5 1694 2
5 1695 184
5 1699 5
5 1700 1
5 1701 1
5 1702 3
5 1703 2
5 1704 2
5 1705 1
5 1706 3
5 1707 3
5 1709 3
5 1711 2
5 1712 1
5 1713 21
5 1714 4
5 1715 3
5 1716 1
5 1717 3
5 1718 1
5 1719 54
5 1720 5
5 1721 153
5 1722 3
5 1724 3
5 1725 84
5 1726 201
5 1728 2
5 1729 1
5 1730 3
5 1731 4
5 1733 2
5 1734 4
5 1737 1
5 1738 2
5 1739 41
5 1740 2
5 1742 1
5 1743 3
5 1744 2
5 1745 108
5 1747 3
5 1748 197
5 1749 4
5 1750 2
5 1752 3
5 1753 251
5 1754 12
5 1755 226
5 1756 5
5 1757 661
5 1758 4
5 1759 3
5 1760 2
5 1761 4
5 1762 1
5 1763 241
5 1764 3
5 1765 3
5 1766 3
5 1767 138
5 1768 1
5 1769 1
5 1770 2
5 1771 3
5 1772 2
5 1773 1
5 1774 4
5 1775 3
5 1777 3
5 1778 2
5 1779 3
5 1780 1
5 1781 125
5 1783 5
5 1784 364
5 1785 3
5 1787 198
5 1788 6
5 1790 4
5 1791 3
5 1792 4
5 1793 3
5 1794 2
5 1795 2
5 1796 5
5 1797 4
5 1799 5
5 1800 2
5 1801 170
5 1802 2
5 1803 1
5 1804 6
5 1805 3
5 1807 1
5 1809 1
5 1810 2
5 1811 3
5 1812 1
5 1813 1
5 1814 3
5 1815 1
5 1816 6
5 1817 3
5 1818 139
5 1819 4
5 1821 2
5 1822 1
5 1823 416
5 1824 3
5 1825 4
5 1826 3
5 1827 93
5 1828 1
5 1829 5
5 1830 2
5 1831 3
5 1832 402
5 1833 1
5 1835 2
5 1836 2
5 1837 2
5 1838 192
5 1839 1
5 1840 3
5 1841 3
5 1842 1
5 1843 1
5 1844 56
5 1847 2
5 1848 1
5 1849 3
5 1850 19
5 1851 68
5 1852 2
5 1853 3
5 1854 1
5 1855 3
5 1856 382
5 1857 3
5 1858 3
5 1859 3
5 1861 4
5 1862 4
5 1863 2
5 1864 4
5 1865 1
5 1866 1
5 1867 3
5 1868 402
5 1869 1
5 1870 1
5 1871 3
5 1872 2
5 1874 2
5 1875 2
5 1876 290
5 1877 2
5 1878 2
5 1879 2
5 1881 2
5 1882 1
5 1884 1
5 1885 1
5 1886 6
5 1887 1
5 1889 47
5 1890 2
5 1891 1
5 1892 2
5 1893 2
5 1894 3
5 1895 2
5 1896 256
5 1897 2
5 1901 1
5 1902 1
5 1903 1
5 1904 3
5 1906 7
5 1907 3
5 1909 1
5 1910 6
5 1911 1
5 1913 5
5 1914 6
5 1915 65
5 1916 2
5 1917 3
5 1918 3
5 1919 3
5 1920 1
5 1921 2
5 1922 114
5 1923 1
5 1924 3
5 1925 2
5 1926 5
5 1927 1
5 1928 3
5 1929 1
5 1930 2
5 1931 1
5 1932 7
5 1933 2
5 1934 2
5 1935 2
5 1936 119
5 1937 3
5 1938 1
5 1939 3
5 1940 2
5 1941 4
5 1942 2
5 1943 1
5 1944 2
5 1945 2
5 1946 3
5 1947 1
5 1948 5
5 1949 5
5 1950 3
5 1951 1
5 1952 1
5 1954 253
5 1955 3
5 1956 1
5 1957 2
5 1962 4
5 1963 1
5 1964 2
5 1965 4
5 1966 5
5 1968 5
5 1969 2
5 1970 1
5 1971 1
5 1972 12
5 1973 3
5 1974 1
5 1975 7
5 1977 1
5 1978 2
5 1979 6
5 1981 2
5 1982 101
5 1983 3
5 1984 3
5 1985 5
5 1986 1
5 1987 1
5 1988 1
5 1989 1
5 1990 2
5 1991 57
5 1992 2
5 1993 1
5 1995 4
5 1996 1
5 1997 1
5 1998 1
5 1999 3
5 2000 4
5 2001 4
5 2002 158
5 2003 536
5 2004 332
5 2005 7
5 2006 1
5 2007 6
5 2008 177
5 2009 3
5 2011 1
5 2012 4
5 2013 4
5 2014 2
5 2015 3
5 2016 2
5 2017 2
5 2018 2
5 2020 109
5 2021 8
5 2022 4
5 2023 1
5 2024 2
5 2025 1
5 2026 2
5 2028 3
5 2029 1
5 2030 202
5 2032 1
5 2033 1
5 2034 4
5 2035 1
5 2036 1
5 2037 1
5 2038 2
5 2039 2
5 2040 1
5 2041 2
5 2042 2
5 2043 3
5 2044 3
5 2045 3
5 2046 1
5 2047 1
5 2048 2
5 2049 3
5 2051 1
5 2052 2
5 2053 3
5 2054 5
5 2055 3
5 2056 2
5 2057 8
5 2058 1
5 2059 1
5 2060 2
5 2061 2
5 2062 91
5 2063 1
5 2064 1
5 2065 2
5 2066 48
5 2067 4
5 2068 3
5 2069 169
5 2070 3
5 2071 3
5 2072 1
5 2073 2
5 2074 3
5 2075 1
5 2077 61
5 2078 1
5 2080 1
5 2081 6
5 2082 4
5 2083 1
5 2084 3
5 2085 3
5 2088 1
5 2089 5
5 2090 122
5 2091 3
5 2093 5
5 2094 3
5 2095 2
5 2096 153
5 2097 2
5 2098 3
5 2100 4
5 2101 4
5 2102 2
5 2103 2
5 2104 1
5 2105 3
5 2107 1
5 2108 3
5 2110 4
5 2111 2
5 2112 3
5 2113 1
5 2114 1
5 2116 3
5 2117 3
5 2118 3
5 2120 1
5 2121 1
5 2123 3
5 2125 2
5 2126 3
5 2127 1
5 2129 1
5 2130 3
5 2132 1
5 2133 176
5 2134 5
5 2135 2
5 2136 3
5 2137 92
5 2139 6
5 2140 1
5 2146 3
5 2147 4
5 2148 98
5 2149 2
5 2150 1
5 2151 2
5 2153 4
5 2154 79
5 2155 1
5 2156 1
5 2157 3
5 2158 2
5 2160 1
5 2161 3
5 2162 2
5 2163 3
5 2164 99
5 2166 1
5 2167 103
5 2168 3
5 2169 3
5 2170 3
5 2173 1
5 2174 427
5 2175 2
5 2176 3
5 2177 2
5 2178 1
5 2179 2
5 2180 1
5 2181 1
5 2184 2
5 2185 2
5 2187 3
5 2188 3
5 2189 1
5 2191 157
5 2192 86
5 2193 738
5 2194 1
5 2195 4
5 2196 3
5 2197 3
5 2198 2
5 2199 153
5 2200 6
5 2201 2
5 2202 2
5 2203 2
5 2205 3
5 2206 1
5 2208 1
5 2209 1
5 2210 1
5 2211 1
5 2212 273
5 2213 2
5 2214 233
5 2215 2
5 2216 3
5 2217 1
5 2218 2
5 2219 2
5 2220 3
5 2221 1
5 2222 1
5 2223 2
5 2224 2
5 2225 1
5 2226 58
5 2227 3
5 2229 5
5 2230 146
5 2231 1
5 2232 1
5 2233 2
5 2235 1
5 2236 1
5 2237 2
5 2239 3
5 2240 2
5 2241 1
5 2242 4
5 2243 123
5 2244 3
5 2245 2
5 2246 187
5 2247 2
5 2248 23
5 2249 3
5 2250 4
5 2251 1
5 2252 1
5 2254 377
5 2255 1
5 2256 3
5 2257 2
5 2258 1
5 2259 240
5 2260 3
5 2262 111
5 2263 3
5 2264 137
5 2265 4
5 2266 3
5 2267 5
5 2269 2
5 2270 4
5 2271 37
5 2273 3
5 2274 3
5 2275 2
5 2276 3
5 2277 6
5 2278 1
5 2279 2
5 2280 3
5 2281 113
5 2284 1
5 2286 1
5 2287 6
5 2288 3
5 2289 2
5 2290 1
5 2291 25
5 2292 2
5 2293 1
5 2294 2
5 2295 3
5 2296 3
5 2297 18
5 2298 1
5 2299 6
5 2300 1
5 2301 52
5 2302 4
5 2303 11
5 2306 7
5 2307 1
5 2308 1
5 2309 1
5 2310 1
5 2311 1
5 2312 1
5 2313 1
5 2314 4
5 2315 5
5 2317 2
5 2320 1
5 2321 3
5 2322 2
5 2324 2
5 2325 5
5 2326 2
5 2328 1
5 2329 4
5 2330 7
5 2331 5
5 2332 5
5 2333 3
5 2334 3
5 2335 4
5 2336 4
5 2337 4
5 2338 3
5 2339 2
5 2340 2
5 2341 4
5 2342 2
5 2343 6
5 2344 2
5 2348 4
5 2349 3
5 2350 3
5 2351 1
5 2353 8
5 2354 158
5 2355 1
5 2356 3
5 2357 4
5 2358 47
5 2359 2
5 2360 1
5 2361 257
5 2362 141
5 2363 1
5 2364 1
5 2365 1
5 2366 1
5 2367 2
5 2368 1
5 2369 1
5 2370 4
5 2371 153
5 2372 3
5 2373 1
5 2374 2
5 2375 2
5 2376 50
5 2377 3
5 2378 3
5 2379 2
5 2380 3
5 2381 3
5 2382 2
5 2383 2
5 2385 4
5 2386 2
5 2387 2
5 2388 2
5 2390 3
5 2391 2
5 2392 3
5 2393 3
5 2394 4
5 2396 5
5 2397 2
5 2398 3
5 2399 1
5 2400 3
5 2401 5
5 2402 402
5 2403 2
5 2404 1
5 2405 3
5 2406 166
5 2407 3
5 2408 4
5 2409 5
5 2410 7
5 2411 3
5 2413 4
5 2414 1
5 2415 2
5 2416 2
5 2418 2
5 2420 2
5 2421 2
5 2422 1
5 2423 2
5 2424 2
5 2425 1
5 2426 25
5 2427 335
5 2428 179
5 2429 3
5 2430 2
5 2431 4
5 2432 4
5 2433 8
5 2434 2
5 2435 4
5 2436 110
5 2438 1
5 2439 63
5 2440 2
5 2442 3
5 2443 2
5 2444 3
5 2445 2
5 2446 284
5 2447 1
5 2448 8
5 2449 3
5 2450 1
5 2451 3
5 2452 2
5 2453 61
5 2454 1
5 2455 1
5 2457 1
5 2458 1
5 2459 3
5 2460 397
5 2461 1
5 2462 316
5 2463 2
5 2464 6
5 2465 2
5 2466 7
5 2467 1
5 2469 2
5 2470 1
5 2471 1
5 2473 2
5 2474 1
5 2475 57
5 2476 2
5 2477 104
5 2478 3
5 2479 3
5 2480 2
5 2481 1
5 2482 3
5 2483 489
5 2484 4
5 2485 6
5 2486 58
5 2487 1
5 2488 335
5 2489 1
5 2490 4
5 2491 2
5 2492 3
5 2493 5
5 2494 308
5 2495 2
5 2496 4
5 2497 6
5 2498 80
5 2499 7
5 2500 1
5 2501 1
5 2502 2
5 2503 5
5 2505 19
5 2506 118
5 2507 2
5 2508 3
5 2509 42
5 2510 1
5 2511 4
5 2512 1
5 2513 3
5 2514 4
5 2515 2
5 2517 3
5 2518 3
5 2519 2
5 2520 103
5 2521 1
5 2522 4
5 2523 7
5 2524 2
5 2525 2
5 2527 5
5 2528 7
5 2530 2
5 2531 1
5 2532 140
5 2533 1
5 2534 2
5 2535 2
5 2536 10
5 2537 7
5 2538 2
5 2539 1
5 2540 4
5 2541 1
5 2543 6
5 2544 2
5 2546 2
5 2547 4
5 2548 2
5 2549 4
5 2550 5
5 2552 2
5 2553 1
5 2554 3
5 2555 3
5 2556 1
5 2557 3
5 2558 1
5 2559 3
5 2560 2
5 2561 1
5 2562 2
5 2563 2
5 2564 4
5 2565 3
5 2566 2
5 2567 2
5 2568 2
5 2569 4
5 2570 230
5 2571 2
5 2572 55
5 2573 295
5 2574 2
5 2575 2
5 2576 1
5 2577 156
5 2578 5
5 2579 1
5 2581 2
5 2582 3
5 2583 5
5 2584 2
5 2586 2
5 2587 5
5 2588 3
5 2589 91
5 2590 1
5 2592 1
5 2593 9
5 2594 2
5 2595 1
5 2596 1
5 2597 3
5 2598 2
5 2600 2
5 2601 2
5 2602 334
5 2603 4
5 2604 2
5 2605 2
5 2606 4
5 2607 4
5 2608 4
5 2610 2
5 2611 2
5 2612 4
5 2613 5
5 2614 3
5 2615 3
5 2616 2
5 2617 5
5 2618 194
5 2619 2
5 2620 6
5 2621 6
5 2622 1
5 2623 6
5 2624 1
5 2625 3
5 2626 1
5 2627 2
5 2628 1
5 2629 7
5 2630 4
5 2631 66
5 2632 4
5 2633 255
5 2634 2
5 2636 3
5 2637 3
5 2638 2
5 2639 240
5 2640 144
5 2642 3
5 2643 2
5 2644 7
5 2645 177
5 2646 3
5 2647 332
5 2648 2
5 2649 4
5 2651 2
5 2652 1
5 2653 2
5 2654 3
5 2655 301
5 2656 1
5 2658 3
5 2659 1
5 2661 3
5 2662 1
5 2663 3
5 2664 1
5 2665 4
5 2666 3
5 2667 3
5 2668 35
5 2669 2
5 2670 2
5 2671 4
5 2672 1
5 2673 2100
5 2674 4
5 2676 1
5 2678 35
5 2679 2
5 2680 2
5 2681 2
5 2682 1
5 2684 2
5 2685 2
5 2687 2
5 2688 3
5 2689 1
5 2690 3
5 2691 208
5 2692 2
5 2693 2
5 2698 2
5 2699 2
5 2700 2
5 2701 88
5 2703 2
5 2704 3
5 2705 4
5 2706 1
5 2707 1
5 2708 240
5 2709 2
5 2710 2
5 2711 1
5 2712 192
5 2713 1
5 2714 3
5 2715 2
5 2716 2
5 2717 2
5 2718 1
5 2719 2
5 2721 2
5 2722 2
5 2723 1
5 2724 123
5 2725 1
5 2726 3
5 2727 2
5 2728 1
5 2729 3
5 2730 1
5 2731 3
5 2732 372
5 2733 5
5 2734 1
5 2735 3
5 2737 4
5 2739 2
5 2740 103
5 2741 1
5 2742 4
5 2743 3
5 2745 2
5 2746 3
5 2747 1
5 2748 2
5 2749 2
5 2750 1
5 2751 3
5 2753 6
5 2754 7
5 2755 5
5 2756 3
5 2757 4
5 2758 2
5 2759 3
5 2760 2
5 2761 2
5 2762 182
5 2763 4
5 2765 2
5 2767 1
5 2768 27
5 2769 2
5 2770 324
5 2771 2
5 2772 5
5 2773 4
5 2774 10
5 2776 3
5 2777 263
5 2778 303
5 2779 2
5 2780 4
5 2783 2
5 2784 10
5 2785 4
5 2786 95
5 2787 3
5 2788 3
5 2789 8
5 2790 242
5 2791 1
5 2792 2
5 2793 35
5 2794 1
5 2795 4
5 2796 4
5 2797 2
5 2798 2
5 2799 1
5 2800 3
5 2801 5
5 2802 2
5 2803 228
5 2804 492
5 2805 4
5 2806 90
5 2807 5
5 2808 5
5 2809 2
5 2810 3
5 2811 3
5 2812 3
5 2813 2
5 2814 1
5 2815 5
5 2816 432
5 2817 83
5 2818 3
5 2819 98
5 2820 2
5 2821 2
5 2822 1
5 2823 1
5 2825 3
5 2827 2
5 2828 134
5 2829 3
5 2830 7
5 2831 3
5 2832 8
5 2833 65
5 2834 1
5 2835 5
5 2836 3
5 2837 1
5 2838 4
5 2839 2
5 2840 1
5 2841 3
5 2843 2
5 2845 3
5 2846 3
5 2848 3
5 2851 1
5 2852 3
5 2853 3
5 2854 8
5 2855 3
5 2856 2
5 2857 1
5 2858 2
5 2859 337
5 2861 1
5 2862 2
5 2863 1
5 2864 2
5 2865 2
5 2866 3
5 2868 3
5 2869 1
5 2870 333
5 2871 1
5 2872 1
5 2873 2
5 2874 2
5 2875 7
5 2876 2
5 2877 1
5 2878 3
5 2879 1
5 2880 3
5 2881 3
5 2882 1
5 2883 2
5 2884 286
5 2885 3
5 2887 1
5 2888 1
5 2889 5
5 2890 2
5 2891 1
5 2894 378
5 2895 4
5 2896 273
5 2897 3
5 2898 2
5 2899 39
5 2900 5
5 2901 2
5 2902 5
5 2903 2
5 2905 3
5 2907 4
5 2908 2
5 2910 1
5 2911 2
5 2912 4
5 2913 285
5 2914 1
5 2915 2
5 2916 3
5 2917 2
5 2918 3
5 2919 3
5 2920 1
5 2921 1
5 2923 3
5 2925 1
5 2926 3
5 2927 1
5 2928 4
5 2929 191
5 2930 214
5 2931 419
5 2932 6
5 2933 28
5 2934 6
5 2935 1
5 2936 5
5 2937 1
5 2938 1
5 2939 3
5 2940 1
5 2941 2
5 2942 3
5 2943 2
5 2944 2
5 2945 1
5 2946 2
5 2947 1
5 2948 236
5 2950 3
5 2951 2
5 2952 3
5 2953 3
5 2955 66
5 2956 7
5 2957 343
5 2958 3
5 2959 3
5 2960 2
5 2961 1
5 2962 4
5 2963 2
5 2964 7
5 2965 4
5 2966 7
5 2967 5
5 2969 2
5 2970 7
5 2971 3
5 2972 3
5 2973 2
5 2974 2
5 2975 3
5 2976 2
5 2977 2
5 2978 5
5 2980 1
5 2981 66
5 2982 3
5 2983 3
5 2984 2
5 2985 2
5 2986 6
5 2987 3
5 2988 98
5 2989 1
5 2990 3
5 2991 3
5 2992 9
5 2994 2
5 2995 1
5 2996 2
5 2997 254
5 2999 1
5 3000 3
5 3004 1
5 3005 4
5 3006 3
5 3008 3
5 3009 1
5 3010 3
5 3011 5
5 3012 5
5 3014 3
5 3015 5
5 3016 3
5 3017 3
5 3018 5
5 3019 4
5 3021 8
5 3022 338
5 3023 6
5 3024 4
5 3025 4
5 3026 1
5 3027 123
5 3028 599
5 3029 132
5 3030 2
5 3031 6
5 3032 368
5 3033 4
5 3034 297
5 3035 1
5 3036 1
5 3037 2
5 3038 8
5 3039 3
5 3040 6
5 3041 4
5 3042 2
5 3043 3
5 3044 5
5 3045 1
5 3046 1
5 3047 1
5 3048 3
5 3049 3
5 3050 2
5 3051 2
5 3052 2
5 3053 18
5 3054 2
5 3055 1
5 3056 151
5 3057 5
5 3058 5
5 3059 3
5 3060 11
5 3061 1
5 3062 4
5 3064 1
5 3065 5
5 3066 2
5 3067 2
5 3068 2
5 3069 6
5 3070 3
5 3071 2
5 3073 4
5 3074 3
5 3075 3
5 3076 362
5 3077 86
5 3078 8
5 3079 4
5 3080 2
5 3081 5
5 3083 1
5 3084 2
5 3085 2
5 3087 3
5 3088 2
5 3089 3
5 3090 2
5 3091 1
5 3092 3
5 3093 3
5 3094 2
5 3095 7
5 3096 1
5 3097 2
5 3098 1
5 3099 1
5 3101 1
5 3102 3
5 3103 1
5 3104 3
5 3105 1
5 3107 4
5 3108 2
5 3109 2
5 3110 1
5 3111 3
5 3112 129
5 3113 8
5 3114 18
5 3115 1
5 3116 4
5 3117 4
5 3118 1
5 3119 2
5 3120 4
5 3121 123
5 3122 2
5 3123 4
5 3124 2
5 3125 2
5 3126 3
5 3127 1
5 3128 2
5 3130 2
5 3132 3
5 3133 4
5 3135 9
5 3136 2
5 3137 3
5 3138 2
5 3139 1
5 3140 1
5 3141 4
5 3142 2
5 3143 4
5 3144 219
5 3145 4
5 3146 3
5 3147 1
5 3148 4
5 3149 3
5 3150 1
5 3151 5
5 3152 3
5 3153 1
5 3154 1
5 3155 1
5 3156 373
5 3157 4
5 3158 1
5 3159 7
5 3160 7
5 3161 2
5 3162 2
5 3163 4
5 3165 6
5 3166 1
5 3167 1
5 3168 4
5 3169 2
5 3170 2
5 3171 108
5 3172 3
5 3173 2
5 3175 109
5 3176 1
5 3177 41
5 3178 1
5 3180 2
5 3181 3
5 3182 2
5 3183 3
5 3185 2
5 3186 2
5 3187 2
5 3188 5
5 3189 1
5 3191 3
5 3192 1
5 3193 2
5 3194 3
5 3195 32
5 3197 3
5 3198 3
5 3199 1
5 3200 2
5 3201 1
5 3202 1
5 3203 1
5 3204 244
5 3205 2
5 3206 45
5 3207 7
5 3208 1
5 3210 2
5 3211 111
5 3212 3
5 3213 1
5 3214 81
5 3215 4
5 3217 550
5 3218 3
5 3219 4
5 3220 1
5 3221 5
5 3222 3
5 3224 1
5 3225 2
5 3226 3
5 3227 3
5 3229 1
5 3230 1
5 3231 1
5 3233 1
5 3234 2
5 3236 4
5 3237 7
5 3239 3
5 3240 284
5 3241 2
5 3242 1
5 3243 5
5 3244 141
5 3245 2
5 3246 6
5 3247 3
5 3249 49
5 3250 1
5 3251 5
5 3252 6
5 3253 2
5 3254 4
5 3255 1
5 3256 5
5 3257 3
5 3259 8
5 3260 3
5 3261 4
5 3262 2
5 3264 1
5 3265 3
5 3266 71
5 3267 1
5 3268 6
5 3269 2
5 3271 2
5 3272 1
5 3273 5
5 3274 3
5 3275 1
5 3276 3
5 3277 2
5 3278 1
5 3279 253
5 3281 2
5 3282 3
5 3283 2
5 3284 4
5 3285 1
5 3286 34
5 3287 7
5 3288 6
5 3289 2
5 3290 3
5 3291 2
5 3292 53
5 3294 2
5 3295 2
5 3296 356
5 3297 8
5 3298 4
5 3299 2
5 3300 2
5 3302 1
5 3303 300
5 3304 61
5 3307 3
5 3308 1
5 3310 4
5 3311 2
5 3312 4
5 3313 1
5 3314 2
5 3315 4
5 3316 69
5 3317 1
5 3319 3
5 3321 1
5 3322 346
5 3323 2
5 3325 39
5 3326 2
5 3327 3
5 3328 5
5 3329 3
5 3331 3
5 3332 1
5 3333 3
5 3334 7
5 3335 8
5 3336 1
5 3337 1
5 3338 1
5 3339 1
5 3340 4
5 3341 2
5 3342 3
5 3343 2
5 3344 3
5 3345 1
5 3346 1
5 3347 6
5 3348 5
5 3350 2
5 3352 3
5 3353 15
5 3354 3
5 3355 1
5 3356 3
5 3357 2
5 3358 4
5 3359 17
5 3360 395
5 3361 1
5 3362 3
5 3363 3
5 3364 3
5 3365 3
5 3366 3
5 3367 3
5 3368 1
5 3369 3
5 3370 3
5 3371 5
5 3372 4
5 3373 2
5 3374 2
5 3375 3
5 3376 1
5 3377 5
5 3378 270
5 3379 2
5 3381 1
5 3382 2
5 3383 3
5 3384 5
5 3385 1
5 3386 621
5 3387 9
5 3388 875
5 3389 4
5 3391 3
5 3392 1
5 3393 432
5 3394 5
5 3395 144
5 3396 1
5 3397 1
5 3398 2
5 3399 2
5 3400 1
5 3401 3
5 3402 2
5 3403 3
5 3404 4
5 3405 5
5 3406 86
5 3407 3
5 3408 2
5 3409 4
5 3410 5
5 3411 40
5 3413 3
5 3414 2
5 3415 4
5 3416 7
5 3417 8
5 3418 3
5 3419 251
5 3420 347
5 3421 5
5 3422 5
5 3423 5
5 3424 2
5 3426 4
5 3427 1
5 3428 7
5 3429 4
5 3430 2
5 3431 4
5 3432 1
5 3433 1
5 3434 1
5 3435 3
5 3437 6
5 3438 3
5 3439 2
5 3440 240
5 3441 2
5 3442 2
5 3443 2
5 3444 7
5 3445 3
5 3446 3
5 3448 381
5 3449 3
5 3450 3
5 3451 1
5 3453 4
5 3454 1
5 3455 1
5 3458 4
5 3459 1
5 3460 2
5 3461 2
5 3462 156
5 3463 3
5 3464 1
5 3465 3
5 3466 1
5 3467 4
5 3468 2
5 3469 4
5 3470 1
5 3471 1
5 3473 2
5 3474 3
5 3475 4
5 3477 235
5 3478 3
5 3479 2
5 3481 1
5 3482 3
5 3483 2
5 3484 297
5 3485 2
5 3486 117
5 3487 3
5 3489 4
5 3490 2
5 3491 2
5 3492 233
5 3493 1
5 3494 3
5 3495 1
5 3496 5
5 3497 3
5 3498 2
5 3499 2
5 3500 5
5 3502 6
5 3503 102
5 3504 5
5 3506 2
5 3507 1
5 3508 4
5 3509 1
5 3511 1
5 3512 4
5 3513 5
5 3514 3
5 3515 3
5 3516 3
5 3517 4
5 3518 2
5 3520 2
5 3521 2
5 3523 5
5 3525 3
5 3526 3
5 3527 44
5 3530 1
5 3531 343
5 3532 3
5 3533 4
5 3534 1
5 3535 3
5 3536 1
5 3537 3
5 3538 3
5 3539 4
5 3540 2
5 3542 5
5 3543 1
5 3544 5
5 3545 1
5 3546 240
5 3547 410
5 3548 5
5 3549 3
5 3550 5
5 3552 1
5 3553 4
5 3554 1
5 3556 3
5 3557 6
5 3558 257
5 3560 2
5 3561 1
5 3562 3
5 3563 3
5 3564 3
5 3566 2
5 3567 3
5 3568 14
5 3569 1
5 3570 1
5 3572 1
5 3574 46
5 3575 97
5 3576 1
5 3577 2
5 3578 2
5 3579 3
5 3580 2
5 3581 1
5 3583 2
5 3584 3
5 3586 3
5 3587 5
5 3588 3
5 3589 4
5 3591 1
5 3592 2
5 3593 1
5 3594 4
5 3595 74
5 3597 3
5 3598 99
5 3600 4
5 3601 1
5 3602 4
5 3603 3
5 3604 2
5 3605 3
5 3606 3
5 3607 52
5 3608 4
5 3609 3
5 3610 3
5 3611 1
5 3612 4
5 3613 3
5 3614 1
5 3615 3
5 3616 4
5 3617 3
5 3619 3
5 3620 5
5 3621 5
5 3622 1
5 3623 114
5 3624 5
5 3625 4
5 3626 237
5 3627 152
5 3628 1
5 3629 1
5 3630 2
5 3631 3
5 3632 2
5 3633 2
5 3634 22
5 3635 1
5 3636 1
5 3638 92
5 3639 2
5 3640 554
5 3641 2
5 3643 4
5 3645 4
5 3646 3
5 3647 298
5 3648 1
5 3649 1
5 3650 1
5 3651 2
5 3652 2
5 3653 2
5 3654 1
5 3655 2
5 3656 1
5 3657 1
5 3658 3
5 3659 5
5 3660 1
5 3661 1
5 3662 270
5 3663 114
5 3664 2
5 3665 2
5 3666 3
5 3667 7
5 3668 3
5 3669 1
5 3670 3
5 3671 3
5 3672 3
5 3673 2
5 3674 8
5 3675 3
5 3676 2
5 3677 3
5 3678 1
5 3679 334
5 3680 3
5 3681 17
5 3682 3
5 3684 3
5 3686 396
5 3689 3
5 3690 3
5 3691 5
5 3692 3
5 3693 3
5 3694 2
5 3695 2
5 3696 3
5 3697 3
5 3698 2
5 3699 5
5 3700 1
5 3701 84
5 3703 487
5 3704 185
5 3705 1
5 3706 4
5 3707 10
5 3708 3
5 3709 3
5 3710 235
5 3711 239
5 3712 2
5 3713 1
5 3714 2
5 3715 3
5 3716 1
5 3717 49
5 3718 1
5 3719 3
5 3720 6
5 3721 323
5 3722 2
5 3723 4
5 3724 3
5 3725 2
5 3726 273
5 3727 189
5 3728 3
5 3729 3
5 3730 2
5 3731 2
5 3732 74
5 3733 3
5 3734 136
5 3735 3
5 3736 274
5 3737 1
5 3739 2
5 3740 4
5 3741 3
5 3742 2
5 3743 1
5 3744 108
5 3745 3
5 3746 9
5 3747 3
5 3748 2
5 3751 1
5 3752 6
5 3753 1
5 3754 6
5 3755 6
5 3756 2
5 3757 3
5 3758 5
5 3759 3
5 3761 106
5 3762 4
5 3763 85
5 3764 2
5 3765 4
5 3766 217
5 3767 1
5 3768 1
5 3769 1
5 3770 1
5 3771 1
5 3773 3
5 3774 2
5 3775 368
5 3776 37
5 3777 63
5 3778 7
5 3779 3
5 3780 2
5 3781 4
5 3782 3
5 3783 4
5 3784 1
5 3785 2
5 3786 1
5 3787 1
5 3788 5
5 3790 5
5 3791 1
5 3792 2
5 3794 1
5 3795 5
5 3797 4
5 3799 1
5 3802 70
5 3803 1
5 3804 63
5 3806 2
5 3807 1
5 3808 2
5 3809 58
5 3810 3
5 3812 4
5 3813 2
5 3814 2
5 3815 2
5 3817 1
5 3818 3
5 3820 3
5 3822 2
5 3823 1
5 3824 1
5 3826 3
5 3827 4
5 3828 5
5 3829 164
5 3830 4
5 3831 3
5 3832 1
5 3834 152
5 3836 1
5 3837 5
5 3839 2
5 3840 3
5 3841 3
5 3842 1
5 3845 3
5 3846 1
5 3847 2
5 3848 3
5 3849 2
5 3850 3
5 3851 3
5 3852 2
5 3853 3
5 3854 4
5 3855 3
5 3856 5
5 3859 15
5 3861 3
5 3862 2
5 3863 3
5 3864 1
5 3865 7
5 3866 2
5 3867 5
5 3869 2
5 3870 4
5 3871 2
5 3872 3
5 3873 3
5 3874 4
5 3875 5
5 3876 2
5 3877 3
5 3878 2
5 3880 2
5 3881 3
5 3882 417
5 3883 6
5 3884 7
5 3885 2
5 3886 1
5 3887 4
5 3888 3
5 3889 2
5 3890 1
5 3891 5
5 3892 1
5 3893 5
5 3894 1
5 3895 2
5 3897 3
5 3898 2
5 3899 2
5 3900 2
5 3901 1
5 3902 3
5 3903 3
5 3904 2
5 3905 2
5 3906 2
5 3907 45
5 3908 4
5 3909 3
5 3910 1
5 3911 1
5 3912 7
5 3913 2
5 3914 3
5 3915 2
5 3916 2
5 3917 2
5 3918 316
5 3919 1
5 3920 230
5 3921 5
5 3922 116
5 3923 1
5 3924 2
5 3925 2
5 3926 12
5 3927 1
5 3928 2
5 3929 133
5 3930 1
5 3931 7
5 3932 281
5 3934 3
5 3936 1
5 3937 6
5 3939 4
5 3940 5
5 3941 3
5 3942 301
5 3943 4
5 3944 4
5 3945 135
5 3946 5
5 3947 370
5 3948 3
5 3949 3
5 3950 1
5 3951 2
5 3952 1
5 3953 98
5 3954 2
5 3955 318
5 3956 2
5 3957 3
5 3958 1
5 3959 2
5 3960 2
5 3961 2
5 3962 2
5 3963 1
5 3964 1
5 3965 3
5 3966 6
5 3967 13
5 3968 116
5 3969 289
5 3970 4
5 3972 2
5 3973 4
5 3975 2
5 3976 1
5 3978 3
5 3980 8
5 3981 4
5 3982 1
5 3983 2
5 3984 5
5 3986 28
5 3987 5
5 3988 2
5 3989 59
5 3990 1
5 3991 1
5 3992 2
5 3993 2
5 3994 2
5 3996 3
5 3997 2
5 3998 5
5 3999 1
5 4000 1
5 4001 1
5 4002 4
5 4003 1
5 4004 2
5 4005 68
5 4006 1
5 4007 1
5 4008 7
5 4009 2
5 4010 1
5 4011 2
5 4012 6
5 4013 1
5 4014 4
5 4015 1
5 4016 1
5 4018 1
5 4019 4
5 4020 2
5 4021 5
5 4022 4
5 4023 393
5 4024 1
5 4025 3
5 4028 220
5 4031 9
5 4032 1
5 4033 4
5 4035 2
5 4036 2
5 4037 1
5 4038 2
5 4039 3
5 4040 3
5 4041 4
5 4042 4
5 4043 3
5 4044 4
5 4045 2
5 4046 1
5 4047 3
5 4048 4
5 4049 5
5 4050 433
5 4051 3
5 4052 1
5 4053 3
5 4054 3
5 4056 1
5 4057 4
5 4058 3
5 4059 2
5 4060 2
5 4062 2
5 4063 143
5 4064 1
5 4065 1
5 4066 1
5 4068 2
5 4069 2
5 4070 4
5 4071 1
5 4072 5
5 4074 2
5 4075 2
5 4076 27
5 4077 1
5 4078 5
5 4079 1
5 4080 89
5 4081 267
5 4082 2
5 4086 3
5 4088 1
5 4089 3
5 4090 355
5 4091 349
5 4092 6
5 4093 84
5 4094 1
5 4095 1
5 4096 40
5 4097 3
5 4098 1
5 4099 1
5 4100 1
5 4101 1
5 4102 279
5 4103 1
5 4104 1
5 4105 4
5 4106 1
5 4107 5
5 4108 2
5 4109 2
5 4110 3
5 4111 346
5 4112 2
5 4113 3
5 4115 2
5 4116 4
5 4117 3
5 4119 1
5 4120 3
5 4121 1
5 4122 3
5 4123 5
5 4124 5
5 4125 172
5 4126 1
5 4127 1
5 4128 7
5 4129 3
5 4130 2
5 4131 110
5 4132 5
5 4133 3
5 4134 3
5 4135 269
5 4137 2
5 4138 78
5 4139 198
5 4140 1
5 4141 2
5 4143 3
5 4144 3
5 4145 3
5 4146 87
5 4147 1
5 4148 9
5 4149 6
5 4150 3
5 4152 3
5 4153 1
5 4154 2
5 4155 1
5 4156 6
5 4157 4
5 4159 7
5 4160 3
5 4161 143
5 4163 1
5 4164 1
5 4165 3
5 4166 3
5 4167 3
5 4168 1
5 4169 1
5 4170 3
5 4172 4
5 4173 1
5 4174 2
5 4175 1
5 4176 42
5 4177 1
5 4178 4
5 4179 2
5 4180 173
5 4181 6
5 4182 2
5 4183 3
5 4185 2
5 4186 1
5 4187 1
5 4188 1
5 4189 2
5 4190 1
5 4191 4
5 4193 3
5 4194 206
5 4195 2
5 4196 1
5 4197 2
5 4198 1
5 4199 2
5 4200 1
5 4201 6
5 4202 3
5 4203 3
5 4204 193
5 4205 100
5 4206 1
5 4207 1
5 4209 8
5 4210 2
5 4211 2
5 4212 171
5 4213 2
5 4215 3
5 4216 262
5 4218 1
5 4219 330
5 4220 1
5 4221 281
5 4222 5
5 4224 3
5 4225 1
5 4226 1
5 4227 2
5 4228 4
5 4229 8
5 4230 2
5 4231 3
5 4232 5
5 4233 4
5 4234 1
5 4235 3
5 4236 2
5 4237 3
5 4238 1
5 4239 178
5 4240 3
5 4242 70
5 4243 3
5 4244 2
5 4245 7
5 4246 3
5 4247 3
5 4248 2
5 4249 176
5 4252 2
5 4253 4
5 4254 3
5 4257 2
5 4259 2
5 4260 2
5 4261 1
5 4262 3
5 4263 1
5 4264 1
5 4265 4
5 4266 2
5 4267 6
5 4268 3
5 4269 1
5 4270 4
5 4271 2
5 4272 3
5 4273 1
5 4274 3
5 4275 1
5 4276 4
5 4277 3
5 4278 2
5 4279 1
5 4280 3
5 4282 2
5 4283 4
5 4285 3
5 4286 1
5 4287 1
5 4288 197
5 4289 1
5 4290 362
5 4291 2
5 4292 154
5 4293 109
5 4294 1
5 4296 1
5 4297 1
5 4298 1
5 4299 325
5 4300 2
5 4301 5
5 4302 1
5 4303 8
5 4305 6
5 4306 7
5 4307 5
5 4308 2
5 4309 3
5 4310 4
5 4311 10
5 4312 1
5 4313 4
5 4315 4
5 4316 1
5 4318 78
5 4319 202
5 4321 1
5 4322 1
5 4323 1
5 4324 2
5 4325 361
5 4326 3
5 4327 3
5 4328 4
5 4329 118
5 4331 3
5 4332 565
5 4333 3
5 4334 5
5 4335 5
5 4338 2
5 4339 3
5 4340 47
5 4342 2
5 4343 2
5 4344 4
5 4345 6
5 4346 1
5 4347 1
5 4348 2
5 4349 5
5 4350 1
5 4351 257
5 4352 7
5 4353 1
5 4354 7
5 4355 3
5 4356 2
5 4357 1
5 4358 7
5 4359 19
5 4360 2
5 4361 2
5 4362 1
5 4363 4
5 4365 5
5 4368 1
5 4369 1
5 4370 1
5 4371 29
5 4373 3
5 4374 2
5 4375 2
5 4376 3
5 4377 3
5 4378 4
5 4379 358
5 4380 2
5 4381 1
5 4382 1
5 4383 7
5 4384 3
5 4385 347
5 4386 244
5 4387 3
5 4388 3
5 4389 2
5 4390 2
5 4391 59
5 4392 3
5 4393 1
5 4395 1
5 4396 10
5 4397 3
5 4398 2
5 4399 4
5 4400 1
5 4402 2
5 4403 4
5 4404 1
5 4406 13
5 4408 1
5 4409 2
5 4410 1
5 4413 109
5 4415 3
5 4416 8
5 4417 1
5 4418 1
5 4419 248
5 4420 286
5 4422 3
5 4423 1
5 4424 1
5 4425 5
5 4426 2
5 4427 2
5 4428 1
5 4429 3
5 4430 4
5 4431 1
5 4432 2
5 4433 4
5 4434 46
5 4435 2
5 4436 126
5 4437 2
5 4438 6
5 4439 2
5 4440 1
5 4441 1
5 4442 3
5 4443 6
5 4444 1
5 4445 2
5 4446 3
5 4447 13
5 4448 92
5 4449 3
5 4450 1
5 4451 1
5 4452 3
5 4453 107
5 4455 1
5 4456 1
5 4457 3
5 4458 2
5 4460 2
5 4462 1
5 4463 1
5 4466 6
5 4467 1
5 4469 3
5 4470 5
5 4473 5
5 4474 5
5 4475 7
5 4476 230
5 4477 4
5 4478 12
5 4479 4
5 4480 8
5 4481 1
5 4482 3
5 4483 2
5 4484 1
5 4485 114
5 4486 2
5 4487 2
5 4488 2
5 4489 7
5 4490 3
5 4491 3
5 4492 7
5 4493 3
5 4494 9
5 4495 5
5 4496 6
5 4497 3
5 4498 1
5 4499 34
5 4500 3
5 4501 1
5 4502 1
5 4503 107
5 4504 4
5 4505 2
5 4507 31
5 4508 3
5 4509 4
5 4510 57
5 4511 4
5 4512 7
5 4513 51
5 4514 3
5 4515 1
5 4516 2
5 4518 1
5 4519 212
5 4521 2
5 4522 2
5 4523 4
5 4524 3
5 4526 2
5 4527 3
5 4528 337
5 4529 1
5 4530 4
5 4531 1
5 4532 3
5 4533 135
5 4534 2
5 4536 2
5 4537 1
5 4538 3
5 4539 4
5 4540 361
5 4541 6
5 4542 2
5 4543 262
5 4544 1
5 4546 2
5 4547 1
5 4548 2
5 4549 4
5 4550 125
5 4551 3
5 4553 1
5 4554 70
5 4555 2
5 4556 1
5 4557 1
5 4558 2
5 4559 1
5 4560 1
5 4562 3
5 4563 181
5 4564 4
5 4565 1
5 4567 1
5 4568 1
5 4569 5
5 4570 2
5 4571 1
5 4572 5
5 4573 3
5 4574 2
5 4575 7
5 4576 4
5 4578 2
5 4579 3
5 4580 2
5 4582 47
5 4583 2
5 4584 2
5 4585 3
5 4586 1
5 4587 1
5 4588 2
5 4589 4
5 4590 3
5 4591 3
5 4592 1
5 4593 3
5 4595 2
5 4596 2
5 4597 2
5 4598 259
5 4600 2
5 4601 154
5 4602 2
5 4603 4
5 4605 2
5 4606 4
5 4607 1
5 4609 7
5 4610 2
5 4611 3
5 4612 1
5 4613 1
5 4614 3
5 4615 1
5 4616 1
5 4617 4
5 4618 1
5 4620 3
5 4621 6
5 4624 2
5 4626 2
5 4629 2
5 4631 73
5 4632 1
5 4633 3
5 4634 3
5 4635 228
5 4637 3
5 4638 1
5 4639 618
5 4640 3
5 4641 4
5 4642 4
5 4643 1
5 4644 4
5 4645 305
5 4647 1
5 4648 3
5 4650 4
5 4653 4
5 4654 2
5 4655 100
5 4656 2
5 4657 1
5 4658 3
5 4659 5
5 4662 2
5 4663 1
5 4664 4
5 4665 1
5 4666 1
5 4667 3
5 4668 2
5 4669 3
5 4670 4
5 4671 124
5 4672 1
5 4673 62
5 4674 3
5 4675 2
5 4676 4
5 4677 2
5 4678 6
5 4679 145
5 4680 1
5 4681 3
5 4683 7
5 4684 1
5 4686 90
5 4687 626
5 4688 4
5 4689 8
5 4690 1
5 4691 5
5 4692 1
5 4693 2
5 4694 3
5 4696 2
5 4697 3
5 4698 1
5 4699 3
5 4702 2
5 4703 4
5 4704 1
5 4705 579
5 4707 1
5 4708 6
5 4709 84
5 4711 1
5 4712 2
5 4714 1
5 4715 2
5 4716 5
5 4717 1
5 4718 4
5 4720 3
5 4721 3
5 4722 2
5 4723 3
5 4724 5
5 4725 1
5 4726 4
5 4727 2
5 4728 2
5 4729 10
5 4730 236
5 4732 4
5 4733 2
5 4734 2
5 4736 4
5 4737 2
5 4738 2
5 4739 2
5 4740 4
5 4741 3
5 4742 134
5 4743 3
5 4744 5
5 4745 2
5 4746 4
5 4747 6
5 4748 341
5 4749 110
5 4750 3
5 4752 3
5 4754 1
5 4755 1
5 4757 5
5 4758 6
5 4759 2
5 4761 366
5 4762 1
5 4763 2
5 4764 2
5 4765 3
5 4766 1
5 4767 1
5 4769 2
5 4770 2
5 4771 1
5 4772 6
5 4773 1
5 4774 3
5 4775 5
5 4776 6
5 4777 3
5 4778 1
5 4779 2
5 4780 1
5 4781 1
5 4782 3
5 4783 5
5 4785 2
5 4786 4
5 4787 5
5 4788 1
5 4789 2
5 4790 1
5 4792 1
5 4793 2
5 4794 1
5 4795 3
5 4796 4
5 4798 1
5 4799 5
5 4800 2
5 4801 2
5 4802 1
5 4803 2
5 4804 3
5 4805 5
5 4806 3
5 4807 3
5 4809 1
5 4810 3
5 4811 3
5 4812 2
5 4813 3
5 4814 360
5 4816 3
5 4817 11
5 4818 2
5 4819 6
5 4820 2
5 4821 3
5 4822 5
5 4823 3
5 4824 6
5 4826 2
5 4827 2
5 4828 3
5 4829 1
5 4830 4
5 4831 1
5 4832 2
5 4833 6
5 4834 4
5 4835 3
5 4836 3
5 4837 1
5 4838 7
5 4840 1
5 4841 4
5 4842 4
5 4843 1
5 4844 47
5 4845 404
5 4846 4
5 4847 1
5 4848 4
5 4849 3
5 4851 6
5 4852 1
5 4853 127
5 4854 3
5 4855 2
5 4856 6
5 4857 2
5 4858 2
5 4859 1
5 4860 3
5 4861 5
5 4862 2
5 4863 3
5 4864 2
5 4865 4
5 4866 4
5 4867 2
5 4868 2
5 4869 1
5 4870 4
5 4872 4
5 4873 4
5 4874 49
5 4875 2
5 4876 3
5 4877 3
5 4878 2
5 4880 5
5 4881 3
5 4883 1
5 4884 4
5 4885 4
5 4887 3
5 4888 3
5 4889 4
5 4890 2
5 4891 1
5 4892 1
5 4893 155
5 4894 2
5 4896 1
5 4897 6
5 4898 53
5 4900 2
5 4901 344
5 4902 1
5 4905 5
5 4906 2
5 4907 2
5 4908 5
5 4909 1
5 4910 4
5 4911 1
5 4913 7
5 4914 3
5 4915 5
5 4916 2
5 4917 338
5 4918 4
5 4919 3
5 4920 1
5 4921 189
5 4922 1
5 4923 1
5 4925 6
5 4927 4
5 4928 2
5 4929 3
5 4930 2
5 4931 22
5 4932 17
5 4935 5
5 4936 4
5 4937 2
5 4939 1
5 4940 4
5 4941 300
5 4942 2
5 4943 5
5 4944 5
5 4945 5
5 4946 1
5 4947 4
5 4950 3
5 4951 2
5 4952 2
5 4954 2
5 4956 2
5 4957 5
5 4958 2
5 4960 2
5 4961 4
5 4962 2
5 4963 3
5 4964 1
5 4965 4
5 4966 845
5 4967 4
5 4968 1
5 4969 3
5 4970 6
5 4971 2
5 4972 1
5 4973 5
5 4974 121
5 4975 5
5 4976 2
5 4977 1
5 4978 1
5 4979 3
5 4981 1
5 4982 3
5 4985 3
5 4986 62
5 4987 2
5 4989 2
5 4990 2
5 4992 6
5 4993 2
5 4996 1
5 4997 447
5 4998 2
5 4999 3
5 5000 5
5 5001 3
5 5003 4
5 5005 3
5 5006 253
5 5007 4
5 5008 681
5 5010 1
5 5011 4
5 5012 1
5 5013 3
5 5014 294
5 5017 2
5 5018 4
5 5019 3
5 5020 190
5 5021 3
5 5022 138
5 5023 4
5 5024 2
5 5025 2
5 5026 2
5 5027 375
5 5028 2
5 5029 4
5 5030 4
5 5031 307
5 5032 1
5 5033 1
5 5034 4
5 5035 2
5 5036 2
5 5037 1
5 5039 2
5 5040 4
5 5042 41
5 5043 3
5 5044 2
5 5045 4
5 5046 3
5 5048 1
5 5049 3
5 5050 1
5 5051 4
5 5052 376
5 5053 35
5 5055 1
5 5056 2
5 5057 2
5 5058 4
5 5059 3
5 5060 6
5 5061 131
5 5062 5
5 5063 3
5 5064 1
5 5065 2
5 5066 4
5 5067 1
5 5068 4
5 5069 1
5 5070 1
5 5072 4
5 5073 1
5 5075 9
5 5076 4
5 5077 3
5 5078 19
5 5079 1
5 5080 216
5 5081 1
5 5083 3
5 5084 161
5 5085 1
5 5086 4
5 5087 2
5 5088 14
5 5089 4
5 5090 1
5 5092 3
5 5093 1
5 5094 4
5 5095 1
5 5097 1
5 5098 2
5 5099 180
5 5100 374
5 5101 2
5 5102 3
5 5103 498
5 5105 1
5 5106 1
5 5108 3
5 5109 4
5 5110 3
5 5112 2
5 5113 2
5 5116 3
5 5117 1
5 5118 3
5 5119 6
5 5120 61
5 5121 2
5 5122 1
5 5123 4
5 5124 3
5 5125 199
5 5127 3
5 5128 3
5 5129 158
5 5130 1
5 5131 461
5 5132 3
5 5133 3
5 5136 4
5 5137 1
5 5139 4
5 5140 2
5 5141 4
5 5143 2
5 5144 1
5 5147 5
5 5148 1
5 5149 187
5 5150 12
5 5153 1
5 5154 1
5 5156 3
5 5157 2
5 5158 2
5 5159 3
6 1 2
6 2 4
6 3 3
6 5 1
6 6 7
6 7 2
6 9 5
6 11 2
6 12 232
6 13 2
6 14 14
6 15 1
6 16 4
6 17 3
6 18 1755
6 19 11
6 20 1
6 22 4
6 23 3
6 25 9
6 27 2
6 28 2
6 29 1
6 30 6
6 32 2
6 33 171
6 34 1
6 36 2
6 37 2
6 38 5
6 39 4
6 40 3
6 41 6
6 42 2
6 43 1
6 44 8
6 45 17
6 46 1
6 47 496
6 49 5
6 50 1
6 51 13
6 52 964
6 53 3
6 54 1
6 55 2
6 56 3
6 57 5
6 58 6
6 59 3
6 60 1
6 61 1
6 62 539
6 63 885
6 64 6
6 65 1
6 66 1
6 67 3
6 68 4
6 69 4
6 71 2
6 72 2
6 73 4
6 74 2
6 75 13
6 76 3
6 77 6
6 78 9
6 79 246
6 80 1
6 81 1
6 82 5
6 83 5
6 84 2
6 86 641
6 87 4
6 88 3
6 89 3
6 90 1
6 93 2
6 94 1
6 95 3
6 96 1
6 97 2
6 99 1
6 100 5
6 101 1
6 102 2
6 104 3
6 105 3
6 106 3
6 107 386
6 108 1
6 109 2
6 110 2
6 111 4
6 112 5
6 113 3
6 115 1
6 116 7
6 117 6
6 118 2
6 119 2
6 120 3
6 121 2
6 122 2
6 123 2
6 124 3
6 126 10
6 127 4
6 128 1263
6 129 1
6 130 3
6 131 2
6 135 4
6 136 1725
6 137 1
6 138 4
6 139 2
6 140 4
6 141 4
6 142 2
6 143 2
6 144 2
6 146 254
6 148 608
6 149 2084
6 150 2
6 151 5
6 152 1
6 153 3
6 154 8
6 155 2
6 156 1
6 157 3
6 158 1
6 159 665
6 160 2
6 161 1
6 163 1212
6 166 1847
6 167 2
6 168 2
6 169 5
6 170 1
6 171 11
6 172 2
6 173 1
6 175 6
6 176 952
6 177 2
6 178 5
6 180 1
6 181 2
6 183 1
6 184 1
6 186 1
6 187 2
6 188 3
6 189 2
6 190 2
6 192 2
6 193 5
6 194 2
6 196 3
6 197 1
6 201 3
6 202 745
6 204 168
6 205 9
6 206 2
6 207 3
6 208 4
6 209 4
6 210 5
6 211 2
6 212 3
6 213 5
6 214 2
6 215 1
6 216 6
6 217 1
6 218 814
6 219 2
6 220 2
6 221 2
6 222 3
6 223 3
6 224 1133
6 225 2
6 226 82
6 227 930
6 228 3
6 229 1
6 230 2
6 231 4
6 232 3
6 233 9
6 234 1
6 235 5
6 237 13
6 238 2
6 239 1139
6 240 2
6 241 2
6 242 9
6 243 9
6 244 1
6 245 1
6 246 5
6 247 6
6 248 6
6 249 5
6 251 2
6 252 8
6 253 3
6 256 5
6 259 2561
6 260 6
6 261 1
6 262 3
6 263 4
6 265 1
6 266 3
6 267 5
6 268 769
6 269 6
6 270 2
6 271 3
6 272 1
6 274 2
6 275 1
6 276 1
6 278 12
6 279 1
6 280 6
6 281 939
6 282 3
6 283 3
6 284 1
6 285 2
6 286 2
6 287 1
6 288 2
6 289 5
6 290 3
6 291 4
6 293 10
6 294 1
6 295 5
6 296 2
6 297 12
6 298 1041
6 299 8
6 300 1
6 301 1
6 302 2
6 303 1090
6 304 13
6 305 3
6 306 2
6 307 1
6 308 2
6 309 3
6 311 5
6 312 3
6 313 1
6 314 1
6 315 10
6 316 1
6 317 4
6 319 2
6 321 2
6 322 5
6 323 12
6 325 3
6 326 3
6 329 2
6 330 3
6 331 4
6 332 789
6 333 1
6 335 2890
6 336 3
6 338 4
6 339 8
6 340 3
6 341 3
6 342 8
6 343 1
6 344 1
6 346 1
6 347 4
6 348 1
6 349 1021
6 350 4
6 351 1
6 355 1
6 356 4
6 357 6
6 358 6
6 359 1
6 360 1
6 361 13
6 362 3
6 363 1
6 365 156
6 366 6
6 367 4
6 368 3
6 369 3
6 370 4
6 371 3
6 374 1
6 375 3
6 376 1
6 377 1
6 378 3
6 379 2
6 380 2
6 381 1
6 382 2
6 383 1
6 384 505
6 385 1
6 386 3
6 387 3
6 388 4
6 389 2
6 390 1
6 391 3
6 392 3
6 394 90
6 395 3
6 396 2
6 397 2
6 398 3
6 399 5
6 400 2
6 401 2
6 402 1
6 403 1
6 404 1
6 405 1
6 406 411
6 407 5
6 408 1
6 409 4
6 410 3
6 411 3
6 412 19
6 413 2
6 415 4
6 417 1195
6 419 3
6 421 1
6 422 1
6 423 1
6 424 4
6 425 4
6 426 7
6 427 2
6 428 1
6 429 996
6 430 555
6 432 1
6 433 5
6 434 2
6 435 3
6 436 4
6 437 3
6 438 869
6 439 15
6 440 1640
6 441 1
6 442 5
6 445 1
6 447 1
6 448 1
6 449 2
6 450 611
6 451 1
6 453 1
6 454 6
6 456 2
6 457 8
6 458 5
6 459 3
6 460 4
6 461 2
6 462 351
6 463 3
6 464 3
6 465 2
6 466 6
6 467 1296
6 468 4
6 469 6
6 471 3
6 472 7
6 473 1
6 475 1
6 476 1
6 478 1310
6 479 1
6 480 667
6 481 3
6 482 3
6 483 5
6 484 4
6 485 2
6 486 3
6 487 1
6 488 5
6 489 2
6 490 499
6 491 1
6 492 3
6 495 1
6 496 1386
6 497 4
6 499 4
6 500 2
6 503 4
6 504 4
6 506 8
6 507 1
6 508 2
6 509 3
6 510 4
6 511 1
6 512 5
6 513 1
6 514 4
6 515 3
6 516 1
6 517 1071
6 518 3
6 519 1330
6 520 3
6 521 1
6 522 3
6 523 4
6 524 1
6 525 3
6 526 2
6 527 8
6 528 682
6 529 1
6 530 7
6 531 3
6 535 2
6 537 4
6 538 9
6 539 5
6 540 8
6 541 2
6 542 7
6 543 2
6 544 1
6 546 1
6 548 2
6 549 836
6 550 4
6 551 1
6 553 2
6 554 3
6 555 9
6 556 3
6 557 1
6 558 1304
6 559 4
6 560 1
6 562 5
6 563 893
6 564 2
6 565 5
6 566 3
6 567 5
6 568 812
6 569 1
6 570 3
6 571 3
6 572 4
6 573 16
6 574 8
6 575 6
6 576 5
6 577 3
6 578 5
6 580 1
6 581 1
6 583 3
6 584 4
6 586 2
6 587 1
6 588 5
6 589 1
6 590 4
6 591 1
6 593 5
6 595 34
6 596 2
6 598 2
6 599 2
6 601 1
6 602 5
6 604 3
6 605 711
6 606 9
6 607 2
6 608 2
6 609 3
6 610 2
6 611 3
6 612 4
6 613 1
6 614 2
6 615 7
6 619 3
6 620 2
6 623 1
6 624 1
6 625 1
6 627 1797
6 628 2
6 630 1
6 631 10
6 632 1
6 633 4
6 635 1
6 636 1
6 637 1
6 638 4
6 639 2
6 640 3
6 643 3
6 644 1
6 645 2
6 646 5
6 647 2
6 651 1
6 652 2
6 653 2
6 654 1
6 655 2
6 656 4
6 657 4
6 658 752
6 659 4
6 660 1
6 661 3
6 662 1
6 663 9
6 664 1
6 665 1
6 666 1079
6 667 5
6 668 1458
6 669 6
6 670 1
6 671 6
6 672 2
6 673 2
6 674 3
6 675 2
6 676 5
6 677 1
6 678 1
6 679 1
6 681 2
6 682 56
6 683 1
6 684 797
6 685 1
6 686 4
6 687 4
6 688 17
6 689 12
6 690 1368
6 691 3
6 693 2
6 694 4
6 696 2
6 697 2
6 698 2
6 699 7
6 700 4
6 701 368
6 702 3
6 703 2
6 704 1
6 705 718
6 706 2
6 707 851
6 708 1
6 709 3
6 710 3
6 711 2
6 712 1
6 713 961
6 714 12
6 715 7
6 716 1
6 717 2
6 719 575
6 720 3
6 721 1
6 722 1
6 723 5
6 724 2
6 725 1
6 726 1
6 727 2
6 728 3
6 730 3
6 731 16
6 732 4
6 733 3
6 734 1265
6 735 943
6 736 1
6 738 8
6 739 2
6 741 2
6 742 3
6 743 2
6 744 2
6 745 2
6 746 2
6 748 482
6 750 4
6 751 690
6 753 5
6 754 128
6 755 926
6 756 9
6 757 3
6 758 3
6 760 1
6 762 8
6 763 58
6 764 1
6 765 6
6 766 4
6 767 2
6 768 5
6 769 1
6 770 1
6 771 3
6 772 3
6 773 3
6 774 6
6 775 2
6 777 2
6 778 5
6 779 2
6 780 598
6 782 3
6 783 1
6 784 1
6 785 1
6 786 3
6 787 1
6 788 3
6 789 537
6 790 1058
6 791 1
6 792 1
6 793 1
6 794 4
6 795 1417
6 796 1
6 797 892
6 798 6
6 799 4
6 800 10
6 801 383
6 802 6
6 803 3
6 804 3
6 805 1
6 806 5
6 807 1
6 808 7
6 809 4
6 810 2
6 811 3
6 812 2
6 813 1
6 814 6
6 815 882
6 816 2
6 817 8
6 818 4
6 819 1
6 820 2
6 821 4
6 822 3
6 823 1133
6 824 3
6 825 3
6 826 1
6 827 1
6 828 223
6 829 1346
6 830 5
6 831 4
6 832 2
6 833 2
6 834 4
6 835 2
6 836 2
6 837 2
6 838 1
6 839 1
6 840 4
6 841 1
6 842 4
6 843 1
6 844 2
6 845 1
6 846 2
6 847 2
6 848 1
6 849 685
6 850 2
6 852 1
6 853 2936
6 854 3
6 856 4
6 857 2
6 858 22
6 859 5
6 860 1
6 861 2
6 862 615
6 863 1
6 864 1
6 865 6
6 867 1
6 869 3
6 870 1
6 871 1
6 872 6
6 873 4
6 874 1
6 875 2
6 876 1
6 877 3
6 878 2
6 879 1
6 880 3
6 881 2
6 882 491
6 883 2
6 884 4
6 885 5
6 886 1
6 887 2
6 888 7
6 889 2
6 890 2
6 892 3
6 893 4
6 894 1
6 895 3
6 896 1011
6 897 8
6 898 2
6 899 16
6 900 196
6 901 1
6 902 1
6 904 1023
6 906 2
6 907 3
6 908 4
6 909 2
6 910 1457
6 911 5
6 912 4
6 913 1
6 914 2
6 916 2
6 918 3
6 919 799
6 920 4
6 921 8
6 923 3
6 924 1
6 925 7
6 926 1080
6 927 4
6 928 4
6 929 3
6 930 3
6 931 1
6 932 2
6 933 1
6 935 2
6 936 5
6 937 2
6 938 2
6 939 440
6 940 11
6 941 1132
6 943 739
6 944 3
6 945 1178
6 947 5
6 948 6
6 949 3
6 951 4
6 953 5
6 954 1
6 956 12
6 958 3
6 959 1
6 961 1
6 963 3
6 964 2
6 965 2
6 966 1
6 967 2
6 970 3
6 971 7
6 972 3
6 973 3
6 975 1
6 977 3
6 978 13
6 979 209
6 980 5
6 981 2
6 982 2
6 983 2
6 984 2
6 985 4
6 986 1
6 987 4
6 988 6
6 989 1
6 990 4
6 992 9
6 994 3
6 995 566
6 997 5
6 998 1
6 999 1
6 1000 1
6 1001 1519
6 1003 1
6 1004 3
6 1005 4
6 1006 1
6 1008 1
6 1009 4
6 1011 398
6 1012 4
6 1013 2
6 1014 1
6 1015 1701
6 1017 2
6 1018 11
6 1019 5
6 1020 5
6 1022 632
6 1023 2
6 1024 5
6 1025 2
6 1027 1
6 1028 5
6 1029 1
6 1030 6
6 1031 1
6 1033 8
6 1035 3
6 1036 2
6 1037 1
6 1038 3
6 1039 1
6 1040 3
6 1041 2
6 1042 4
6 1043 4
6 1044 2
6 1046 1
6 1047 2
6 1048 1
6 1049 3
6 1050 1
6 1051 1
6 1053 2
6 1054 6
6 1055 1
6 1056 961
6 1057 2
6 1058 1
6 1059 1
6 1060 527
6 1061 1
6 1063 1
6 1064 3
6 1065 3
6 1067 1
6 1068 13
6 1069 4
6 1070 2
6 1071 1
6 1072 656
6 1073 2
6 1075 1
6 1076 4
6 1077 1
6 1079 9
6 1080 3
6 1081 1
6 1082 5
6 1083 23
6 1084 4
6 1085 2
6 1086 297
6 1087 1
6 1088 3
6 1089 3
6 1090 12
6 1091 3
6 1092 1
6 1093 2
6 1094 3
6 1097 2
6 1098 4
6 1099 3
6 1100 2835
6 1101 1
6 1102 2
6 1103 2
6 1104 5253
6 1105 3
6 1107 10
6 1108 2
6 1109 2
6 1110 6
6 1112 1
6 1113 3
6 1114 3
6 1115 1
6 1116 892
6 1117 2
6 1118 497
6 1119 3565
6 1120 9
6 1121 2
6 1123 704
6 1124 4
6 1125 2
6 1126 6
6 1127 3
6 1128 10
6 1129 5
6 1130 2
6 1131 13
6 1132 7
6 1134 4
6 1135 3
6 1136 2
6 1137 1131
6 1138 5
6 1139 7
6 1140 12
6 1141 1
6 1142 1
6 1143 2
6 1144 1
6 1145 2
6 1146 11
6 1147 9
6 1148 1
6 1150 2
6 1151 1
6 1152 918
6 1153 8
6 1154 7
6 1155 5
6 1156 2
6 1157 910
6 1158 2
6 1159 2
6 1160 1
6 1163 1
6 1164 750
6 1165 7
6 1166 2
6 1168 1
6 1169 15
6 1170 1
6 1171 3
6 1172 714
6 1173 2
6 1175 4548
6 1176 25
6 1177 2
6 1179 3
6 1180 4
6 1182 4
6 1184 6
6 1185 2
6 1186 3
6 1187 6
6 1188 1220
6 1189 10
6 1191 4
6 1192 3
6 1194 3
6 1195 867
6 1196 4
6 1197 2
6 1198 12
6 1199 6
6 1204 5
6 1205 30
6 1206 838
6 1207 1
6 1209 2
6 1211 4
6 1214 1
6 1215 2
6 1216 1
6 1217 3
6 1218 2
6 1221 1
6 1222 2
6 1223 1
6 1224 1
6 1225 2
6 1227 748
6 1228 1
6 1229 5
6 1230 3
6 1232 2
6 1233 6
6 1235 576
6 1236 6
6 1238 5
6 1239 2
6 1240 2
6 1242 1
6 1243 2
6 1244 1
6 1245 5
6 1246 3
6 1247 1
6 1248 1357
6 1249 3
6 1250 546
6 1252 1
6 1253 2
6 1255 3
6 1256 2
6 1257 1
6 1258 2
6 1260 2
6 1262 2
6 1263 4
6 1264 1
6 1265 2
6 1266 3
6 1267 3
6 1268 2
6 1270 1
6 1271 4
6 1272 2
6 1273 1
6 1274 1
6 1275 4
6 1276 1
6 1277 2
6 1279 6
6 1280 1026
6 1281 3
6 1282 1
6 1283 11
6 1284 1
6 1285 1098
6 1286 5
6 1287 2
6 1288 1
6 1289 2
6 1291 5257
6 1292 5
6 1294 4
6 1295 3
6 1297 2
6 1298 1
6 1299 3
6 1300 3
6 1301 2
6 1302 3
6 1303 2
6 1304 5
6 1305 1
6 1306 1
6 1307 2
6 1308 1297
6 1309 1
6 1310 1276
6 1311 2
6 1312 3
6 1313 1360
6 1314 2
6 1315 4
6 1316 2
6 1317 1
6 1318 1
6 1319 8
6 1320 3
6 1322 2
6 1323 1
6 1324 3
6 1325 1
6 1326 3
6 1327 2
6 1328 6
6 1329 2
6 1330 1
6 1331 1283
6 1332 2
6 1333 2
6 1334 7
6 1335 2
6 1336 10
6 1337 2
6 1338 5
6 1339 3
6 1340 1054
6 1341 999
6 1342 1
6 1343 5
6 1344 4
6 1345 478
6 1346 8
6 1347 1033
6 1348 37
6 1350 4
6 1351 4
6 1352 2
6 1353 7
6 1356 4
6 1357 1
6 1358 11
6 1360 2
6 1361 5
6 1363 1
6 1364 5
6 1365 4
6 1366 1
6 1367 1104
6 1368 1
6 1369 825
6 1370 2
6 1371 1
6 1373 3
6 1374 6
6 1375 1743
6 1376 2
6 1377 4
6 1378 3
6 1379 1
6 1380 5
6 1383 2
6 1385 5
6 1386 1
6 1388 12
6 1389 5
6 1390 1
6 1391 2
6 1393 5
6 1394 2
6 1396 3
6 1397 7
6 1398 3
6 1399 959
6 1400 763
6 1401 850
6 1402 1
6 1403 1
6 1404 1
6 1405 5
6 1406 3
6 1408 4
6 1410 4
6 1411 1
6 1413 385
6 1414 2
6 1416 557
6 1417 2
6 1418 3
6 1419 1
6 1420 4
6 1421 2
6 1422 1
6 1423 5
6 1424 2
6 1425 1
6 1426 3
6 1427 2
6 1428 2
6 1430 3
6 1431 992
6 1432 3
6 1433 5
6 1434 1
6 1435 4
6 1436 5
6 1437 4
6 1438 1
6 1439 2
6 1440 985
6 1441 3
6 1442 3
6 1443 1040
6 1445 1
6 1446 1
6 1447 1
6 1448 1
6 1449 3
6 1451 22
6 1452 4
6 1453 3
6 1454 1286
6 1455 3
6 1456 1009
6 1457 2
6 1458 5
6 1459 33
6 1460 7
6 1461 3
6 1462 1
6 1463 5
6 1464 1
6 1466 4
6 1467 2
6 1469 693
6 1470 1
6 1471 9
6 1472 9
6 1473 998
6 1474 3
6 1475 2
6 1476 1045
6 1478 3
6 1480 2
6 1481 3
6 1482 5
6 1483 1
6 1484 6
6 1485 7
6 1487 10
6 1488 1
6 1489 2
6 1490 6
6 1492 6
6 1493 100
6 1494 1
6 1495 2
6 1496 1
6 1497 8
6 1498 7
6 1499 7
6 1500 6
6 1502 3
6 1503 1
6 1504 17
6 1505 1
6 1506 23
6 1507 8
6 1508 4
6 1510 9
6 1511 4
6 1512 4
6 1514 3
6 1515 1
6 1516 3
6 1517 2
6 1518 12
6 1519 1
6 1520 2
6 1521 14
6 1522 2
6 1523 1
6 1524 2
6 1525 2
6 1526 1
6 1527 8
6 1528 678
6 1529 1
6 1530 4
6 1531 1
6 1532 5
6 1533 1
6 1534 3
6 1536 3
6 1537 8
6 1538 2
6 1539 3
6 1540 4
6 1541 2
6 1543 2
6 1544 2
6 1545 5
6 1546 7
6 1547 7
6 1549 4
6 1550 753
6 1551 2
6 1552 4
6 1554 4
6 1555 2
6 1556 2
6 1557 15
6 1558 1
6 1560 1
6 1561 882
6 1562 4
6 1563 2
6 1564 3
6 1565 1365
6 1566 11
6 1567 3
6 1568 9
6 1569 6
6 1570 1
6 1571 8
6 1572 7
6 1573 2
6 1574 5
6 1575 1574
6 1576 3
6 1577 6
6 1578 6
6 1579 2
6 1581 2
6 1582 6
6 1583 3
6 1584 14
6 1585 3
6 1586 1
6 1587 2
6 1588 55
6 1589 4
6 1590 2
6 1592 1
6 1593 3
6 1594 2
6 1595 2
6 1596 395
6 1598 5
6 1599 35
6 1600 2
6 1601 1
6 1602 11
6 1603 8
6 1605 1
6 1606 4
6 1607 4
6 1608 1
6 1609 4
6 1611 3
6 1612 1
6 1613 1
6 1614 4
6 1616 3
6 1617 3
6 1619 2
6 1622 1
6 1625 2
6 1626 851
6 1627 1
6 1628 3
6 1629 1507
6 1630 1
6 1631 686
6 1632 2
6 1634 887
6 1635 2
6 1637 1
6 1638 2
6 1639 3
6 1640 1
6 1641 705
6 1642 3
6 1643 2
6 1644 2
6 1645 1
6 1646 2
6 1647 1
6 1648 6
6 1649 6
6 1650 1
6 1651 2
6 1652 1580
6 1655 4
6 1656 2
6 1657 1
6 1658 988
6 1659 1
6 1660 2
6 1661 2
6 1662 2
6 1664 6
6 1665 4
6 1666 3
6 1667 1
6 1668 1
6 1669 4
6 1670 2
6 1671 8
6 1672 1
6 1673 2
6 1674 5
6 1675 2
6 1676 3
6 1677 1
6 1678 5
6 1679 26
6 1680 1
6 1681 1
6 1682 1164
6 1683 807
6 1684 3
6 1685 3
6 1687 2
6 1688 2
6 1689 1
6 1690 4
6 1691 4
6 1693 1
6 1696 229
6 1697 567
6 1699 1
6 1700 8
6 1701 2
6 1704 2
6 1706 2
6 1707 13
6 1709 7
6 1710 2
6 1711 6
6 1712 1
6 1713 3
6 1714 311
6 1715 642
6 1716 2
6 1717 2
6 1718 4
6 1719 1
6 1720 6
6 1721 6
6 1722 3
6 1723 2
6 1724 2
6 1726 2
6 1728 2
6 1729 1
6 1731 2
6 1732 3
6 1733 2
6 1734 3
6 1735 1
6 1738 3
6 1739 2
6 1740 757
6 1741 1
6 1743 2
6 1744 2
6 1745 1
6 1747 5
6 1748 3
6 1749 1
6 1751 908
6 1752 1
6 1753 1
6 1754 1
6 1755 2
6 1756 752
6 1757 3
6 1759 4
6 1760 1
6 1761 784
6 1762 24
6 1763 1
6 1765 3
6 1767 6
6 1768 1
6 1769 2035
6 1770 8
6 1772 1
6 1773 3
6 1774 2
6 1775 2
6 1777 4
6 1779 1
6 1780 2
6 1781 5
6 1782 995
6 1783 27
6 1784 7
6 1788 2
6 1789 1
6 1790 990
6 1791 1
6 1792 5
6 1794 599
6 1795 842
6 1796 11
6 1797 2
6 1799 1
6 1800 2
6 1801 5
6 1802 1193
6 1803 4
6 1804 517
6 1805 1
6 1806 9
6 1807 1193
6 1809 1
6 1811 7
6 1812 4
6 1813 3
6 1814 1
6 1815 1
6 1816 2
6 1817 1
6 1818 5
6 1819 3
6 1820 3
6 1822 2
6 1823 5
6 1825 7
6 1826 1
6 1827 5
6 1828 2
6 1829 3
6 1830 5
6 1831 4
6 1832 8
6 1833 2
6 1834 495
6 1835 1
6 1836 735
6 1837 4
6 1838 1
6 1839 2
6 1842 2
6 1843 333
6 1844 2
6 1846 9
6 1847 2
6 1848 2
6 1849 1098
6 1850 2
6 1851 2
6 1852 1
6 1853 4
6 1854 3
6 1856 2
6 1857 6
6 1858 1
6 1859 394
6 1861 15
6 1862 2
6 1863 3
6 1865 1352
6 1867 1
6 1868 2
6 1869 5
6 1870 2
6 1871 3
6 1872 701
6 1874 2
6 1875 2
6 1876 4
6 1877 1
6 1878 5
6 1880 3
6 1881 2
6 1882 2
6 1884 2
6 1885 1
6 1886 2
6 1887 2
6 1888 7
6 1889 2
6 1890 3
6 1891 2
6 1892 1062
6 1893 1
6 1894 3
6 1896 4
6 1898 2
6 1900 4
6 1901 3
6 1902 2
6 1904 3
6 1905 1
6 1906 1
6 1907 1
6 1908 2
6 1909 3
6 1910 477
6 1912 4
6 1913 3
6 1915 1
6 1916 2
6 1917 3
6 1918 1
6 1919 1
6 1921 1
6 1922 5
6 1923 10
6 1924 3
6 1928 6
6 1929 2
6 1930 1
6 1931 1
6 1932 1
6 1933 9
6 1934 11
6 1936 3
6 1937 4171
6 1938 2
6 1940 7
6 1941 1
6 1942 5
6 1944 1
6 1945 4
6 1946 1
6 1947 3
6 1948 2
6 1949 5
6 1951 3
6 1952 6
6 1953 5
6 1954 3
6 1955 1
6 1956 4
6 1957 3
6 1961 3
6 1962 2
6 1964 1204
6 1965 858
6 1966 4
6 1968 1
6 1970 1
6 1971 3
6 1972 608
6 1974 7
6 1975 4
6 1976 2
6 1977 4
6 1978 6
6 1980 4
6 1981 4
6 1982 2
6 1983 1
6 1984 2
6 1985 1
6 1986 1
6 1987 2
6 1988 7
6 1990 3
6 1991 3
6 1992 4
6 1993 1
6 1994 678
6 1995 1
6 1996 1
6 1997 4
6 1998 1277
6 1999 6
6 2000 5
6 2001 5
6 2002 21
6 2003 2
6 2004 1
6 2005 5
6 2006 2
6 2007 1
6 2008 3
6 2011 2
6 2012 1
6 2013 2
6 2014 1
6 2015 1
6 2017 3
6 2018 2
6 2019 4
6 2020 5
6 2021 5
6 2022 2
6 2023 2
6 2024 1
6 2026 2
6 2027 2
6 2028 2
6 2030 5
6 2031 3
6 2032 2
6 2034 1096
6 2035 1
6 2036 2
6 2037 4
6 2038 970
6 2039 1
6 2040 5
6 2041 2
6 2043 4
6 2046 4
6 2047 3
6 2048 2
6 2049 3
6 2050 1
6 2051 188
6 2052 1
6 2053 3
6 2054 2
6 2055 5
6 2056 1
6 2057 2
6 2058 1
6 2062 2
6 2063 1
6 2064 1
6 2066 4
6 2067 3
6 2068 8
6 2071 6
6 2072 4
6 2074 209
6 2077 2
6 2078 2135
6 2079 2
6 2080 1
6 2081 2
6 2082 679
6 2083 6
6 2084 2
6 2085 1
6 2086 400
6 2087 1
6 2088 1
6 2089 4
6 2090 1
6 2091 3
6 2092 2
6 2093 737
6 2094 2
6 2095 1
6 2098 1
6 2100 2
6 2101 2
6 2102 3
6 2103 4
6 2104 1
6 2105 1
6 2106 3
6 2108 5
6 2110 2
6 2111 2
6 2113 1
6 2114 397
6 2116 5
6 2120 3
6 2121 2
6 2124 1
6 2125 11
6 2126 3
6 2127 1
6 2128 5
6 2129 1423
6 2130 20
6 2132 4
6 2134 2
6 2135 3
6 2136 4
6 2138 1
6 2139 674
6 2140 1
6 2142 2
6 2143 688
6 2144 3
6 2145 2
6 2146 1
6 2147 4
6 2149 662
6 2151 1
6 2152 4
6 2153 3
6 2154 1
6 2155 3
6 2156 584
6 2157 3
6 2161 2
6 2162 1001
6 2163 1
6 2164 3
6 2166 1
6 2167 3
6 2168 1
6 2169 1
6 2170 3
6 2171 2
6 2172 2
6 2175 3
6 2177 6
6 2178 1
6 2180 2
6 2181 6
6 2184 3
6 2185 1
6 2186 11
6 2187 5
6 2188 3
6 2189 8
6 2191 2
6 2192 3
6 2193 6
6 2194 3
6 2195 24
6 2196 14
6 2197 814
6 2198 1512
6 2199 1
6 2200 5
6 2201 4
6 2202 3
6 2206 3
6 2207 2
6 2209 39
6 2211 2
6 2212 2
6 2213 680
6 2214 2
6 2215 3
6 2216 2
6 2217 7
6 2218 7
6 2219 12
6 2223 1
6 2224 7
6 2225 1
6 2227 59
6 2228 3
6 2229 1580
6 2230 2
6 2231 2
6 2232 3
6 2233 1
6 2234 4
6 2235 1
6 2236 11
6 2237 7
6 2238 1
6 2239 2
6 2240 3
6 2242 2
6 2244 6
6 2245 2
6 2246 2
6 2247 828
6 2248 12
6 2249 2
6 2250 7
6 2251 2
6 2252 1
6 2253 4
6 2256 1
6 2259 1
6 2260 14
6 2262 1
6 2263 3
6 2264 3
6 2265 6
6 2267 931
6 2268 3
6 2269 3
6 2270 2
6 2271 4
6 2272 2
6 2273 5
6 2274 1259
6 2275 3
6 2276 2
6 2277 6
6 2278 4
6 2279 3
6 2280 1
6 2281 1
6 2282 1
6 2283 17
6 2284 3
6 2286 14
6 2287 7
6 2288 1
6 2289 2
6 2290 1
6 2291 379
6 2292 1
6 2293 4
6 2294 1
6 2295 2
6 2296 2
6 2297 1
6 2298 2
6 2299 8
6 2300 3
6 2301 6
6 2302 4
6 2303 3
6 2304 11
6 2306 1
6 2307 2
6 2308 1
6 2309 4
6 2310 1
6 2311 3
6 2312 5
6 2314 1
6 2315 2
6 2317 8
6 2318 2
6 2320 5
6 2321 2
6 2322 11
6 2323 4
6 2324 2
6 2326 6
6 2327 4
6 2328 1
6 2329 506
6 2331 1
6 2332 2
6 2333 3
6 2334 816
6 2335 3
6 2336 6
6 2337 890
6 2338 1
6 2339 9
6 2340 4
6 2341 2
6 2343 1805
6 2344 2
6 2345 2
6 2348 1
6 2349 2
6 2350 10
6 2351 2
6 2352 5
6 2353 1388
6 2354 2
6 2355 2
6 2356 5
6 2357 9
6 2358 6
6 2359 3
6 2361 3
6 2362 3
6 2363 2
6 2366 1
6 2368 974
6 2369 1
6 2372 2
6 2373 1
6 2374 7
6 2375 2
6 2378 1
6 2379 5
6 2380 284
6 2381 15
6 2382 357
6 2385 1
6 2386 3
6 2387 11
6 2388 7
6 2390 1
6 2391 1
6 2392 1
6 2393 3
6 2394 4
6 2396 5
6 2397 2
6 2398 1
6 2399 2
6 2400 1
6 2401 5
6 2402 5
6 2403 788
6 2404 1
6 2405 915
6 2406 3
6 2407 5
6 2408 10
6 2409 1
6 2410 11
6 2411 1
6 2412 2
6 2413 2
6 2414 3
6 2415 3
6 2416 4
6 2417 3
6 2418 1135
6 2419 7
6 2420 2
6 2421 4
6 2423 1
6 2424 1
6 2425 4
6 2426 1
6 2428 3
6 2429 3
6 2430 4
6 2431 1
6 2432 3
6 2433 12
6 2434 3
6 2435 2
6 2436 2
6 2437 596
6 2438 4
6 2440 1
6 2442 1303
6 2444 362
6 2446 578
6 2447 5
6 2448 7
6 2449 221
6 2450 244
6 2452 8
6 2453 5
6 2454 2
6 2455 12
6 2456 8
6 2457 2
6 2458 4
6 2459 4
6 2460 2
6 2461 4
6 2462 3
6 2463 2
6 2464 2
6 2465 3
6 2466 4
6 2467 1
6 2468 1
6 2469 2
6 2470 2
6 2471 3
6 2473 2
6 2474 2
6 2475 2
6 2476 6
6 2477 1
6 2478 1
6 2479 4
6 2480 2
6 2481 5
6 2482 13
6 2483 1
6 2485 5
6 2486 3
6 2487 2
6 2488 8
6 2489 2
6 2490 4
6 2491 1
6 2492 4
6 2493 6
6 2494 2
6 2495 800
6 2496 2
6 2497 2
6 2498 11
6 2500 8
6 2501 3
6 2502 1
6 2503 2
6 2504 3
6 2505 1
6 2506 3
6 2507 5
6 2508 708
6 2509 7
6 2510 3
6 2511 2
6 2512 1
6 2513 5
6 2514 2
6 2515 3
6 2516 4
6 2517 2
6 2518 2
6 2519 1
6 2523 13
6 2524 2
6 2526 617
6 2527 3
6 2528 4
6 2530 86
6 2531 3
6 2532 6
6 2534 3
6 2535 8
6 2536 1
6 2537 6
6 2538 4
6 2541 1
6 2542 1
6 2543 2
6 2544 6
6 2545 1149
6 2546 3
6 2547 4
6 2548 2
6 2549 1
6 2550 4
6 2552 7
6 2553 2
6 2554 3
6 2555 2
6 2556 5
6 2557 3
6 2558 1
6 2560 2
6 2562 1851
6 2563 2
6 2565 846
6 2566 1
6 2567 1
6 2568 4
6 2569 2
6 2570 7
6 2571 3
6 2572 1
6 2573 2
6 2574 5
6 2575 2
6 2576 122
6 2577 3
6 2578 4
6 2579 2
6 2582 1
6 2583 3
6 2584 3
6 2586 7
6 2587 2
6 2588 3
6 2589 1
6 2590 2
6 2591 746
6 2592 3
6 2593 8
6 2595 42
6 2596 3
6 2598 4
6 2600 5
6 2601 409
6 2602 2
6 2603 11
6 2605 4
6 2606 2
6 2607 2
6 2608 2
6 2609 1052
6 2610 326
6 2611 2
6 2612 766
6 2613 7
6 2614 404
6 2615 5
6 2616 5
6 2618 1
6 2619 3
6 2620 2
6 2621 808
6 2622 1146
6 2624 1
6 2625 3
6 2626 1
6 2627 656
6 2628 1
6 2629 8
6 2630 4
6 2631 2
6 2632 4
6 2633 1
6 2634 5
6 2636 6
6 2637 367
6 2638 1048
6 2639 1
6 2640 1
6 2641 4
6 2642 3
6 2643 48
6 2644 5
6 2645 2
6 2646 1171
6 2647 5
6 2648 8
6 2649 3
6 2651 2
6 2652 3
6 2653 1
6 2654 1
6 2655 1
6 2656 2
6 2658 1
6 2659 2
6 2660 827
6 2661 2
6 2662 684
6 2663 6
6 2664 803
6 2665 5
6 2666 7
6 2668 2
6 2669 337
6 2670 3
6 2671 2
6 2672 1
6 2674 5
6 2676 1
6 2677 5
6 2678 5
6 2679 2400
6 2680 2
6 2682 6
6 2683 1
6 2685 2
6 2686 2
6 2687 3
6 2688 488
6 2689 1
6 2690 1
6 2692 1
6 2693 3
6 2694 2
6 2695 2
6 2696 1
6 2697 1
6 2698 4
6 2699 2
6 2700 6
6 2701 1
6 2703 2
6 2704 2
6 2705 2
6 2706 1
6 2707 1443
6 2709 1
6 2710 1
6 2711 1
6 2712 5
6 2713 488
6 2714 6
6 2715 8
6 2716 926
6 2717 1
6 2718 1441
6 2722 10
6 2724 2
6 2725 2
6 2726 431
6 2727 1
6 2728 4
6 2729 2756
6 2730 1
6 2731 1
6 2732 3
6 2733 2
6 2734 2
6 2735 2
6 2737 2
6 2738 1
6 2739 6
6 2740 3
6 2742 2
6 2743 6
6 2744 2
6 2745 1
6 2746 2
6 2747 23
6 2748 3
6 2749 1
6 2751 9
6 2752 4
6 2753 3339
6 2754 4
6 2755 1
6 2756 2
6 2757 5
6 2759 2
6 2760 395
6 2762 1
6 2763 3
6 2765 3
6 2766 5
6 2767 1
6 2768 3
6 2769 3
6 2770 4
6 2771 1
6 2772 4
6 2773 525
6 2774 685
6 2776 3
6 2777 2
6 2778 2
6 2779 4
6 2780 2
6 2781 2
6 2782 4
6 2783 3
6 2784 1114
6 2786 5
6 2787 3
6 2788 2
6 2789 6
6 2790 3
6 2791 1022
6 2792 2
6 2793 2
6 2795 13
6 2796 2
6 2797 1016
6 2798 8
6 2799 3
6 2800 3
6 2801 2
6 2803 1
6 2804 1
6 2805 6
6 2807 2
6 2808 904
6 2809 2
6 2810 1
6 2811 13
6 2812 1
6 2813 1
6 2814 2
6 2815 5
6 2816 5
6 2817 1
6 2818 2
6 2819 5
6 2820 1
6 2821 2
6 2822 1
6 2823 4
6 2824 1
6 2825 9
6 2826 1000
6 2827 11
6 2828 2
6 2829 4
6 2830 4
6 2831 1
6 2832 7
6 2833 6
6 2834 1098
6 2835 2
6 2836 2
6 2837 1
6 2838 1
6 2839 3
6 2840 3
6 2843 2
6 2844 5
6 2846 2
6 2847 8
6 2848 617
6 2849 3
6 2851 2
6 2852 1
6 2853 1
6 2855 2
6 2856 1
6 2857 1567
6 2859 1990
6 2861 2
6 2862 1757
6 2863 2
6 2865 5
6 2866 1
6 2867 1
6 2868 4
6 2869 749
6 2870 6
6 2871 1
6 2872 4
6 2873 9
6 2874 4
6 2875 3
6 2876 3
6 2877 1
6 2878 1
6 2879 1
6 2880 9
6 2881 851
6 2882 1237
6 2883 2
6 2884 3
6 2887 2
6 2888 5
6 2889 1
6 2890 2
6 2891 8
6 2892 1
6 2893 1
6 2894 2
6 2895 4
6 2896 5
6 2897 754
6 2899 5
6 2900 2
6 2901 3
6 2902 953
6 2903 2
6 2905 1288
6 2906 4
6 2907 2
6 2909 1
6 2910 2
6 2912 1
6 2913 7
6 2914 5
6 2915 924
6 2916 2
6 2917 2
6 2918 16
6 2919 935
6 2920 2
6 2921 1
6 2922 1
6 2923 2
6 2924 1
6 2925 2
6 2926 3
6 2927 2
6 2928 1
6 2930 3
6 2931 2
6 2932 1
6 2933 3
6 2934 1380
6 2935 32
6 2936 9
6 2937 3
6 2938 15
6 2939 2
6 2940 3
6 2941 5
6 2942 22
6 2943 1462
6 2944 1
6 2946 7
6 2947 2
6 2949 2
6 2950 1
6 2951 2
6 2952 4
6 2953 2
6 2954 3
6 2955 5
6 2956 1
6 2957 5
6 2958 1
6 2959 3
6 2960 6
6 2961 2
6 2962 4
6 2963 2
6 2964 6
6 2965 3
6 2966 2
6 2967 1
6 2968 5
6 2970 3
6 2971 1164
6 2972 2
6 2973 2
6 2974 696
6 2975 3
6 2976 6
6 2977 570
6 2978 1
6 2979 2
6 2980 903
6 2982 3
6 2983 3
6 2984 3
6 2985 1
6 2986 4539
6 2987 9
6 2988 13
6 2989 3
6 2990 2
6 2992 6
6 2993 4
6 2995 1
6 2996 4
6 2997 3
6 2999 1
6 3000 2
6 3001 2
6 3003 2
6 3004 2
6 3005 1
6 3006 9
6 3008 1252
6 3009 2
6 3010 1
6 3011 3
6 3012 2
6 3013 2
6 3014 3
6 3015 2
6 3016 2
6 3017 2
6 3018 3
6 3019 4
6 3021 3
6 3022 1
6 3023 3
6 3024 5
6 3025 2
6 3026 1669
6 3027 1
6 3029 2
6 3030 2
6 3031 1
6 3032 9
6 3033 931
6 3034 5
6 3035 926
6 3036 1
6 3037 4
6 3038 1608
6 3039 2
6 3040 35
6 3041 2
6 3042 5
6 3044 1
6 3045 680
6 3046 987
6 3047 3
6 3048 5
6 3049 1
6 3050 1513
6 3051 1
6 3052 4
6 3053 1
6 3054 3
6 3056 1
6 3057 4
6 3059 383
6 3060 2
6 3061 1
6 3062 8
6 3064 4
6 3065 590
6 3066 2
6 3067 3
6 3068 6
6 3069 2
6 3070 1
6 3071 3
6 3072 1
6 3073 2
6 3074 1
6 3075 466
6 3076 5
6 3077 4
6 3078 8
6 3079 7
6 3080 4
6 3081 1
6 3083 910
6 3084 1403
6 3085 1
6 3087 2
6 3088 3
6 3089 1
6 3090 1
6 3091 1
6 3092 3
6 3093 10
6 3094 1644
6 3095 6
6 3096 2078
6 3097 12
6 3098 3
6 3100 6
6 3101 812
6 3102 8
6 3103 6
6 3104 3
6 3105 19
6 3106 1055
6 3107 6
6 3108 652
6 3109 6
6 3110 1
6 3111 3
6 3113 1437
6 3114 2
6 3116 4
6 3117 3
6 3118 2
6 3119 4
6 3120 1
6 3121 4
6 3122 2
6 3123 2
6 3124 4
6 3125 3
6 3127 2
6 3128 3
6 3129 2
6 3131 2
6 3132 4
6 3133 16
6 3136 2
6 3137 13
6 3138 2
6 3139 3
6 3140 4
6 3141 6
6 3142 756
6 3143 533
6 3144 1
6 3145 1
6 3146 8
6 3147 2
6 3150 1
6 3151 1
6 3152 2
6 3153 1
6 3154 1
6 3155 1
6 3156 2
6 3157 814
6 3158 907
6 3159 3
6 3160 1427
6 3161 444
6 3162 1
6 3163 1
6 3165 5
6 3166 1
6 3167 6
6 3168 5
6 3169 1
6 3170 2
6 3171 2
6 3172 3
6 3173 1
6 3174 843
6 3175 2
6 3176 3
6 3177 2
6 3178 5
6 3180 1
6 3181 7
6 3182 2
6 3183 724
6 3185 3
6 3186 5
6 3187 2
6 3188 5
6 3189 1690
6 3190 1
6 3191 6
6 3192 1
6 3193 1
6 3194 1660
6 3195 3
6 3196 2
6 3197 4
6 3198 2
6 3199 4
6 3200 2
6 3202 1
6 3203 4
6 3204 2
6 3205 1138
6 3206 2
6 3207 652
6 3208 771
6 3209 1
6 3210 1
6 3212 5
6 3214 2
6 3215 1
6 3216 2
6 3217 8
6 3218 4
6 3219 5
6 3220 3
6 3221 1
6 3222 2
6 3223 2
6 3224 2
6 3225 1109
6 3226 1116
6 3227 2
6 3228 6
6 3229 1
6 3230 1
6 3231 5
6 3232 544
6 3233 1044
6 3237 11
6 3238 3
6 3239 1
6 3240 3
6 3241 5
6 3242 9
6 3243 1
6 3244 1
6 3246 1
6 3247 1055
6 3249 2
6 3250 1
6 3251 3
6 3252 2
6 3253 3
6 3254 1
6 3255 3
6 3256 2
6 3257 3
6 3258 9
6 3259 6
6 3260 2
6 3261 2
6 3262 7558
6 3263 4
6 3264 1
6 3265 1
6 3266 1
6 3268 18
6 3269 4
6 3270 2
6 3271 3
6 3272 2
6 3273 4
6 3275 3
6 3276 1
6 3277 1
6 3278 2
6 3281 1
6 3282 4
6 3283 4
6 3284 867
6 3285 2
6 3286 8
6 3287 3
6 3288 4
6 3290 4
6 3291 3
6 3292 2
6 3293 2
6 3294 4
6 3295 2
6 3296 4
6 3297 6
6 3298 549
6 3299 2
6 3300 824
6 3302 1
6 3303 1
6 3304 3
6 3305 2
6 3306 2
6 3307 5
6 3308 6
6 3310 1
6 3312 3
6 3313 4
6 3314 1
6 3315 1
6 3316 2
6 3320 3
6 3321 2
6 3322 3
6 3323 1
6 3324 5
6 3327 3
6 3328 716
6 3329 5
6 3333 1652
6 3334 3
6 3335 21
6 3336 817
6 3337 3
6 3338 1
6 3339 7
6 3340 4
6 3341 3
6 3342 766
6 3343 2
6 3344 3
6 3345 3
6 3346 378
6 3347 2
6 3348 2
6 3349 1121
6 3350 1223
6 3351 6
6 3352 1
6 3354 3
6 3355 3
6 3356 1
6 3357 4
6 3358 9
6 3359 1
6 3361 1
6 3362 4
6 3363 1
6 3365 3
6 3367 6
6 3368 2
6 3369 1
6 3370 2
6 3371 664
6 3372 5
6 3373 1
6 3374 1
6 3375 2
6 3376 1
6 3377 1
6 3378 13
6 3379 2
6 3381 1538
6 3382 3
6 3383 2
6 3384 1
6 3386 1
6 3387 1
6 3388 2
6 3389 563
6 3390 1
6 3392 2
6 3393 4
6 3394 2
6 3395 4
6 3396 2
6 3397 2
6 3398 3
6 3399 2
6 3400 2
6 3401 10
6 3402 1
6 3403 2
6 3404 5
6 3407 2
6 3408 686
6 3409 1
6 3410 4
6 3413 2
6 3414 5
6 3415 3
6 3416 1
6 3417 9
6 3418 347
6 3419 1
6 3420 2
6 3421 2495
6 3422 1
6 3423 758
6 3424 1
6 3425 6357
6 3427 1
6 3428 11
6 3429 4
6 3430 748
6 3433 8
6 3434 1
6 3435 2
6 3437 2
6 3438 15
6 3439 1
6 3440 1
6 3441 2
6 3442 2
6 3443 2
6 3444 9168
6 3445 4
6 3446 5
6 3447 5
6 3449 3
6 3450 2
6 3451 16
6 3452 1
6 3453 2
6 3454 4
6 3457 1
6 3458 1
6 3459 5
6 3460 2
6 3461 4
6 3462 4
6 3463 6
6 3464 2
6 3465 2
6 3466 1
6 3467 3
6 3468 2
6 3469 4
6 3470 1
6 3471 2
6 3472 3
6 3473 1574
6 3475 4
6 3476 3
6 3477 1
6 3478 1
6 3479 2
6 3481 2
6 3482 1
6 3483 2
6 3485 2
6 3486 6
6 3487 3
6 3489 3
6 3490 20
6 3491 2
6 3492 8
6 3493 3
6 3494 1
6 3495 4
6 3496 1
6 3497 3
6 3498 5
6 3499 7
6 3500 4
6 3501 4
6 3502 711
6 3503 1
6 3505 1
6 3506 2
6 3507 2
6 3508 7
6 3509 1
6 3510 3
6 3511 669
6 3512 574
6 3513 3
6 3514 2
6 3515 1
6 3516 2
6 3517 3
6 3518 2
6 3519 10
6 3520 1
6 3521 3
6 3523 1
6 3525 4
6 3526 5
6 3527 4
6 3530 1
6 3531 2
6 3532 635
6 3533 5
6 3534 14
6 3535 6
6 3536 2
6 3537 6
6 3538 65
6 3539 3
6 3540 3
6 3542 2
6 3543 8
6 3544 1700
6 3545 2
6 3546 1
6 3547 2
6 3548 2
6 3549 4
6 3550 1
6 3553 687
6 3554 3
6 3555 1
6 3556 647
6 3557 2
6 3558 1
6 3560 1
6 3561 4
6 3562 1535
6 3564 6
6 3565 2
6 3568 3
6 3570 415
6 3571 3
6 3573 1
6 3574 4
6 3575 9
6 3576 1203
6 3577 1
6 3578 2
6 3579 3
6 3580 1
6 3581 1366
6 3583 1
6 3584 3
6 3586 5
6 3587 3
6 3588 1
6 3589 2
6 3591 1
6 3592 2
6 3593 410
6 3594 9
6 3595 2
6 3596 24
6 3597 15
6 3598 3
6 3600 1
6 3601 10
6 3602 3
6 3603 11
6 3604 1
6 3606 4
6 3609 2
6 3610 4
6 3611 759
6 3612 2
6 3613 669
6 3614 3
6 3615 3
6 3616 2
6 3617 645
6 3619 9
6 3620 6
6 3621 3
6 3622 2
6 3624 1471
6 3625 6
6 3626 2
6 3628 5
6 3629 4
6 3630 4
6 3631 3
6 3632 2
6 3634 4
6 3635 3
6 3636 241
6 3637 2
6 3638 2
6 3639 3
6 3640 2
6 3641 2
6 3642 1
6 3643 9
6 3644 1
6 3645 1
6 3646 7
6 3647 22
6 3649 4
6 3650 3
6 3652 1
6 3653 2
6 3654 858
6 3655 1
6 3656 4
6 3657 404
6 3658 3
6 3660 1
6 3662 1
6 3663 1076
6 3664 4
6 3665 2519
6 3667 9
6 3668 2
6 3671 3
6 3672 1
6 3673 853
6 3674 3
6 3676 402
6 3677 2
6 3678 2
6 3679 13
6 3680 2754
6 3681 6
6 3682 3
6 3683 2
6 3684 9
6 3686 5
6 3687 3
6 3688 2
6 3689 6
6 3691 6
6 3692 2
6 3693 2
6 3694 3
6 3695 4
6 3696 445
6 3697 1
6 3699 1
6 3700 3
6 3701 2
6 3703 3
6 3704 2
6 3705 1
6 3706 2
6 3707 7
6 3708 583
6 3709 3
6 3710 6
6 3711 3
6 3712 1278
6 3713 1
6 3716 6
6 3717 5
6 3718 1
6 3719 4
6 3720 9
6 3721 3
6 3723 1
6 3725 4
6 3727 1
6 3728 811
6 3729 2
6 3730 9
6 3731 1
6 3732 2
6 3733 2
6 3734 1
6 3736 1
6 3738 7
6 3739 1
6 3740 5
6 3744 6
6 3745 4
6 3746 5
6 3748 11
6 3750 1
6 3752 1024
6 3753 1
6 3754 1
6 3755 5
6 3756 15
6 3757 6
6 3758 1
6 3759 3
6 3761 4
6 3762 1
6 3763 2
6 3764 1
6 3766 1
6 3767 1037
6 3768 6
6 3770 1
6 3771 1
6 3772 3
6 3774 1
6 3775 1
6 3776 8
6 3777 4
6 3778 5
6 3779 4
6 3780 804
6 3781 1
6 3782 4
6 3783 8
6 3784 3
6 3785 5
6 3787 3
6 3788 6
6 3790 392
6 3791 2
6 3793 2
6 3794 5
6 3795 2
6 3796 2
6 3797 1
6 3798 6
6 3799 1
6 3800 1
6 3801 3
6 3802 20
6 3803 11
6 3804 1
6 3805 4
6 3806 3
6 3807 3
6 3808 1
6 3809 1
6 3810 2
6 3812 3
6 3813 1040
6 3814 4
6 3815 3
6 3816 4
6 3817 6
6 3819 1
6 3821 1171
6 3822 3
6 3823 1844
6 3824 3
6 3825 5
6 3826 3
6 3827 2
6 3828 7
6 3829 6
6 3830 1857
6 3831 1
6 3832 1
6 3834 1
6 3835 3
6 3837 768
6 3840 1
6 3841 2119
6 3842 1
6 3843 5
6 3845 1835
6 3846 364
6 3847 3
6 3849 5
6 3850 2
6 3852 4
6 3853 3
6 3854 2
6 3855 1
6 3856 2
6 3857 1
6 3859 18
6 3862 2
6 3863 33
6 3864 1
6 3866 9
6 3867 1
6 3869 3
6 3870 1
6 3871 1
6 3873 8
6 3874 2100
6 3875 2
6 3876 5
6 3877 3
6 3878 2
6 3879 6
6 3880 3
6 3881 1004
6 3882 10
6 3883 7
6 3884 5
6 3885 4
6 3886 3
6 3887 5
6 3889 2
6 3890 2
6 3891 1685
6 3893 987
6 3894 2
6 3895 866
6 3896 467
6 3897 956
6 3898 2
6 3899 1
6 3900 2
6 3901 1
6 3902 3
6 3903 3
6 3904 14
6 3907 1
6 3908 3
6 3910 1
6 3911 2
6 3912 17
6 3913 1
6 3915 1
6 3916 534
6 3917 1
6 3919 1253
6 3920 8
6 3922 1
6 3923 1
6 3924 3
6 3925 1
6 3926 2
6 3927 763
6 3928 1435
6 3931 2
6 3932 2
6 3934 59
6 3935 1
6 3936 104
6 3937 2
6 3938 2
6 3939 2
6 3940 18
6 3941 3
6 3942 1
6 3943 1
6 3944 5
6 3945 3
6 3946 3
6 3947 4
6 3948 971
6 3949 3
6 3950 1795
6 3951 2
6 3952 5
6 3953 2
6 3954 4
6 3955 5
6 3956 2
6 3957 901
6 3958 2
6 3959 1
6 3961 3
6 3962 14
6 3964 3
6 3965 14
6 3966 1
6 3967 4
6 3968 1
6 3970 583
6 3972 5
6 3973 5
6 3975 3
6 3976 10
6 3977 886
6 3978 4
6 3979 1
6 3980 2
6 3981 3
6 3982 4
6 3984 1
6 3985 2
6 3987 3
6 3988 1
6 3989 1
6 3990 1
6 3991 2
6 3992 901
6 3994 4
6 3995 1
6 3996 1
6 3997 2
6 3998 5
6 3999 10
6 4000 6
6 4002 18
6 4003 1
6 4004 280
6 4005 2
6 4006 4
6 4007 1
6 4008 3
6 4009 486
6 4010 2
6 4012 4
6 4013 4
6 4014 5
6 4015 3
6 4017 4
6 4018 1
6 4019 4
6 4020 5
6 4021 30
6 4023 2
6 4024 5
6 4025 1
6 4027 1
6 4028 4
6 4030 4
6 4031 3
6 4032 812
6 4033 4
6 4034 4
6 4035 2
6 4036 2
6 4037 3
6 4039 2
6 4040 1030
6 4043 2
6 4044 1
6 4045 5
6 4046 1
6 4048 2
6 4049 4
6 4050 2
6 4051 2
6 4052 5
6 4053 1
6 4054 1
6 4055 1
6 4056 850
6 4057 1
6 4059 381
6 4060 972
6 4062 2
6 4064 434
6 4065 1299
6 4066 1
6 4068 935
6 4069 2
6 4070 6
6 4072 2
6 4074 35
6 4075 3
6 4076 2
6 4077 4
6 4080 2
6 4081 1
6 4082 2
6 4084 1
6 4085 2
6 4086 5
6 4087 3
6 4088 1366
6 4089 5
6 4090 2
6 4091 2
6 4092 2
6 4093 2
6 4094 6
6 4095 2
6 4096 1
6 4097 3
6 4098 10
6 4099 633
6 4101 2
6 4102 2
6 4103 1
6 4104 1
6 4105 1373
6 4106 5
6 4108 335
6 4110 1524
6 4113 3
6 4114 3
6 4115 559
6 4119 5
6 4120 4
6 4121 5
6 4122 1
6 4123 2
6 4124 1
6 4125 3
6 4126 1
6 4129 4
6 4130 2
6 4131 3
6 4132 3
6 4133 4
6 4134 2
6 4135 4
6 4136 2
6 4137 1
6 4138 1
6 4139 2
6 4140 939
6 4141 3
6 4142 5
6 4143 507
6 4145 451
6 4146 4
6 4147 2
6 4148 20
6 4149 12
6 4150 3
6 4152 6
6 4154 3
6 4156 1132
6 4157 4
6 4158 3
6 4159 3
6 4160 3
6 4161 2
6 4162 2
6 4163 38
6 4165 3
6 4166 3
6 4167 2
6 4168 4
6 4169 7
6 4170 9
6 4172 17
6 4173 3
6 4174 3
6 4175 2
6 4176 2
6 4177 1
6 4178 3
6 4179 3
6 4180 2
6 4181 3
6 4182 4
6 4183 1303
6 4185 6
6 4186 3
6 4187 949
6 4188 10
6 4189 3
6 4190 2
6 4191 1201
6 4192 1
6 4193 4
6 4194 3
6 4195 2
6 4196 1
6 4197 8
6 4198 8
6 4199 3
6 4200 4
6 4201 10
6 4202 3
6 4203 5
6 4206 3
6 4207 3
6 4208 9
6 4209 1696
6 4210 4
6 4211 1427
6 4212 2
6 4213 2
6 4215 358
6 4216 3
6 4217 7
6 4218 4
6 4219 878
6 4220 1
6 4221 2
6 4222 2
6 4223 348
6 4224 3827
6 4225 2
6 4226 3
6 4227 5
6 4228 1
6 4229 9
6 4230 568
6 4231 7
6 4232 5
6 4233 19
6 4234 5
6 4235 2
6 4237 3
6 4238 4
6 4239 4
6 4240 2
6 4242 4
6 4243 2
6 4244 5
6 4245 1
6 4247 3
6 4248 7
6 4249 2
6 4251 939
6 4252 2
6 4253 3
6 4254 6
6 4255 2
6 4257 1
6 4258 662
6 4261 4
6 4262 2
6 4263 19
6 4264 5
6 4265 1381
6 4266 1
6 4267 3
6 4269 9
6 4270 2
6 4271 1
6 4272 1
6 4274 5
6 4275 1
6 4276 2
6 4277 2
6 4278 1600
6 4279 778
6 4280 2
6 4281 2
6 4282 1
6 4283 5
6 4285 5
6 4286 7
6 4288 1
6 4289 5
6 4291 1
6 4292 8
6 4293 1
6 4294 3
6 4295 5
6 4296 918
6 4297 2
6 4298 1
6 4299 1
6 4300 1
6 4301 17
6 4302 2
6 4303 5
6 4305 3
6 4306 5
6 4307 2
6 4308 13
6 4309 3
6 4310 1
6 4311 3
6 4313 4
6 4316 3
6 4318 8
6 4319 1
6 4320 3
6 4321 3
6 4322 3
6 4323 1
6 4324 3
6 4325 5
6 4327 1
6 4328 4
6 4329 2
6 4331 4
6 4332 2
6 4333 4
6 4335 318
6 4336 1
6 4338 1
6 4339 4
6 4340 2
6 4341 1
6 4342 1
6 4343 5
6 4344 1
6 4345 9
6 4346 2
6 4347 2
6 4348 4
6 4349 2
6 4351 4
6 4352 4
6 4354 1
6 4356 850
6 4357 4
6 4358 850
6 4360 11
6 4361 5
6 4362 2
6 4363 4
6 4364 1
6 4365 1
6 4366 10
6 4367 626
6 4368 2
6 4369 939
6 4370 2
6 4372 2
6 4373 5
6 4374 7
6 4375 2
6 4376 2
6 4377 2
6 4378 7
6 4379 3
6 4380 1
6 4381 1
6 4382 3
6 4383 2
6 4385 6
6 4386 9
6 4387 46
6 4388 8
6 4389 1
6 4391 1
6 4392 326
6 4394 827
6 4395 5
6 4396 10
6 4398 1184
6 4399 673
6 4400 4
6 4402 4
6 4403 1
6 4407 4
6 4408 705
6 4409 2
6 4410 2
6 4411 155
6 4413 5
6 4415 2
6 4416 5
6 4417 2
6 4419 3
6 4420 1
6 4422 1
6 4423 11
6 4424 2
6 4425 415
6 4426 1
6 4427 1
6 4428 4
6 4429 3
6 4431 4
6 4432 4
6 4433 1
6 4435 2
6 4436 9
6 4437 6
6 4438 3
6 4439 2
6 4441 1
6 4442 2
6 4443 4
6 4444 1
6 4445 1
6 4446 1
6 4447 5
6 4448 7
6 4449 2
6 4450 2
6 4451 931
6 4452 1
6 4455 1039
6 4456 1
6 4457 1464
6 4460 2
6 4462 4
6 4463 1
6 4464 7
6 4466 7
6 4467 6
6 4468 2
6 4469 1
6 4470 5
6 4472 1
6 4473 2
6 4475 3
6 4476 8
6 4478 3
6 4480 6
6 4481 3
6 4482 1
6 4485 3
6 4486 5
6 4489 4
6 4490 2
6 4494 8
6 4495 2
6 4496 1
6 4497 13
6 4500 2
6 4501 6
6 4502 1
6 4503 1
6 4504 1610
6 4505 3
6 4506 4
6 4507 4
6 4508 17
6 4511 739
6 4512 7
6 4514 1
6 4515 2
6 4516 1
6 4518 1
6 4519 3
6 4520 3
6 4521 516
6 4522 2
6 4523 11
6 4524 2
6 4525 2
6 4526 2
6 4527 5
6 4528 5
6 4529 1
6 4530 1
6 4531 4
6 4533 2
6 4534 3
6 4537 2
6 4538 7
6 4539 25
6 4540 2
6 4541 1
6 4542 3
6 4543 6
6 4544 3
6 4545 2
6 4546 1
6 4547 1
6 4548 1
6 4549 1174
6 4551 1
6 4552 1019
6 4553 6
6 4554 10
6 4556 2
6 4557 797
6 4561 1128
6 4562 2
6 4563 2
6 4564 1
6 4565 2
6 4566 618
6 4567 2
6 4568 1
6 4569 1
6 4570 3
6 4571 1
6 4572 1
6 4573 4
6 4574 4
6 4575 4
6 4576 1
6 4578 4
6 4579 3
6 4580 3
6 4582 4
6 4583 2
6 4584 1050
6 4585 5
6 4586 4
6 4587 5
6 4588 3
6 4589 1
6 4590 2
6 4591 6
6 4592 876
6 4593 3
6 4594 3
6 4595 3
6 4597 2
6 4598 2
6 4599 7
6 4600 649
6 4601 7
6 4602 1
6 4603 2
6 4604 3
6 4605 19
6 4606 1
6 4607 10
6 4608 2
6 4609 5
6 4610 22
6 4611 11
6 4614 2
6 4615 17
6 4616 6
6 4617 682
6 4618 7
6 4619 2
6 4620 8
6 4621 4
6 4623 4
6 4624 5
6 4625 5
6 4626 3
6 4627 3
6 4628 1
6 4630 1
6 4631 3
6 4632 3
6 4633 5
6 4634 2
6 4635 1
6 4636 1
6 4637 2
6 4638 1124
6 4639 10
6 4640 1
6 4641 1079
6 4642 2
6 4643 3
6 4644 4
6 4645 1
6 4646 3
6 4647 1
6 4648 5
6 4650 4
6 4653 2
6 4654 5
6 4656 2
6 4657 4
6 4658 1
6 4659 2
6 4660 4
6 4661 2
6 4662 5
6 4663 4
6 4665 6
6 4667 4
6 4668 1
6 4669 3
6 4670 1
6 4671 5
6 4672 1
6 4673 3
6 4674 1068
6 4675 519
6 4676 2
6 4677 4
6 4679 7
6 4680 15
6 4681 4
6 4686 4
6 4687 1
6 4688 3
6 4689 1042
6 4690 954
6 4691 880
6 4692 1
6 4693 1
6 4694 3
6 4697 6
6 4698 2
6 4699 4
6 4703 3
6 4704 627
6 4705 1
6 4706 5
6 4707 690
6 4708 8
6 4709 1
6 4712 4
6 4714 2
6 4717 7
6 4719 2
6 4720 1
6 4722 3
6 4723 5
6 4724 570
6 4725 11
6 4726 573
6 4727 1
6 4728 461
6 4729 6
6 4730 2
6 4732 2
6 4734 2
6 4735 3
6 4736 2
6 4737 2
6 4738 2
6 4739 10
6 4740 3
6 4741 1
6 4742 1
6 4743 1
6 4744 2
6 4745 2
6 4747 2
6 4748 12
6 4750 3
6 4752 2
6 4754 5
6 4756 1
6 4757 2
6 4758 3
6 4760 6
6 4762 14
6 4763 1
6 4764 3
6 4765 4
6 4766 1
6 4767 4
6 4769 2
6 4770 5
6 4771 759
6 4772 2585
6 4773 1
6 4774 3264
6 4775 14
6 4776 1
6 4777 2
6 4778 861
6 4779 3
6 4780 2
6 4781 5
6 4782 10
6 4783 3
6 4785 3
6 4786 2
6 4787 3
6 4788 5
6 4790 1
6 4791 2
6 4792 1
6 4793 4
6 4794 2
6 4795 1
6 4796 1753
6 4798 1
6 4799 1073
6 4800 811
6 4801 1
6 4802 712
6 4803 1
6 4804 2
6 4806 5
6 4807 43
6 4809 433
6 4810 1
6 4812 10
6 4813 6
6 4814 1
6 4815 6
6 4816 4
6 4817 5
6 4818 1
6 4819 2
6 4820 4
6 4821 2
6 4822 7
6 4823 2
6 4824 1
6 4825 1
6 4826 2
6 4827 8
6 4829 457
6 4831 16
6 4832 1
6 4833 14
6 4834 3
6 4835 3
6 4836 2
6 4837 2
6 4838 7
6 4839 4
6 4840 808
6 4841 1368
6 4842 1312
6 4843 2
6 4844 1
6 4845 9
6 4846 18
6 4848 4
6 4849 5
6 4851 19
6 4852 1
6 4853 2
6 4854 3
6 4855 637
6 4856 6
6 4857 1863
6 4858 3
6 4859 3
6 4860 959
6 4861 15
6 4862 3
6 4863 4
6 4864 2
6 4865 3
6 4866 3
6 4867 1
6 4868 3
6 4869 2
6 4870 1
6 4871 3
6 4872 2
6 4873 3
6 4875 5
6 4876 126
6 4878 4
6 4879 2
6 4880 12
6 4881 1
6 4882 1
6 4884 3
6 4885 3
6 4887 1
6 4888 1
6 4889 2
6 4890 2
6 4891 3
6 4892 960
6 4894 3
6 4895 2
6 4896 2
6 4897 1
6 4898 1
6 4900 701
6 4901 363
6 4902 1
6 4905 3
6 4906 1
6 4907 1
6 4908 1
6 4909 2157
6 4910 2
6 4911 6
6 4913 19
6 4914 8
6 4915 1
6 4916 5
6 4917 3
6 4918 1
6 4919 7
6 4920 4
6 4921 4
6 4923 3
6 4924 2
6 4925 6
6 4927 3
6 4928 1
6 4929 4
6 4930 12
6 4931 3
6 4932 3
6 4933 3
6 4934 2
6 4935 6
6 4936 1
6 4937 8
6 4939 1
6 4941 4
6 4942 3
6 4944 2
6 4945 1
6 4946 4
6 4947 1280
6 4949 3
6 4950 2
6 4951 263
6 4952 2
6 4953 1
6 4954 849
6 4955 4
6 4956 3
6 4957 9
6 4958 7
6 4959 3
6 4960 3385
6 4961 4
6 4963 7
6 4965 2
6 4966 1
6 4967 1
6 4968 2
6 4969 2
6 4970 1167
6 4971 4
6 4972 1
6 4973 2
6 4974 1
6 4975 1418
6 4976 2
6 4977 1
6 4978 2
6 4979 1
6 4981 3
6 4982 571
6 4986 3
6 4987 2
6 4990 1
6 4992 459
6 4993 3
6 4996 3
6 4997 2
6 4998 3
6 4999 1
6 5001 9
6 5002 9
6 5003 1066
6 5004 1
6 5005 6
6 5006 5
6 5007 1
6 5008 3
6 5009 5
6 5010 2
6 5011 1
6 5013 2
6 5015 2
6 5017 1
6 5018 1161
6 5019 5
6 5020 1
6 5021 2
6 5022 6
6 5023 1
6 5024 2
6 5025 5
6 5026 1
6 5027 3
6 5028 2
6 5029 21
6 5030 2
6 5031 2
6 5032 918
6 5033 2
6 5034 3
6 5035 2
6 5036 6
6 5037 789
6 5038 3
6 5039 3
6 5040 6
6 5042 328
6 5043 2
6 5044 22
6 5045 1
6 5046 5
6 5048 1
6 5049 1952
6 5050 5
6 5051 3
6 5052 1
6 5053 1
6 5054 1
6 5055 2
6 5056 1
6 5057 3
6 5058 1
6 5059 3
6 5060 3
6 5061 5
6 5062 3
6 5063 189
6 5064 1
6 5065 1
6 5066 2
6 5067 23
6 5068 4
6 5069 3
6 5070 867
6 5072 2
6 5074 2
6 5075 1
6 5076 6
6 5077 2
6 5078 9
6 5079 6
6 5080 1
6 5081 1006
6 5083 1907
6 5084 1
6 5085 3
6 5086 3
6 5087 802
6 5088 1022
6 5089 5
6 5090 801
6 5092 2
6 5093 2
6 5095 4
6 5097 2
6 5098 6
6 5100 4
6 5101 2
6 5102 1076
6 5103 16
6 5104 9
6 5105 2
6 5106 2
6 5107 2
6 5108 2
6 5109 1
6 5111 2
6 5113 4
6 5115 1
6 5117 454
6 5118 2
6 5119 3
6 5121 2
6 5123 2
6 5124 2
6 5128 1
6 5129 2
6 5130 4
6 5131 6
6 5132 6
6 5133 2
6 5134 1
6 5135 4
6 5136 9
6 5137 256
6 5139 4
6 5140 2
6 5141 1290
6 5143 7
6 5145 2
6 5146 2
6 5147 1
6 5148 2
6 5149 7
6 5150 12
6 5152 3
6 5154 1
6 5156 1
6 5157 1
6 5158 387
6 5159 3
7 1 5
7 2 4
7 3 2
7 4 1
7 5 8
7 6 11
7 7 1
7 9 451
7 10 347
7 11 3
7 12 3
7 13 2
7 14 2
7 15 3
7 16 5
7 17 2
7 18 6
7 20 2
7 21 2
7 22 2
7 23 1555
7 24 1
7 25 6
7 26 8
7 27 4
7 28 4
7 29 5
7 30 3
7 31 4
7 32 3
7 33 2
7 34 2259
7 35 2
7 36 1
7 37 2
7 38 5
7 39 2
7 40 5
7 41 1
7 42 6
7 43 3
7 44 1
7 45 5
7 46 2
7 47 6
7 48 7
7 49 8
7 50 632
7 51 3
7 52 3
7 53 4
7 54 739
7 55 3
7 56 7
7 57 939
7 58 1006
7 59 1
7 60 1
7 61 2
7 62 6
7 63 1
7 64 4
7 65 5
7 66 1
7 67 1598
7 68 3
7 69 4
7 70 5
7 71 476
7 72 1064
7 73 3
7 74 4
7 75 4
7 76 908
7 77 8
7 78 12
7 79 6
7 80 1
7 81 2
7 82 2
7 83 5
7 86 1
7 87 29
7 88 16
7 89 3
7 90 1
7 91 574
7 93 2
7 94 4
7 96 1
7 97 3
7 99 17
7 100 1
7 101 11
7 103 197
7 105 816
7 106 3
7 107 15
7 108 4
7 109 3
7 110 48
7 111 4
7 112 1710
7 113 3
7 114 839
7 115 2
7 116 17
7 117 4
7 118 2
7 119 1
7 120 4
7 121 646
7 123 395
7 124 2
7 125 1
7 126 4
7 127 8
7 128 2
7 129 2
7 130 1088
7 131 1556
7 133 5
7 134 3
7 135 316
7 136 3
7 137 656
7 138 7
7 139 3
7 140 2025
7 141 4
7 142 4
7 143 2262
7 144 2
7 145 6
7 146 1
7 147 1
7 148 2
7 149 4
7 150 1809
7 151 1423
7 152 3
7 153 529
7 154 733
7 155 7
7 156 8
7 157 3
7 158 2
7 159 4
7 160 2
7 161 1
7 162 4
7 163 4
7 165 2
7 166 3
7 167 834
7 168 3
7 169 10
7 170 4
7 171 2
7 172 1
7 173 3
7 175 3
7 176 3
7 177 2
7 178 4
7 179 549
7 180 4
7 181 5
7 182 3
7 183 13
7 184 1822
7 185 1
7 186 3
7 187 5
7 188 1006
7 189 827
7 190 460
7 192 4
7 193 19
7 194 2
7 196 5
7 197 1
7 198 2
7 199 16
7 200 4
7 201 4
7 202 3
7 205 401
7 206 4
7 207 3
7 208 9
7 209 293
7 210 3
7 211 20
7 212 4
7 213 7
7 215 3
7 216 17
7 217 9
7 218 2
7 219 7
7 220 6
7 221 5
7 222 2
7 223 9
7 224 3
7 226 324
7 227 6
7 228 227
7 229 4
7 230 897
7 231 7
7 232 5
7 233 19
7 234 6
7 235 4
7 236 4
7 237 5
7 238 3
7 239 2
7 240 9
7 242 10
7 243 7
7 244 3
7 245 6
7 246 19
7 247 6
7 248 5
7 250 16
7 251 180
7 252 3
7 253 2199
7 254 1
7 256 5
7 258 3
7 259 6
7 260 5
7 261 3
7 262 4
7 263 1
7 264 5
7 265 2
7 266 6
7 267 4
7 268 1
7 269 4
7 270 6
7 271 635
7 272 5
7 273 7
7 274 8
7 275 4
7 276 1
7 278 119
7 279 5
7 281 3
7 282 7
7 283 5
7 284 6
7 285 5
7 286 6
7 287 1131
7 288 2
7 289 1
7 290 1293
7 291 8
7 292 7
7 293 4
7 294 4
7 295 4
7 296 4
7 297 2
7 298 8
7 299 3
7 300 2
7 301 5
7 302 6
7 303 5
7 304 3
7 305 3
7 306 5
7 307 1
7 308 8
7 309 1
7 310 837
7 311 4
7 312 1
7 313 1
7 314 3
7 315 2
7 316 5
7 319 4
7 321 32
7 322 6
7 323 1546
7 324 3
7 325 13
7 326 4
7 327 2
7 328 4
7 329 3
7 330 3757
7 331 3
7 332 3
7 333 1
7 334 4
7 335 2
7 336 2
7 338 8
7 339 2
7 340 7
7 341 1
7 342 3
7 343 3
7 344 2
7 345 1
7 346 2
7 347 7
7 348 2
7 350 7
7 351 1
7 352 2
7 353 1
7 355 629
7 356 7
7 357 5
7 358 13
7 359 1
7 360 217
7 361 10
7 362 2348
7 363 3
7 364 2
7 365 14
7 366 2
7 367 1454
7 368 9
7 369 5
7 370 1
7 371 6
7 372 6
7 374 3
7 375 3
7 376 180
7 377 6
7 378 4
7 379 2149
7 380 8
7 381 2
7 382 4
7 383 2
7 384 7
7 385 8
7 387 1
7 388 3
7 389 6
7 390 1
7 391 5
7 392 4
7 393 2
7 394 7
7 395 5
7 396 1
7 397 1
7 398 3
7 399 8
7 400 3
7 401 7
7 402 3
7 403 5
7 404 3
7 405 1
7 406 9
7 407 1
7 408 5
7 409 4
7 410 6
7 411 1
7 412 4
7 413 7
7 414 14
7 415 7
7 416 3
7 417 5
7 419 4
7 421 3
7 422 4
7 423 7
7 424 4
7 425 4
7 426 2
7 427 2
7 428 5
7 429 3
7 430 1
7 432 2
7 433 7
7 434 2
7 435 2465
7 436 10
7 437 2
7 438 2
7 439 2
7 440 1
7 441 4
7 442 11
7 443 5
7 444 6
7 445 8
7 446 10
7 447 2
7 448 815
7 450 1
7 451 3
7 452 203
7 453 3
7 454 7
7 455 6
7 456 421
7 457 1314
7 458 3
7 459 1
7 460 3
7 461 1226
7 462 4
7 463 7
7 464 4
7 465 1
7 466 88
7 467 2
7 468 2
7 469 942
7 470 1618
7 471 4
7 472 3
7 473 27
7 474 6
7 475 4
7 476 7
7 478 8
7 479 3
7 480 1
7 481 3
7 482 2
7 483 1
7 484 4
7 485 6
7 486 2
7 487 722
7 488 1
7 489 785
7 491 329
7 492 13
7 493 2
7 495 20
7 496 2
7 497 4
7 498 3
7 499 4
7 500 2
7 501 2
7 502 279
7 503 9
7 504 3
7 505 1945
7 506 1
7 507 1
7 508 7
7 509 3
7 510 3
7 511 8
7 512 2
7 513 2
7 514 9
7 515 5
7 516 1
7 517 5
7 518 6
7 519 6
7 520 10
7 521 1519
7 523 2
7 524 1
7 525 2
7 526 3
7 527 14
7 528 7
7 529 5
7 530 268
7 531 26
7 532 776
7 533 3
7 535 625
7 537 6
7 538 4
7 539 8
7 540 3
7 541 1197
7 542 924
7 543 7
7 544 725
7 545 2
7 546 80
7 547 471
7 548 1571
7 549 1
7 550 8
7 551 5
7 552 5
7 553 3
7 554 4
7 555 2
7 556 3
7 557 1669
7 558 2
7 559 5
7 560 5
7 561 728
7 562 7
7 563 5
7 564 4
7 565 9
7 566 1
7 567 1
7 568 6
7 569 1
7 571 5
7 572 3
7 573 12
7 574 5
7 575 8
7 576 5
7 577 4
7 578 13
7 580 5
7 581 1
7 583 1078
7 584 5
7 586 1
7 587 3
7 588 8
7 589 3
7 590 4
7 591 293
7 592 2
7 594 5
7 595 22
7 596 11
7 597 2
7 598 3
7 599 3
7 600 5
7 601 818
7 602 7
7 604 4
7 605 2
7 606 5
7 607 4
7 608 161
7 609 3
7 610 2
7 611 2
7 612 4
7 613 210
7 614 7
7 615 3
7 616 1
7 619 3
7 620 322
7 621 4
7 622 5
7 624 3
7 625 2
7 626 7
7 627 3
7 629 3
7 630 11
7 631 7
7 632 4
7 633 5
7 634 1226
7 635 749
7 636 2
7 637 4
7 638 7
7 639 5
7 640 14
7 641 2
7 642 4
7 643 5
7 644 2141
7 645 4
7 646 1
7 647 145
7 648 4
7 649 5
7 650 3
7 651 2
7 652 1
7 653 6
7 654 2
7 655 4
7 657 4
7 658 4
7 659 8
7 660 2
7 661 2
7 662 13
7 663 2
7 664 3
7 665 2
7 666 1
7 667 4
7 668 3
7 669 6
7 670 3
7 671 5
7 672 5
7 673 3
7 674 4
7 675 1
7 676 941
7 677 6
7 678 3
7 679 902
7 680 2
7 681 4
7 682 2
7 683 1
7 684 2
7 685 352
7 687 4
7 688 11
7 689 2
7 690 2
7 691 2
7 693 1105
7 695 6
7 696 4
7 697 3
7 698 15
7 699 10
7 700 3
7 701 3
7 702 297
7 703 4
7 704 4
7 705 5
7 706 1
7 707 9
7 708 3
7 709 6
7 710 9
7 711 6
7 712 4
7 713 2
7 714 10
7 715 1
7 716 1211
7 717 5
7 719 6
7 721 3
7 722 272
7 723 1
7 724 2
7 725 2
7 726 3
7 727 1
7 728 4
7 729 421
7 730 1
7 731 10
7 732 6
7 733 7
7 734 2
7 735 1
7 736 1
7 738 8
7 740 4
7 741 6
7 742 5
7 744 2
7 745 3
7 746 5
7 748 2
7 749 4
7 750 2
7 751 4
7 753 9
7 754 1
7 755 4
7 756 695
7 757 6
7 758 4
7 759 2275
7 760 7
7 761 4
7 763 4
7 764 5
7 765 988
7 766 6
7 767 3
7 768 6
7 769 7
7 770 1599
7 771 3
7 772 13
7 773 11
7 774 2018
7 775 1145
7 776 3
7 777 2
7 778 3
7 779 8
7 780 6
7 781 2
7 782 6
7 784 1
7 785 2
7 786 4
7 787 2
7 788 10
7 789 3
7 790 2
7 791 6
7 792 17
7 793 6
7 794 1
7 795 3
7 796 1481
7 797 1
7 798 33
7 799 2
7 800 6
7 801 1
7 802 3
7 803 12
7 804 6
7 805 3
7 806 5
7 807 5
7 808 7
7 809 2
7 810 5
7 811 3
7 812 3
7 813 9
7 814 9
7 815 3
7 816 8
7 817 5
7 818 1350
7 819 4
7 820 6
7 821 10
7 822 3
7 823 6
7 824 6
7 825 26
7 826 544
7 827 1980
7 828 4
7 829 3
7 830 985
7 831 11
7 832 7
7 833 281
7 834 5
7 835 751
7 837 1
7 838 15
7 839 459
7 840 4
7 841 552
7 842 8
7 843 9
7 844 6
7 845 1363
7 847 2
7 849 4
7 850 8
7 851 7
7 852 1199
7 853 3
7 854 3
7 855 4
7 856 218
7 857 2
7 858 4
7 859 44
7 860 2
7 861 339
7 862 6
7 863 4
7 864 9
7 865 4
7 867 289
7 868 1
7 869 3
7 870 2
7 871 3
7 872 933
7 873 6
7 874 5
7 875 1107
7 876 2
7 877 6
7 878 8
7 879 2
7 880 1277
7 881 5
7 882 10
7 883 3
7 884 5
7 885 4
7 886 321
7 887 6
7 888 796
7 889 2
7 890 4
7 892 4
7 894 9
7 896 3
7 897 3
7 898 36
7 899 478
7 900 11
7 901 366
7 902 1
7 904 3
7 906 15
7 907 3
7 908 49
7 909 1
7 910 1
7 911 4
7 912 5
7 913 3
7 914 3
7 915 4
7 916 5
7 917 2
7 918 6
7 919 2
7 920 8
7 921 4
7 922 10
7 923 5
7 924 241
7 925 2
7 926 3
7 927 4
7 928 6
7 929 3
7 930 442
7 931 1
7 932 10
7 933 3
7 934 3
7 935 7
7 936 6
7 937 5
7 940 5
7 941 22
7 943 1
7 944 2
7 945 2
7 946 9
7 947 3
7 948 526
7 949 5
7 950 6
7 951 4
7 952 2
7 953 2
7 954 1
7 955 5
7 956 791
7 957 5
7 958 901
7 959 2
7 961 5
7 962 10
7 963 1563
7 964 3
7 965 576
7 966 3
7 967 56
7 968 1
7 970 6
7 971 10
7 972 8
7 973 3
7 974 4
7 977 4
7 978 11
7 979 1
7 980 6
7 981 3
7 982 559
7 983 2
7 984 2
7 985 3
7 987 2
7 988 2
7 989 1941
7 990 2
7 992 2
7 993 3
7 994 3
7 995 5
7 996 1
7 997 6
7 998 5
7 999 40
7 1000 4
7 1001 4
7 1002 1939
7 1003 3
7 1004 5
7 1005 7
7 1006 2
7 1007 821
7 1008 13
7 1009 3
7 1010 221
7 1011 4
7 1013 8
7 1014 1
7 1015 6
7 1016 975
7 1017 362
7 1018 1
7 1020 4
7 1022 4
7 1023 3
7 1024 4
7 1025 1
7 1028 23
7 1029 1
7 1030 461
7 1031 13
7 1032 3
7 1033 4
7 1034 2
7 1035 2
7 1036 3
7 1037 405
7 1038 5
7 1039 6
7 1040 3
7 1041 2
7 1042 7
7 1043 5
7 1044 2
7 1045 5
7 1046 2
7 1047 2
7 1048 2
7 1049 9
7 1050 771
7 1051 6
7 1052 4
7 1053 9
7 1054 3
7 1055 5
7 1056 3
7 1057 13
7 1058 697
7 1060 4
7 1061 442
7 1062 4
7 1063 6
7 1064 25
7 1065 568
7 1066 5
7 1067 5
7 1068 566
7 1069 2
7 1070 1517
7 1071 5
7 1072 1
7 1075 3
7 1076 1
7 1077 6
7 1079 5
7 1080 6
7 1081 4
7 1082 5
7 1083 8
7 1084 3
7 1085 3
7 1086 4
7 1087 2401
7 1088 3
7 1089 4
7 1091 7
7 1092 1
7 1093 7
7 1096 2
7 1097 3
7 1098 3
7 1099 3
7 1100 3
7 1101 1
7 1102 4
7 1103 7
7 1104 4
7 1105 3
7 1106 1138
7 1107 189
7 1108 29
7 1109 2
7 1110 3
7 1111 395
7 1112 1
7 1113 431
7 1115 2
7 1116 5
7 1117 3
7 1118 2
7 1119 4
7 1120 753
7 1121 4
7 1122 2
7 1123 3
7 1124 6
7 1125 3
7 1126 1175
7 1127 7
7 1128 2
7 1129 4
7 1130 535
7 1131 424
7 1132 276
7 1133 299
7 1134 7
7 1135 2
7 1136 4
7 1137 4
7 1138 1
7 1139 7
7 1140 1
7 1141 6
7 1142 3
7 1143 4
7 1144 656
7 1145 5
7 1146 1
7 1147 3
7 1148 7
7 1149 1528
7 1150 3
7 1151 11
7 1152 18
7 1153 391
7 1154 1
7 1155 5
7 1156 10
7 1157 4
7 1158 5
7 1159 3
7 1160 4
7 1162 17
7 1163 4
7 1164 9
7 1165 5
7 1166 5
7 1168 4
7 1169 5
7 1171 4
7 1172 5
7 1173 1
7 1174 1
7 1175 12
7 1176 1995
7 1177 5
7 1179 11
7 1180 5
7 1181 3
7 1182 2
7 1183 2
7 1184 4
7 1185 5
7 1186 6
7 1187 1393
7 1188 1
7 1189 2
7 1190 9
7 1191 5
7 1192 6
7 1193 5
7 1194 1486
7 1195 2
7 1196 8
7 1198 6
7 1199 7
7 1204 3
7 1205 2
7 1206 2
7 1207 943
7 1209 1
7 1210 4
7 1211 4
7 1214 5
7 1215 2
7 1216 1
7 1218 4
7 1220 1
7 1221 4
7 1222 4
7 1223 4
7 1224 1
7 1225 3
7 1226 3
7 1227 5
7 1228 848
7 1229 2
7 1230 2
7 1232 1411
7 1233 5
7 1234 1
7 1235 2
7 1236 10
7 1237 1814
7 1238 3
7 1239 1
7 1240 3
7 1241 4
7 1242 2
7 1243 4
7 1244 291
7 1245 5
7 1246 2
7 1247 4
7 1248 3
7 1249 5
7 1250 5
7 1252 4
7 1253 1308
7 1254 10
7 1255 3
7 1256 3
7 1257 6
7 1258 11
7 1259 2
7 1260 4
7 1261 3
7 1262 8
7 1263 4
7 1264 4
7 1265 4
7 1266 5
7 1267 9
7 1268 10
7 1269 3
7 1270 10
7 1271 7
7 1272 3
7 1273 3
7 1274 12
7 1275 1
7 1276 10
7 1277 3
7 1278 4
7 1279 2
7 1280 3
7 1281 5
7 1282 12
7 1283 409
7 1284 6
7 1285 5
7 1286 6
7 1287 1
7 1288 5
7 1289 471
7 1290 4
7 1291 1
7 1292 3
7 1293 515
7 1295 5
7 1297 2040
7 1299 5
7 1300 2
7 1301 2
7 1302 1322
7 1303 21
7 1304 2
7 1305 2
7 1306 682
7 1307 3
7 1308 5
7 1309 701
7 1310 1
7 1311 516
7 1312 633
7 1313 2
7 1314 8
7 1315 7
7 1316 2
7 1317 13
7 1318 590
7 1319 296
7 1320 7
7 1321 3
7 1322 12
7 1323 6
7 1324 5
7 1325 5
7 1326 7
7 1327 1
7 1328 2
7 1329 5
7 1330 2
7 1331 4
7 1332 1
7 1333 4
7 1334 4
7 1335 559
7 1336 4
7 1337 3
7 1338 4
7 1339 3
7 1340 5
7 1341 9
7 1342 4
7 1343 2
7 1344 1
7 1345 1
7 1346 7
7 1347 3
7 1348 5
7 1350 6
7 1351 4
7 1352 4
7 1353 10
7 1357 1
7 1358 4
7 1359 7
7 1360 2
7 1361 11
7 1362 2
7 1363 2
7 1364 806
7 1365 4
7 1366 2138
7 1367 5
7 1368 6
7 1369 1
7 1370 6
7 1371 1904
7 1373 2
7 1374 3
7 1375 11
7 1376 6
7 1377 2
7 1378 4
7 1379 4
7 1380 2
7 1382 3
7 1383 4
7 1385 3
7 1386 1
7 1387 1
7 1388 1146
7 1389 451
7 1390 1
7 1391 2
7 1392 1
7 1394 3
7 1395 578
7 1396 1
7 1397 5
7 1398 3
7 1399 3
7 1400 10
7 1401 10
7 1403 21
7 1404 2
7 1405 2
7 1406 5
7 1408 6
7 1409 2
7 1410 5
7 1411 1
7 1413 5
7 1414 1
7 1415 434
7 1416 4
7 1417 6
7 1418 2
7 1419 3
7 1420 2
7 1421 2004
7 1422 625
7 1423 6
7 1424 2
7 1425 2
7 1426 3
7 1427 1
7 1428 345
7 1430 3
7 1431 4
7 1432 146
7 1433 10
7 1434 4
7 1435 9
7 1436 2
7 1437 3
7 1438 6
7 1439 446
7 1440 14
7 1441 578
7 1442 7
7 1443 2
7 1444 3
7 1445 2
7 1446 4
7 1447 5
7 1448 188
7 1449 1
7 1451 6
7 1452 834
7 1453 2
7 1454 3
7 1455 404
7 1456 3
7 1457 918
7 1458 2
7 1459 6
7 1460 7
7 1461 1
7 1462 3
7 1463 405
7 1464 4
7 1466 7
7 1467 3
7 1468 9
7 1469 3
7 1470 2
7 1471 7
7 1472 4
7 1473 2
7 1474 3
7 1475 1070
7 1476 2
7 1477 5
7 1478 1
7 1479 2
7 1480 4
7 1482 6
7 1483 1
7 1484 1286
7 1485 3
7 1487 2
7 1488 4
7 1489 2
7 1490 7
7 1491 2
7 1492 261
7 1493 2
7 1494 2
7 1495 1
7 1496 4
7 1497 3
7 1498 8
7 1499 6
7 1500 12
7 1502 5
7 1503 5
7 1504 3
7 1505 14
7 1506 548
7 1507 533
7 1508 21
7 1510 11
7 1511 1
7 1512 2363
7 1514 16
7 1515 6
7 1516 1
7 1517 1148
7 1518 2
7 1519 3
7 1520 2
7 1521 10
7 1522 4
7 1523 4
7 1524 1
7 1525 4
7 1526 3
7 1527 15
7 1528 7
7 1529 12
7 1530 502
7 1532 2
7 1533 3
7 1534 3
7 1535 1
7 1536 21
7 1537 10
7 1538 3
7 1539 5
7 1540 4
7 1541 1060
7 1542 1
7 1543 6
7 1544 4
7 1545 15
7 1546 711
7 1547 2414
7 1548 7
7 1549 4
7 1550 4
7 1551 371
7 1552 2
7 1553 4
7 1555 3
7 1556 3
7 1557 1
7 1558 4
7 1560 2
7 1561 3
7 1562 2
7 1563 5
7 1564 3
7 1565 3
7 1566 12
7 1567 1
7 1568 6
7 1569 1
7 1570 5
7 1571 4
7 1572 11037
7 1573 248
7 1574 5
7 1576 6
7 1577 280
7 1578 26
7 1579 508
7 1580 4
7 1581 10
7 1582 247
7 1583 955
7 1584 4
7 1585 10
7 1586 4
7 1587 7
7 1588 4
7 1589 3
7 1590 3
7 1591 48
7 1592 3
7 1593 4
7 1594 5
7 1595 3
7 1596 8
7 1597 5
7 1598 3
7 1599 486
7 1600 4
7 1601 2
7 1602 1458
7 1603 1391
7 1605 3
7 1606 14
7 1607 2
7 1608 911
7 1609 2
7 1611 1
7 1613 2
7 1614 2
7 1615 428
7 1616 6
7 1617 605
7 1618 1
7 1619 8
7 1621 866
7 1622 4
7 1623 5
7 1624 1168
7 1625 2
7 1626 16
7 1627 6
7 1628 4
7 1629 1
7 1630 13
7 1631 2
7 1632 2
7 1633 3
7 1634 2
7 1635 2097
7 1636 2
7 1637 1
7 1638 4
7 1639 240
7 1640 1300
7 1641 45
7 1642 1
7 1643 4
7 1644 817
7 1645 1
7 1646 5
7 1647 2
7 1648 6
7 1649 7
7 1650 6
7 1651 1
7 1652 5
7 1653 10
7 1654 4
7 1655 2247
7 1656 3
7 1657 820
7 1658 5
7 1659 1
7 1661 5
7 1662 2
7 1664 325
7 1665 4
7 1666 4
7 1667 1
7 1668 1541
7 1669 3
7 1670 5
7 1671 2
7 1672 4
7 1673 2256
7 1674 3
7 1675 6
7 1676 11
7 1677 1
7 1678 6
7 1679 8
7 1681 353
7 1682 3
7 1683 3
7 1684 2
7 1685 3
7 1686 1019
7 1687 3
7 1688 2
7 1689 12
7 1690 2
7 1691 3
7 1692 2
7 1693 7
7 1694 41
7 1695 4
7 1696 3
7 1697 2
7 1699 1
7 1700 59
7 1701 1
7 1702 5
7 1703 2
7 1704 2
7 1706 2
7 1707 394
7 1709 4
7 1710 651
7 1711 5
7 1712 4
7 1713 4
7 1714 4
7 1715 2
7 1716 2
7 1717 6
7 1718 1
7 1719 4
7 1720 6
7 1721 6
7 1722 6
7 1723 1
7 1724 1519
7 1725 5
7 1726 6
7 1727 5
7 1728 1
7 1729 1
7 1730 6
7 1731 7
7 1732 2
7 1734 431
7 1738 11
7 1739 10
7 1740 6
7 1741 5
7 1742 3
7 1743 2
7 1744 1624
7 1745 3
7 1747 4
7 1748 3
7 1749 6
7 1750 1
7 1751 1
7 1752 2
7 1753 5
7 1754 3
7 1755 7
7 1756 5
7 1757 3
7 1758 1
7 1759 891
7 1760 3
7 1761 4
7 1762 1798
7 1763 9
7 1764 4
7 1765 1
7 1766 2
7 1767 4
7 1768 324
7 1769 6
7 1770 2
7 1771 5
7 1772 4
7 1773 13
7 1774 8
7 1777 7
7 1778 8
7 1779 836
7 1780 506
7 1781 6
7 1782 7
7 1783 14
7 1785 3
7 1786 1
7 1787 8
7 1788 6
7 1789 1220
7 1790 4
7 1791 5
7 1792 1
7 1793 3
7 1794 5
7 1795 4
7 1796 7
7 1797 2866
7 1799 7
7 1800 11
7 1801 9
7 1802 4
7 1803 1
7 1804 5
7 1805 1
7 1806 2
7 1807 5
7 1809 3
7 1810 2
7 1811 3
7 1812 2
7 1813 309
7 1814 4
7 1815 2
7 1816 1
7 1817 1
7 1818 2
7 1819 1
7 1820 2
7 1821 413
7 1822 7
7 1823 4
7 1824 455
7 1825 7
7 1826 1
7 1827 9
7 1828 1771
7 1829 3
7 1830 12
7 1831 3
7 1832 2
7 1833 388
7 1834 4
7 1835 3
7 1836 7
7 1837 1
7 1838 4
7 1839 3
7 1840 10
7 1841 4
7 1842 1
7 1843 2
7 1844 4
7 1846 1
7 1848 4
7 1850 2
7 1851 1
7 1852 5
7 1853 91
7 1854 4
7 1855 11
7 1856 435
7 1857 631
7 1858 463
7 1859 5
7 1862 8
7 1863 1
7 1864 5
7 1865 3
7 1866 11
7 1867 10
7 1868 2
7 1869 897
7 1871 10
7 1872 1
7 1874 4
7 1875 455
7 1876 2
7 1877 1
7 1878 2
7 1879 277
7 1880 2
7 1881 10
7 1882 2
7 1884 3
7 1885 1
7 1886 6
7 1887 1509
7 1888 2
7 1889 5
7 1890 3
7 1891 1
7 1892 11
7 1893 5
7 1894 4
7 1895 3
7 1896 3
7 1897 5
7 1898 14
7 1901 430
7 1902 519
7 1903 2
7 1904 8
7 1905 4
7 1906 3
7 1907 5
7 1908 4
7 1909 5
7 1910 6
7 1911 828
7 1912 590
7 1913 2
7 1914 4
7 1915 1
7 1916 4
7 1917 1329
7 1918 1
7 1919 3
7 1920 5
7 1921 227
7 1922 8
7 1923 4
7 1924 666
7 1925 2
7 1926 1
7 1927 233
7 1928 2
7 1929 4
7 1930 5
7 1931 329
7 1933 3
7 1934 1693
7 1935 3
7 1936 2
7 1937 9
7 1938 2
7 1939 2
7 1940 3
7 1941 625
7 1942 3
7 1943 6
7 1944 17
7 1945 5
7 1946 1
7 1947 4
7 1948 6
7 1949 6
7 1950 267
7 1951 764
7 1952 432
7 1953 8
7 1954 3
7 1955 761
7 1956 3
7 1957 5
7 1960 2
7 1961 3
7 1962 508
7 1963 7
7 1964 2
7 1965 1
7 1966 5
7 1968 8
7 1969 7
7 1970 2
7 1971 655
7 1972 5
7 1973 4
7 1974 7
7 1975 6
7 1976 1
7 1977 1
7 1978 3
7 1979 3
7 1980 7
7 1981 6
7 1982 2
7 1984 10
7 1985 1
7 1986 2
7 1987 1
7 1988 10
7 1989 1
7 1990 3375
7 1991 1
7 1992 65
7 1993 3
7 1994 3
7 1995 241
7 1996 2
7 1997 9
7 1998 2
7 1999 3
7 2000 3
7 2001 640
7 2002 2
7 2003 7
7 2004 3
7 2005 4
7 2006 309
7 2007 13
7 2008 2
7 2009 2
7 2011 1045
7 2013 5
7 2014 3
7 2015 7
7 2016 3
7 2017 209
7 2018 2
7 2019 2
7 2020 3
7 2021 1
7 2022 12
7 2023 3
7 2024 3
7 2025 336
7 2026 2
7 2027 2
7 2028 4
7 2029 3
7 2030 2
7 2031 7
7 2032 6
7 2033 5
7 2034 1
7 2035 2001
7 2036 17
7 2037 3
7 2038 6
7 2039 1
7 2040 5
7 2041 4
7 2042 1
7 2043 6
7 2044 6
7 2045 5
7 2046 373
7 2047 1
7 2048 432
7 2049 8
7 2051 1
7 2052 1
7 2053 2
7 2054 2
7 2055 6
7 2056 1
7 2057 1017
7 2058 3
7 2061 2
7 2063 7
7 2064 3
7 2065 5
7 2066 2
7 2067 4
7 2068 4
7 2069 3
7 2070 7
7 2071 2427
7 2072 1
7 2073 4
7 2074 1
7 2075 7
7 2077 5
7 2078 4
7 2079 1
7 2081 10
7 2082 3
7 2083 4
7 2084 5
7 2085 4
7 2086 3
7 2087 2
7 2088 5
7 2089 3
7 2090 1
7 2091 5
7 2092 540
7 2093 12
7 2094 3
7 2095 3
7 2096 5
7 2097 5
7 2098 8
7 2100 3
7 2101 3
7 2102 916
7 2103 4
7 2104 696
7 2105 2
7 2106 1
7 2107 1
7 2108 423
7 2109 3
7 2110 3
7 2111 4
7 2112 74
7 2113 3
7 2114 1
7 2116 2
7 2117 2
7 2118 686
7 2120 4
7 2121 12
7 2124 477
7 2125 8
7 2126 2
7 2127 3
7 2128 2
7 2130 587
7 2132 4
7 2133 1
7 2134 35
7 2135 7
7 2136 2
7 2137 1
7 2138 2
7 2139 7
7 2140 2
7 2142 14
7 2143 4
7 2144 1
7 2145 300
7 2146 371
7 2147 5
7 2148 4
7 2149 3
7 2150 5
7 2151 2
7 2152 4
7 2153 2
7 2155 2
7 2156 5
7 2157 2
7 2158 5
7 2159 4
7 2160 2
7 2161 230
7 2162 5
7 2163 3
7 2164 7
7 2165 1
7 2166 3
7 2167 2
7 2168 2
7 2169 6
7 2171 1457
7 2172 13
7 2174 3
7 2175 395
7 2176 4
7 2178 2
7 2179 20
7 2180 1
7 2181 3
7 2184 4
7 2185 3
7 2186 9
7 2187 1
7 2188 6
7 2189 12
7 2191 3
7 2192 1
7 2193 1
7 2194 4
7 2195 4
7 2196 1
7 2197 17
7 2198 1
7 2199 2
7 2201 4
7 2203 3
7 2205 46
7 2206 811
7 2207 2
7 2208 1
7 2209 1
7 2210 5
7 2211 6
7 2212 2
7 2213 2
7 2214 2
7 2215 2
7 2216 2
7 2217 2
7 2218 1
7 2219 4
7 2220 1601
7 2221 10
7 2222 4
7 2223 1
7 2224 1
7 2225 176
7 2226 1
7 2227 2
7 2228 1371
7 2229 25
7 2230 9
7 2231 4
7 2232 2
7 2233 5
7 2234 2
7 2235 232
7 2236 2
7 2237 7
7 2238 4
7 2239 5
7 2240 1
7 2241 383
7 2242 2
7 2243 3
7 2244 3
7 2245 1
7 2246 5
7 2247 6
7 2248 2
7 2249 1
7 2250 5
7 2251 254
7 2253 2
7 2254 4
7 2255 10
7 2256 2
7 2257 3
7 2258 3
7 2259 4
7 2260 18
7 2261 7
7 2262 8
7 2263 6
7 2264 6
7 2265 2
7 2266 5
7 2267 5
7 2268 4
7 2269 7
7 2270 8
7 2271 4
7 2272 2
7 2273 3
7 2274 4
7 2275 3
7 2276 3
7 2277 5
7 2278 2
7 2279 1085
7 2280 4
7 2281 4
7 2282 176
7 2283 883
7 2284 5
7 2286 3
7 2287 9
7 2288 1
7 2289 2
7 2290 6
7 2291 8
7 2292 6
7 2293 1
7 2294 3
7 2295 857
7 2296 6
7 2297 401
7 2298 2
7 2299 10
7 2300 6
7 2302 7
7 2303 7
7 2304 2
7 2307 1
7 2308 10
7 2309 2
7 2311 596
7 2312 433
7 2313 2
7 2314 3
7 2315 3
7 2317 231
7 2318 680
7 2320 6
7 2321 3
7 2322 117
7 2323 9
7 2324 1
7 2325 2087
7 2326 1455
7 2327 409
7 2328 4
7 2329 5
7 2330 4
7 2331 931
7 2332 2
7 2333 4
7 2334 8
7 2335 4
7 2336 5
7 2337 1
7 2338 2
7 2339 1
7 2340 249
7 2341 3
7 2342 2
7 2343 8
7 2344 3
7 2345 193
7 2348 5
7 2349 1
7 2350 1
7 2351 2
7 2352 4
7 2353 8
7 2354 2
7 2355 4
7 2356 3
7 2357 5
7 2358 2
7 2359 3
7 2360 12
7 2361 6
7 2362 4
7 2363 119
7 2364 690
7 2365 6
7 2366 9
7 2367 5
7 2368 6
7 2369 3
7 2370 9
7 2371 15
7 2372 581
7 2373 226
7 2374 4
7 2375 251
7 2376 4
7 2378 3
7 2379 3
7 2380 34
7 2381 15
7 2382 3
7 2383 7
7 2385 8
7 2386 4
7 2387 3
7 2388 3
7 2391 3
7 2392 8
7 2393 3
7 2394 3
7 2396 11
7 2397 3
7 2398 5
7 2399 66
7 2400 2
7 2401 995
7 2402 1
7 2403 1
7 2404 12
7 2405 7
7 2406 7
7 2407 2
7 2408 3
7 2409 11
7 2410 4
7 2411 3
7 2412 2
7 2413 6
7 2414 1535
7 2415 6
7 2416 2457
7 2417 5
7 2418 2
7 2419 8
7 2420 5
7 2421 3
7 2422 3
7 2424 3
7 2425 53
7 2426 4
7 2427 3
7 2428 1
7 2429 2
7 2430 4
7 2431 1
7 2432 1
7 2433 579
7 2434 6
7 2435 3
7 2436 10
7 2437 1
7 2438 8
7 2439 4
7 2440 6
7 2441 1
7 2442 3
7 2443 4
7 2444 10
7 2445 570
7 2447 1
7 2448 588
7 2449 1
7 2450 4
7 2451 2
7 2452 2
7 2453 1
7 2454 6
7 2455 2
7 2456 1
7 2457 778
7 2458 1022
7 2459 834
7 2460 5
7 2461 6
7 2462 1
7 2463 2
7 2464 6
7 2465 5
7 2466 4
7 2467 2
7 2468 2
7 2469 1
7 2470 1
7 2471 2
7 2473 9
7 2474 2
7 2475 2
7 2476 3
7 2478 3
7 2479 35
7 2480 4
7 2481 2
7 2482 6
7 2483 2
7 2484 321
7 2485 6
7 2486 4
7 2487 3
7 2488 5
7 2489 1
7 2490 6
7 2491 3
7 2492 5
7 2493 1
7 2494 3
7 2495 7
7 2496 10
7 2497 3
7 2498 1
7 2499 13
7 2500 7
7 2501 10
7 2502 2
7 2503 371
7 2504 382
7 2505 3
7 2506 2
7 2507 5
7 2508 1
7 2509 38
7 2510 5
7 2511 7
7 2512 2
7 2513 1
7 2514 2
7 2515 3
7 2517 2
7 2518 431
7 2519 4
7 2520 2
7 2521 2
7 2522 16
7 2523 4
7 2524 7
7 2525 4
7 2526 2
7 2527 1004
7 2528 8
7 2530 5
7 2531 4
7 2532 8
7 2533 567
7 2534 469
7 2535 2
7 2537 4
7 2538 5
7 2539 10
7 2540 4
7 2541 5
7 2542 423
7 2543 8
7 2544 8
7 2545 3
7 2546 5
7 2547 2
7 2548 4
7 2549 7
7 2550 2337
7 2552 1
7 2553 1357
7 2554 6
7 2555 10
7 2556 728
7 2557 528
7 2558 3
7 2560 2
7 2562 2
7 2563 4
7 2564 4
7 2565 3
7 2566 2
7 2567 3
7 2568 1
7 2569 4
7 2570 3
7 2571 13
7 2572 3
7 2573 4
7 2574 9
7 2575 426
7 2577 293
7 2578 1084
7 2579 3
7 2581 296
7 2582 6
7 2583 536
7 2584 3
7 2586 6
7 2587 2
7 2588 6
7 2589 2
7 2590 11
7 2591 6
7 2592 8
7 2593 1160
7 2594 3
7 2595 2
7 2596 2
7 2597 4
7 2598 5
7 2600 7
7 2601 2
7 2602 2
7 2603 810
7 2604 814
7 2605 533
7 2606 1
7 2607 7
7 2609 2
7 2610 1
7 2611 10
7 2612 7
7 2613 3
7 2614 3
7 2615 2
7 2616 4
7 2617 2
7 2618 921
7 2619 1
7 2620 1
7 2622 3
7 2623 3
7 2624 2
7 2625 1228
7 2626 2
7 2627 1
7 2628 2
7 2629 18
7 2630 4
7 2631 1
7 2632 8
7 2633 1
7 2634 6
7 2635 2
7 2636 2
7 2638 4
7 2639 5
7 2640 1
7 2641 2
7 2642 1
7 2643 6
7 2644 2
7 2645 3
7 2646 2
7 2647 2
7 2648 1280
7 2649 6
7 2651 3
7 2652 447
7 2653 1
7 2654 7
7 2655 16
7 2656 9
7 2657 1
7 2658 491
7 2659 1931
7 2660 5
7 2661 6
7 2662 22
7 2663 617
7 2664 3
7 2666 1
7 2667 1
7 2668 851
7 2669 3
7 2670 2
7 2671 2
7 2672 22
7 2673 7
7 2674 4
7 2675 3
7 2676 1624
7 2677 3
7 2678 3
7 2679 4
7 2680 8
7 2681 1
7 2682 3
7 2684 3
7 2685 2
7 2686 3
7 2687 250
7 2688 381
7 2689 6
7 2690 720
7 2691 6
7 2692 1645
7 2693 859
7 2694 1
7 2695 4
7 2696 2
7 2697 5
7 2698 897
7 2699 486
7 2700 6
7 2701 4
7 2704 3
7 2705 493
7 2706 23
7 2707 1
7 2708 5
7 2709 5
7 2710 1
7 2711 1324
7 2712 15
7 2713 4
7 2714 337
7 2715 120
7 2716 5
7 2717 3
7 2718 2
7 2719 4
7 2721 4
7 2722 18
7 2723 2
7 2724 38
7 2725 631
7 2726 1
7 2727 3
7 2728 2
7 2729 3
7 2730 1
7 2731 125
7 2732 6
7 2733 1
7 2735 5
7 2737 3
7 2738 9
7 2739 989
7 2740 6
7 2741 460
7 2742 9
7 2743 4
7 2744 1
7 2745 3
7 2746 246
7 2747 3
7 2748 2
7 2749 244
7 2751 2
7 2752 621
7 2753 11
7 2754 1
7 2755 3
7 2756 2
7 2757 4
7 2758 2
7 2759 15
7 2760 6
7 2761 3
7 2762 2
7 2763 473
7 2765 1
7 2766 5
7 2767 456
7 2768 2
7 2769 2
7 2770 5
7 2771 781
7 2772 472
7 2773 1
7 2774 34
7 2775 4
7 2776 234
7 2777 4
7 2778 2
7 2779 13
7 2780 29
7 2781 221
7 2782 2
7 2783 5
7 2784 6
7 2785 2
7 2786 3
7 2787 2
7 2788 488
7 2789 6
7 2790 17
7 2791 3
7 2792 9
7 2793 3
7 2794 4
7 2795 4
7 2796 968
7 2797 4
7 2798 1
7 2799 4
7 2801 2
7 2802 4
7 2803 1
7 2804 5
7 2805 361
7 2807 850
7 2809 9
7 2810 3
7 2811 2
7 2812 3
7 2813 540
7 2814 3
7 2815 2
7 2816 7
7 2817 6
7 2818 7
7 2819 9
7 2820 1
7 2821 4
7 2822 2
7 2823 755
7 2824 525
7 2825 36
7 2826 5
7 2827 3
7 2828 2
7 2829 8
7 2830 3
7 2831 9
7 2832 7
7 2833 4
7 2834 28
7 2835 1445
7 2836 7
7 2837 4
7 2838 5
7 2839 13
7 2840 1
7 2841 3
7 2843 499
7 2844 275
7 2845 2
7 2846 2
7 2847 3
7 2848 2
7 2849 2
7 2851 3
7 2852 683
7 2853 4
7 2855 3
7 2856 483
7 2857 5
7 2858 5
7 2859 5
7 2861 4
7 2862 4
7 2863 5
7 2864 5
7 2865 7
7 2867 7
7 2868 482
7 2869 7
7 2870 12
7 2871 16
7 2872 2
7 2873 2
7 2874 2
7 2875 7
7 2876 5
7 2877 3
7 2878 10
7 2879 6
7 2880 2
7 2881 2
7 2882 6
7 2883 13
7 2884 2
7 2885 10
7 2887 1
7 2888 4
7 2889 1
7 2890 1
7 2891 9
7 2892 9
7 2893 1
7 2894 2
7 2895 23
7 2896 5
7 2897 5
7 2898 1405
7 2899 8
7 2900 4
7 2901 3
7 2902 5
7 2903 5
7 2905 5
7 2906 750
7 2907 4
7 2908 3
7 2909 61
7 2910 8
7 2911 2
7 2912 4
7 2913 7
7 2914 6
7 2915 3
7 2916 6
7 2917 898
7 2918 10
7 2920 5
7 2921 1
7 2922 1
7 2923 2
7 2924 6
7 2925 679
7 2926 1
7 2927 2
7 2928 2
7 2929 2
7 2930 1637
7 2931 7
7 2932 296
7 2933 2
7 2934 3
7 2935 1532
7 2936 5
7 2937 3
7 2938 310
7 2939 822
7 2940 6
7 2942 1409
7 2943 10
7 2944 684
7 2945 960
7 2946 2
7 2947 244
7 2948 1
7 2949 5
7 2950 3
7 2951 2
7 2952 155
7 2953 11
7 2954 2
7 2955 1
7 2956 6
7 2957 2
7 2958 2
7 2959 3
7 2960 3
7 2961 135
7 2962 3
7 2963 1252
7 2964 1
7 2965 2
7 2966 3
7 2968 944
7 2969 6
7 2970 4
7 2971 5
7 2972 3
7 2973 3
7 2974 2
7 2975 727
7 2976 8
7 2977 3
7 2978 5
7 2979 23
7 2980 3
7 2981 2
7 2982 914
7 2983 4
7 2984 3
7 2985 3
7 2986 8
7 2987 5
7 2988 8
7 2989 1
7 2990 2
7 2991 331
7 2992 24
7 2993 2
7 2994 3
7 2995 8
7 2996 5
7 2997 4
7 2999 594
7 3000 3
7 3001 6
7 3003 2
7 3004 5
7 3005 5
7 3006 2
7 3008 2
7 3009 6
7 3010 3
7 3011 9
7 3012 1
7 3013 159
7 3014 4
7 3015 3
7 3016 5
7 3017 3
7 3018 4
7 3019 4
7 3021 1597
7 3023 18
7 3024 2
7 3025 3
7 3026 5
7 3027 10
7 3028 5
7 3029 4
7 3030 7
7 3031 2
7 3032 16
7 3033 7
7 3034 22
7 3035 3
7 3036 5
7 3037 831
7 3038 3
7 3039 50
7 3040 4
7 3041 5
7 3042 5
7 3044 1
7 3045 1
7 3046 1
7 3047 1
7 3048 5
7 3049 3
7 3050 1
7 3051 2
7 3052 7
7 3053 10
7 3054 4
7 3055 508
7 3056 1
7 3057 2
7 3058 2
7 3059 4
7 3060 3
7 3061 1
7 3063 4
7 3064 2
7 3065 13
7 3066 2
7 3068 2
7 3069 1186
7 3070 11
7 3071 7
7 3072 1
7 3073 7
7 3074 1371
7 3075 4
7 3076 44
7 3077 4
7 3078 9
7 3079 526
7 3080 3
7 3081 1
7 3083 4
7 3084 5
7 3085 3
7 3087 7
7 3088 7
7 3089 476
7 3090 15
7 3091 3
7 3092 3
7 3093 2
7 3094 6
7 3095 12
7 3096 2
7 3097 3
7 3098 1
7 3099 5
7 3100 1
7 3101 3
7 3103 4
7 3104 497
7 3105 3
7 3106 2
7 3107 2
7 3108 1
7 3109 5
7 3110 2
7 3111 5
7 3112 8
7 3113 12
7 3114 2
7 3115 502
7 3116 7
7 3117 4
7 3118 1
7 3119 7
7 3120 644
7 3121 3
7 3122 1373
7 3123 4
7 3124 293
7 3125 4
7 3126 2
7 3127 1
7 3128 20
7 3129 4
7 3131 1494
7 3132 4
7 3133 3
7 3135 4
7 3136 28
7 3137 5
7 3138 824
7 3139 3
7 3140 404
7 3141 1
7 3142 12
7 3143 7
7 3144 2
7 3146 4
7 3147 4
7 3149 5
7 3150 4
7 3151 3
7 3152 4
7 3153 654
7 3154 2
7 3155 4
7 3156 1
7 3157 2
7 3158 2
7 3159 1
7 3160 8
7 3161 2
7 3162 1888
7 3163 2
7 3165 5
7 3166 26
7 3167 520
7 3168 8
7 3169 4
7 3170 3
7 3171 4
7 3172 1
7 3173 266
7 3174 4
7 3175 2
7 3176 3
7 3177 2
7 3178 4
7 3180 3
7 3181 4
7 3182 7
7 3183 4
7 3184 907
7 3185 4
7 3186 1
7 3187 213
7 3188 16
7 3189 9
7 3190 6
7 3191 6
7 3192 6
7 3193 2
7 3194 3
7 3195 2
7 3196 3
7 3197 600
7 3198 3
7 3199 415
7 3200 2
7 3201 404
7 3202 1317
7 3203 6
7 3204 6
7 3205 4
7 3206 3
7 3207 9
7 3208 2
7 3209 4
7 3210 1375
7 3211 2
7 3212 1
7 3213 6
7 3214 4
7 3215 9
7 3216 4
7 3217 3
7 3218 2
7 3219 2
7 3220 818
7 3221 3
7 3222 1
7 3223 1
7 3224 5
7 3225 2
7 3226 5
7 3227 5
7 3228 1
7 3229 2
7 3230 3
7 3231 4
7 3232 2
7 3233 5
7 3234 4
7 3236 2
7 3237 1489
7 3238 4
7 3239 5
7 3240 3
7 3241 2433
7 3242 21
7 3243 5
7 3244 2
7 3245 5
7 3246 1810
7 3247 4
7 3248 1
7 3249 5
7 3250 2
7 3251 10
7 3252 3
7 3253 82
7 3254 21
7 3255 3
7 3256 1146
7 3257 3
7 3258 7
7 3259 5
7 3260 4
7 3261 9
7 3262 3
7 3263 45
7 3264 526
7 3265 3
7 3266 5
7 3267 4
7 3268 406
7 3269 2
7 3270 1
7 3271 5
7 3272 3
7 3273 7
7 3274 2
7 3275 443
7 3276 819
7 3277 522
7 3278 665
7 3279 7
7 3281 499
7 3282 6
7 3283 1226
7 3285 3
7 3286 7
7 3287 4
7 3288 1133
7 3289 2
7 3290 2
7 3291 2577
7 3292 2
7 3293 2
7 3294 4
7 3295 389
7 3296 9
7 3297 2
7 3298 738
7 3299 1
7 3300 5
7 3302 6
7 3303 2
7 3304 4
7 3305 1
7 3306 4
7 3307 5
7 3308 3
7 3310 11
7 3311 857
7 3312 4
7 3313 4
7 3314 3
7 3315 1073
7 3316 3
7 3317 1417
7 3319 2
7 3320 1
7 3321 5
7 3322 6
7 3323 7
7 3324 5
7 3325 4
7 3326 8
7 3327 4
7 3328 11
7 3329 5
7 3331 1
7 3332 520
7 3333 3
7 3334 11
7 3335 4
7 3337 6
7 3338 457
7 3339 385
7 3340 4
7 3341 11
7 3342 9
7 3344 4
7 3345 1
7 3346 1
7 3347 31
7 3348 337
7 3349 7
7 3350 4
7 3351 4
7 3352 1
7 3353 3
7 3354 8
7 3355 330
7 3356 273
7 3357 7
7 3358 5
7 3359 3
7 3360 1
7 3361 2
7 3362 2
7 3363 978
7 3364 546
7 3365 3
7 3366 1
7 3367 1
7 3368 2
7 3370 2
7 3371 1
7 3372 2
7 3373 1
7 3374 1
7 3375 14
7 3376 1
7 3377 6
7 3378 9
7 3380 2
7 3381 2
7 3382 1
7 3383 6
7 3384 3
7 3385 8
7 3386 6
7 3387 2
7 3388 4
7 3389 5
7 3390 8
7 3391 3
7 3392 6
7 3393 1
7 3394 3
7 3395 1
7 3396 1038
7 3397 7
7 3398 4
7 3399 3
7 3401 4
7 3402 4
7 3403 7
7 3404 3
7 3405 3
7 3407 5
7 3408 4
7 3409 895
7 3410 1
7 3411 3
7 3413 5
7 3414 2
7 3415 10
7 3416 2
7 3417 9
7 3418 2
7 3419 3
7 3420 5
7 3421 4
7 3422 4
7 3423 4
7 3424 766
7 3425 4
7 3426 2
7 3427 2
7 3428 1853
7 3429 5
7 3430 5
7 3431 6
7 3432 7
7 3433 1
7 3434 3
7 3435 1
7 3436 421
7 3437 6
7 3438 9
7 3439 8
7 3440 5
7 3441 587
7 3442 4
7 3443 2
7 3444 1301
7 3445 1
7 3446 390
7 3447 7
7 3448 4
7 3449 4
7 3450 195
7 3451 2
7 3453 2
7 3454 2
7 3455 8
7 3457 347
7 3458 1
7 3459 2
7 3460 2
7 3461 4
7 3462 3
7 3463 9
7 3464 2
7 3465 2
7 3466 383
7 3467 2
7 3469 3
7 3470 2
7 3471 4
7 3472 1
7 3473 3
7 3474 2
7 3475 1786
7 3476 1
7 3477 13
7 3478 4
7 3479 4
7 3480 1
7 3481 4
7 3482 396
7 3483 8
7 3484 12
7 3485 1
7 3486 6
7 3489 4
7 3490 333
7 3491 1
7 3492 5
7 3493 8
7 3494 1
7 3495 844
7 3496 2
7 3497 3
7 3498 4
7 3499 2
7 3500 4
7 3501 1
7 3502 1
7 3503 1
7 3504 2
7 3505 2
7 3506 815
7 3507 3
7 3508 4
7 3509 3
7 3510 4
7 3511 3
7 3512 3
7 3513 2
7 3514 2
7 3515 3
7 3516 3
7 3517 5
7 3518 1
7 3519 5
7 3520 9
7 3521 2
7 3522 547
7 3523 1194
7 3524 3
7 3525 3
7 3526 2
7 3527 2
7 3528 5
7 3530 3
7 3531 3
7 3532 3
7 3533 3
7 3534 4
7 3535 4
7 3536 3
7 3537 3
7 3538 3
7 3539 4
7 3540 21
7 3542 2
7 3543 4
7 3544 10
7 3546 7
7 3547 1
7 3548 5
7 3549 4
7 3550 4
7 3552 2
7 3553 4
7 3554 2
7 3555 5
7 3556 4
7 3557 3
7 3558 2
7 3559 2
7 3560 2
7 3561 7
7 3562 7
7 3563 5
7 3564 1
7 3565 2
7 3566 8
7 3567 3
7 3568 5
7 3569 4
7 3570 3
7 3571 7
7 3572 620
7 3573 501
7 3574 1
7 3575 2
7 3576 2
7 3577 4
7 3578 1413
7 3579 3
7 3580 173
7 3581 4
7 3582 1
7 3583 2
7 3586 634
7 3587 2
7 3588 2573
7 3589 741
7 3590 3
7 3591 1
7 3592 4
7 3593 6
7 3594 11
7 3595 3
7 3596 3
7 3597 4
7 3598 1
7 3599 1012
7 3601 9
7 3602 5
7 3603 6
7 3604 1917
7 3605 555
7 3606 4
7 3607 4
7 3608 5
7 3609 5
7 3610 7
7 3611 1
7 3612 16
7 3613 3
7 3614 4
7 3615 3
7 3617 2
7 3618 4
7 3619 7
7 3620 7
7 3621 249
7 3622 862
7 3623 3
7 3624 8
7 3625 2
7 3626 3
7 3627 4
7 3628 214
7 3629 2
7 3630 2
7 3631 10
7 3632 4
7 3633 1
7 3634 5
7 3635 3
7 3636 2409
7 3637 3
7 3638 2
7 3640 9
7 3641 7
7 3642 1
7 3643 4
7 3644 4
7 3645 4
7 3646 5
7 3647 2
7 3648 1505
7 3649 5
7 3650 5
7 3651 1247
7 3652 3
7 3653 5
7 3654 3
7 3656 3
7 3657 6
7 3658 5
7 3659 5
7 3660 537
7 3661 959
7 3662 3
7 3663 5
7 3664 4
7 3665 1
7 3666 1
7 3667 2604
7 3668 4
7 3669 1
7 3670 374
7 3671 3
7 3672 1114
7 3673 5
7 3674 4
7 3675 4
7 3676 2
7 3677 2
7 3678 1
7 3679 4
7 3680 1
7 3681 3
7 3682 3
7 3683 1
7 3686 3
7 3687 1
7 3688 5
7 3689 1393
7 3690 9
7 3691 13
7 3692 1354
7 3693 3
7 3694 9
7 3695 889
7 3696 4
7 3697 3
7 3698 1
7 3699 3
7 3700 4
7 3703 3
7 3704 1
7 3705 2
7 3706 3
7 3707 17
7 3708 2
7 3709 1
7 3710 3
7 3711 3
7 3712 5
7 3713 4
7 3714 11
7 3715 1574
7 3716 5
7 3717 7
7 3718 199
7 3719 4
7 3720 14
7 3721 4
7 3722 7
7 3723 7
7 3724 5
7 3725 4
7 3726 5
7 3727 3
7 3728 2
7 3729 7
7 3730 2
7 3731 3
7 3732 1
7 3733 4
7 3734 4
7 3735 1253
7 3736 3
7 3737 3
7 3738 3
7 3739 4
7 3740 102
7 3741 684
7 3742 378
7 3743 3
7 3744 3
7 3745 8
7 3746 4
7 3747 5
7 3748 1
7 3751 4
7 3752 4
7 3753 2
7 3754 5
7 3756 1
7 3757 36
7 3758 741
7 3759 184
7 3761 5
7 3762 1195
7 3763 7
7 3764 3
7 3765 3
7 3766 2
7 3768 13
7 3769 3
7 3770 3
7 3771 4
7 3772 352
7 3773 6
7 3774 9
7 3775 1
7 3776 1
7 3777 4
7 3778 5
7 3779 4
7 3780 2
7 3781 10
7 3782 2
7 3783 1328
7 3784 9
7 3785 2
7 3786 2
7 3787 4
7 3788 6
7 3790 1
7 3791 5
7 3792 2
7 3793 9
7 3794 4
7 3795 826
7 3796 858
7 3797 641
7 3798 3
7 3799 4
7 3800 5
7 3801 3
7 3802 5
7 3803 574
7 3804 4
7 3805 5
7 3806 1
7 3807 3
7 3808 3
7 3809 13
7 3810 471
7 3812 3
7 3813 10
7 3814 4
7 3815 130
7 3816 8
7 3817 5
7 3818 3
7 3819 6
7 3821 8
7 3822 2
7 3823 13
7 3824 3
7 3826 10
7 3827 261
7 3828 4
7 3829 10
7 3830 12
7 3831 9
7 3832 2
7 3834 5
7 3835 28
7 3836 3
7 3837 4
7 3838 2
7 3839 2
7 3840 126
7 3841 1
7 3842 4
7 3843 6
7 3845 6
7 3846 3
7 3847 5
7 3848 3
7 3849 2
7 3850 4
7 3851 960
7 3852 228
7 3853 787
7 3854 923
7 3856 3
7 3857 473
7 3859 7
7 3861 394
7 3862 2
7 3863 1
7 3864 105
7 3865 21
7 3866 2
7 3867 1
7 3869 13
7 3870 889
7 3871 2
7 3872 6
7 3873 2
7 3874 4
7 3875 2
7 3876 1691
7 3877 212
7 3878 3
7 3879 2
7 3880 357
7 3881 4
7 3882 2
7 3883 5
7 3884 10
7 3885 3
7 3886 5
7 3887 2069
7 3888 1
7 3889 2
7 3890 7
7 3891 5
7 3892 2
7 3893 2
7 3895 2
7 3896 4
7 3898 20
7 3899 11
7 3900 12
7 3901 435
7 3902 2
7 3903 2
7 3904 6
7 3905 2
7 3906 9
7 3907 8
7 3908 5
7 3909 2
7 3910 4
7 3911 456
7 3912 20
7 3913 8
7 3914 2
7 3915 5
7 3916 6
7 3917 1368
7 3918 2
7 3919 5
7 3920 3
7 3922 2
7 3923 2
7 3924 3
7 3925 4
7 3926 426
7 3927 3
7 3928 3
7 3929 3
7 3930 7
7 3931 8
7 3932 4
7 3934 3
7 3936 5
7 3937 1264
7 3938 453
7 3939 3
7 3940 12
7 3941 251
7 3942 3
7 3943 5
7 3944 3
7 3946 882
7 3947 2
7 3948 4
7 3949 5
7 3950 2
7 3951 434
7 3952 2
7 3953 1
7 3954 4
7 3955 5
7 3956 2
7 3957 5
7 3958 512
7 3959 9
7 3960 2
7 3961 6
7 3962 214
7 3963 793
7 3965 1
7 3966 5
7 3967 1642
7 3968 5
7 3969 3
7 3970 383
7 3972 2
7 3973 50
7 3974 5
7 3975 6
7 3978 4
7 3979 9
7 3980 5
7 3981 31
7 3982 9
7 3983 9
7 3984 2
7 3985 4
7 3986 1
7 3987 15
7 3988 13
7 3989 6
7 3990 6
7 3991 6
7 3992 5
7 3993 5
7 3994 7
7 3995 301
7 3996 2
7 3997 1
7 3998 11
7 4000 883
7 4001 402
7 4002 4
7 4003 15
7 4004 1
7 4005 1
7 4006 5
7 4007 3
7 4009 36
7 4010 3
7 4011 2
7 4012 759
7 4013 539
7 4014 6
7 4015 4
7 4016 344
7 4017 2
7 4018 2
7 4019 1
7 4020 3
7 4021 11
7 4022 1
7 4023 1
7 4024 3
7 4025 349
7 4027 3
7 4028 1
7 4030 4
7 4031 7
7 4032 3
7 4033 3
7 4034 4
7 4035 4
7 4036 7
7 4037 4
7 4038 2498
7 4039 5
7 4040 2
7 4041 6
7 4042 1
7 4043 1
7 4044 2
7 4046 7
7 4047 3
7 4048 3
7 4049 2
7 4050 4
7 4051 9
7 4052 2
7 4053 747
7 4054 1
7 4055 3
7 4056 2
7 4057 11
7 4058 7
7 4059 7
7 4060 2
7 4061 2
7 4062 4
7 4063 7
7 4064 4
7 4065 2
7 4066 1
7 4068 4
7 4069 4
7 4070 310
7 4071 3
7 4072 6
7 4073 1
7 4074 1
7 4075 7
7 4076 3
7 4077 901
7 4078 8
7 4079 2
7 4080 1
7 4081 3
7 4082 2878
7 4084 1
7 4085 13
7 4086 1
7 4087 1
7 4088 3
7 4089 4
7 4090 3
7 4091 4
7 4092 19
7 4093 9
7 4094 9
7 4095 151
7 4096 1
7 4097 105
7 4099 3
7 4100 5
7 4101 3
7 4102 4
7 4103 4
7 4104 3
7 4105 2
7 4106 199
7 4107 3
7 4108 2
7 4109 1
7 4110 4
7 4111 1
7 4112 8
7 4113 2
7 4114 5
7 4116 4
7 4117 490
7 4119 4
7 4120 2672
7 4121 550
7 4122 5
7 4123 8
7 4124 3
7 4125 688
7 4126 4
7 4127 3
7 4128 7
7 4129 4
7 4130 6
7 4132 3
7 4133 2
7 4134 10
7 4135 3
7 4136 6
7 4137 1
7 4138 3709
7 4139 3
7 4140 5
7 4141 7
7 4142 7
7 4143 3
7 4144 4
7 4145 2
7 4146 7
7 4147 5
7 4148 2204
7 4149 1161
7 4152 1581
7 4153 2
7 4154 1
7 4155 10
7 4156 2
7 4157 4
7 4159 7
7 4160 8
7 4161 1
7 4162 368
7 4163 731
7 4164 368
7 4165 2
7 4166 3
7 4167 2
7 4168 14
7 4169 410
7 4171 3
7 4172 5
7 4173 1
7 4174 2
7 4175 3
7 4176 3
7 4177 5
7 4178 7
7 4179 3
7 4180 8
7 4181 1
7 4183 36
7 4184 825
7 4185 3
7 4186 2
7 4187 1
7 4188 519
7 4189 2
7 4190 2
7 4191 6
7 4192 7
7 4193 1631
7 4194 4
7 4195 1664
7 4196 4
7 4197 1620
7 4198 2
7 4199 5
7 4200 5
7 4201 3
7 4202 6
7 4203 295
7 4205 4
7 4206 5
7 4207 8
7 4208 5
7 4209 5
7 4210 7
7 4211 3
7 4212 3
7 4213 2
7 4214 1400
7 4215 2
7 4218 5
7 4219 2
7 4220 3
7 4221 6
7 4222 498
7 4223 3
7 4224 21
7 4225 2
7 4226 1
7 4227 5
7 4228 4
7 4229 1140
7 4230 3
7 4231 3
7 4232 1
7 4233 6
7 4234 2
7 4235 1
7 4236 1
7 4237 2
7 4238 669
7 4239 2
7 4240 6
7 4242 2
7 4243 916
7 4244 6
7 4245 258
7 4246 4
7 4247 13
7 4248 2
7 4249 3
7 4252 13
7 4253 5
7 4254 1101
7 4255 7
7 4257 3
7 4258 2
7 4259 4
7 4260 2
7 4261 2
7 4262 1
7 4263 516
7 4264 2
7 4265 4
7 4266 6
7 4267 5
7 4268 4
7 4269 3
7 4270 691
7 4271 5
7 4272 273
7 4273 558
7 4274 513
7 4275 2
7 4276 671
7 4277 9
7 4278 7
7 4279 3
7 4280 1
7 4281 832
7 4282 417
7 4283 3
7 4285 1
7 4286 5
7 4287 348
7 4288 4
7 4290 1
7 4291 2
7 4292 1
7 4293 1
7 4294 1326
7 4295 5
7 4296 2
7 4297 1
7 4298 6
7 4299 4
7 4300 1735
7 4302 4
7 4303 14
7 4305 6
7 4306 2083
7 4307 2
7 4308 6
7 4309 5
7 4310 2
7 4311 12
7 4312 3
7 4313 6
7 4315 3
7 4316 5
7 4318 7
7 4319 2
7 4320 2087
7 4321 4
7 4322 2
7 4323 7
7 4324 3
7 4325 11
7 4326 356
7 4328 3
7 4329 5
7 4331 1
7 4332 4
7 4333 1770
7 4334 8
7 4335 7
7 4336 2
7 4338 8
7 4339 9
7 4340 5
7 4341 2
7 4342 582
7 4343 4
7 4344 5
7 4345 6
7 4346 3
7 4347 3
7 4348 23
7 4349 4
7 4350 2
7 4351 6
7 4352 1275
7 4353 4
7 4354 10
7 4355 3
7 4356 2
7 4357 3
7 4358 4
7 4359 7
7 4360 1
7 4361 7
7 4362 6
7 4363 16
7 4364 3
7 4365 2
7 4366 2
7 4367 5
7 4368 2
7 4369 2
7 4370 5
7 4371 4
7 4372 5
7 4373 3
7 4374 7
7 4375 5
7 4376 3
7 4377 2
7 4378 3
7 4379 4
7 4380 2
7 4381 5
7 4382 3
7 4383 10
7 4384 1184
7 4385 1
7 4386 7
7 4387 4
7 4388 1
7 4389 2
7 4390 1
7 4391 2
7 4392 335
7 4393 5
7 4394 4
7 4395 1
7 4396 5
7 4397 2
7 4398 5
7 4399 9
7 4400 5
7 4401 2
7 4402 1
7 4403 5
7 4404 8
7 4406 3
7 4407 1
7 4408 1
7 4409 4
7 4410 5
7 4413 11
7 4415 2
7 4416 8
7 4417 5
7 4418 3
7 4421 188
7 4422 585
7 4423 3
7 4425 9
7 4426 12
7 4427 5
7 4428 1
7 4429 614
7 4430 42
7 4431 1476
7 4432 4
7 4433 4
7 4434 4
7 4435 2
7 4436 3
7 4437 3
7 4438 4
7 4439 5
7 4441 442
7 4442 2
7 4443 7
7 4444 2
7 4445 22
7 4446 483
7 4447 343
7 4448 36
7 4449 2
7 4450 3
7 4451 4
7 4452 2
7 4453 11
7 4454 2
7 4455 6
7 4456 4
7 4457 5
7 4458 9
7 4460 5
7 4462 7
7 4463 5
7 4464 7
7 4466 3
7 4467 4
7 4468 3
7 4469 3
7 4470 3
7 4471 2
7 4472 1832
7 4473 4
7 4474 471
7 4475 17
7 4476 7
7 4477 1
7 4478 2
7 4479 1
7 4480 1052
7 4481 591
7 4482 6
7 4483 3
7 4484 5
7 4485 2
7 4486 3
7 4487 2
7 4488 1
7 4489 235
7 4490 3
7 4491 4
7 4492 726
7 4493 5
7 4494 9
7 4495 1
7 4496 6
7 4497 1
7 4499 3
7 4500 3771
7 4501 8
7 4502 4
7 4503 2
7 4504 1
7 4505 2
7 4506 2
7 4507 2
7 4508 9
7 4509 6
7 4510 2
7 4511 1
7 4512 11
7 4513 3
7 4514 5
7 4515 3
7 4516 4
7 4517 3
7 4518 622
7 4519 5
7 4520 3
7 4521 1
7 4522 3
7 4523 535
7 4524 1532
7 4525 4
7 4526 3
7 4527 715
7 4528 4
7 4529 2
7 4530 2
7 4531 9
7 4533 3
7 4534 3
7 4536 11
7 4537 8281
7 4538 2
7 4539 48303
7 4540 8
7 4541 6
7 4542 4
7 4543 4
7 4544 2
7 4545 6
7 4546 3
7 4547 3
7 4548 2
7 4549 4
7 4550 3
7 4551 4
7 4552 3
7 4553 1
7 4554 28
7 4555 2
7 4556 10
7 4557 5
7 4558 2
7 4559 4
7 4560 173
7 4561 6
7 4562 8
7 4563 1
7 4564 7
7 4565 6
7 4566 2
7 4567 233
7 4568 4
7 4569 1
7 4570 2
7 4571 5
7 4572 7
7 4573 3
7 4574 3
7 4578 5
7 4579 8
7 4580 3
7 4582 5
7 4583 3
7 4585 4
7 4586 3
7 4587 2
7 4588 5
7 4589 11
7 4590 406
7 4591 163
7 4592 3
7 4594 1
7 4595 2
7 4596 9
7 4597 6
7 4598 4
7 4599 734
7 4600 2
7 4601 5
7 4602 2
7 4603 3
7 4604 3
7 4605 2
7 4606 3
7 4607 2
7 4608 7
7 4609 14
7 4610 8
7 4611 4
7 4612 338
7 4613 5
7 4614 1340
7 4615 4
7 4616 1
7 4617 1468
7 4618 1
7 4619 2
7 4620 267
7 4621 1
7 4623 2
7 4624 1
7 4625 3
7 4627 2
7 4628 1
7 4629 42
7 4630 5
7 4631 5
7 4632 2
7 4633 757
7 4634 3
7 4635 2
7 4636 6
7 4637 2
7 4638 2
7 4639 3
7 4640 2
7 4641 1
7 4642 5
7 4643 4
7 4644 2
7 4645 4
7 4646 13
7 4647 9
7 4648 14
7 4650 992
7 4653 4
7 4654 5
7 4655 1
7 4656 1
7 4657 5
7 4658 710
7 4659 512
7 4660 5
7 4661 1
7 4662 6
7 4663 6
7 4664 1
7 4665 1
7 4666 2
7 4667 1
7 4668 1
7 4669 2
7 4670 2
7 4671 6
7 4672 2
7 4673 6
7 4674 3
7 4675 6
7 4676 2
7 4677 2
7 4678 9
7 4679 9
7 4680 1
7 4681 5
7 4683 4
7 4684 6
7 4685 1
7 4686 1
7 4687 5
7 4688 3
7 4689 4
7 4690 3
7 4691 3
7 4692 2
7 4693 6
7 4694 4
7 4696 3
7 4697 4
7 4698 2
7 4699 4
7 4700 1
7 4702 4
7 4703 14
7 4704 3
7 4705 5
7 4706 3
7 4707 1
7 4708 16
7 4709 7
7 4711 1
7 4712 3
7 4715 3
7 4716 152
7 4717 168
7 4718 7
7 4719 3
7 4720 1564
7 4721 6
7 4722 7
7 4723 35
7 4724 5
7 4725 561
7 4726 3
7 4727 480
7 4728 1
7 4729 5
7 4730 7
7 4732 11
7 4733 3
7 4734 3
7 4735 7
7 4736 1
7 4737 5
7 4738 1
7 4739 4
7 4740 1
7 4741 4
7 4742 5
7 4743 2
7 4744 3
7 4745 3
7 4746 8
7 4747 3
7 4748 6
7 4749 16
7 4750 3
7 4752 2
7 4753 10
7 4754 4
7 4755 6
7 4756 5
7 4757 1691
7 4758 11
7 4759 5
7 4760 7
7 4761 4
7 4762 6
7 4763 3
7 4764 3
7 4766 1
7 4767 1661
7 4769 1
7 4770 1
7 4771 3
7 4772 2
7 4773 3
7 4774 2
7 4775 448
7 4776 4
7 4777 3
7 4778 6
7 4779 223
7 4780 2
7 4781 4
7 4782 5
7 4783 620
7 4785 2
7 4786 598
7 4787 5
7 4788 1069
7 4789 1155
7 4790 7
7 4792 1522
7 4793 2
7 4794 10
7 4795 291
7 4796 3
7 4797 1
7 4798 1
7 4799 3
7 4800 4
7 4801 6
7 4802 6
7 4803 3
7 4804 5
7 4805 403
7 4806 4
7 4807 8
7 4809 4
7 4810 2
7 4811 5
7 4812 4
7 4813 2
7 4814 9
7 4815 402
7 4816 371
7 4817 8
7 4818 2
7 4819 10
7 4820 3
7 4822 666
7 4823 5
7 4824 3
7 4825 1171
7 4826 3
7 4827 4
7 4828 2
7 4829 3
7 4830 2
7 4831 310
7 4832 4
7 4833 1
7 4834 3
7 4835 4
7 4836 2
7 4837 5
7 4838 396
7 4839 2
7 4840 1
7 4841 4
7 4842 6
7 4843 1
7 4844 7
7 4845 4
7 4846 4
7 4847 1254
7 4848 2
7 4849 457
7 4851 4
7 4852 2
7 4854 1
7 4855 1
7 4856 1
7 4857 3
7 4858 2
7 4859 3
7 4860 1
7 4861 1
7 4862 5
7 4863 10
7 4864 18
7 4865 8
7 4866 2332
7 4867 4
7 4868 4
7 4869 15
7 4870 3
7 4871 12
7 4872 1359
7 4873 1
7 4874 2
7 4875 4177
7 4876 1
7 4877 5
7 4878 4
7 4879 7
7 4880 20
7 4881 2
7 4882 275
7 4883 600
7 4884 4
7 4885 10
7 4887 4
7 4888 10
7 4889 2
7 4890 5
7 4891 2
7 4892 1
7 4893 9
7 4894 6
7 4896 1623
7 4897 3
7 4898 3
7 4901 2
7 4902 3
7 4903 745
7 4904 2
7 4905 9
7 4906 5
7 4907 5
7 4908 2
7 4909 2
7 4910 1
7 4911 4
7 4912 1
7 4913 4
7 4914 586
7 4915 7
7 4916 3
7 4917 2
7 4918 4
7 4919 7
7 4920 6
7 4921 3
7 4922 2
7 4923 9
7 4924 1099
7 4925 10
7 4926 2
7 4927 35
7 4928 4
7 4929 7
7 4930 8
7 4931 3
7 4932 19
7 4933 5
7 4935 1
7 4936 4
7 4937 7
7 4939 2
7 4940 4
7 4941 3
7 4942 1695
7 4943 4
7 4944 7
7 4945 5
7 4946 5
7 4947 4
7 4948 2
7 4949 17
7 4950 925
7 4951 9
7 4952 2095
7 4954 2
7 4955 3
7 4956 2
7 4957 1
7 4958 3
7 4959 1
7 4960 2
7 4961 2
7 4962 8
7 4963 610
7 4964 7
7 4965 591
7 4966 489
7 4967 462
7 4968 1178
7 4969 669
7 4970 3
7 4971 3
7 4972 402
7 4973 2
7 4974 1
7 4975 6
7 4976 3
7 4977 1
7 4978 6
7 4979 1596
7 4980 6
7 4981 1
7 4982 2
7 4984 346
7 4985 3
7 4986 1
7 4987 4
7 4989 2
7 4990 4
7 4991 1
7 4992 9
7 4993 365
7 4996 3
7 4997 29
7 4998 3
7 4999 2
7 5000 2
7 5001 3
7 5002 7
7 5003 3
7 5004 7
7 5006 1
7 5007 2
7 5008 1
7 5010 301
7 5011 2
7 5012 3
7 5013 3
7 5014 1
7 5015 4
7 5016 4
7 5017 3
7 5018 16
7 5019 5
7 5021 3
7 5022 9
7 5023 2
7 5024 389
7 5025 4
7 5026 7
7 5027 6
7 5028 3
7 5029 8
7 5030 2
7 5031 4
7 5032 2
7 5033 4
7 5034 3
7 5035 4
7 5036 3
7 5037 5
7 5038 182
7 5039 2
7 5040 487
7 5042 3
7 5043 2
7 5045 2
7 5046 2
7 5048 2
7 5049 3
7 5050 414
7 5051 1591
7 5052 9
7 5053 3
7 5054 4
7 5055 13
7 5056 3
7 5057 10
7 5058 3
7 5059 2
7 5060 9
7 5061 2
7 5062 341
7 5063 3
7 5064 570
7 5065 4
7 5066 3
7 5067 4
7 5068 13
7 5069 5
7 5072 5
7 5074 1
7 5075 4
7 5076 956
7 5077 3
7 5078 2
7 5079 6
7 5080 2
7 5081 2
7 5083 2
7 5084 3
7 5085 1
7 5086 4
7 5087 4
7 5088 2
7 5089 569
7 5090 3
7 5092 11
7 5093 10
7 5094 6
7 5095 8
7 5097 267
7 5098 1
7 5099 3
7 5100 6
7 5101 1
7 5102 6
7 5103 1
7 5104 4
7 5105 685
7 5106 299
7 5107 621
7 5108 5
7 5109 1011
7 5110 2
7 5111 2
7 5112 265
7 5113 6
7 5115 5
7 5116 2
7 5117 1
7 5118 2
7 5119 65
7 5120 2
7 5121 232
7 5123 3
7 5124 4
7 5125 2
7 5127 181
7 5128 2
7 5129 1
7 5130 301
7 5131 34
7 5132 3
7 5133 4
7 5134 3
7 5135 3
7 5136 2
7 5137 1
7 5139 9
7 5140 175
7 5141 1
7 5143 5
7 5145 4
7 5146 1
7 5147 3
7 5148 2
7 5149 3
7 5150 8
7 5152 5
7 5153 5
7 5154 1
7 5156 6
7 5157 2
7 5158 1
7 5159 585
8 1 8
8 2 2
8 3 4
8 4 2
8 5 2
8 6 4
8 9 1
8 10 1
8 11 1
8 12 2
8 14 2
8 15 56
8 16 206
8 17 6
8 18 1
8 19 19
8 20 3
8 21 4
8 22 1
8 23 4
8 24 133
8 25 2
8 26 1
8 27 4
8 28 1
8 29 97
8 30 219
8 32 2
8 33 1
8 34 4
8 35 1
8 36 4
8 37 3
8 38 2
8 40 3
8 41 2
8 45 121
8 46 3
8 48 128
8 49 1
8 50 4
8 51 3
8 52 1
8 53 2
8 55 1
8 56 123
8 57 4
8 60 1
8 61 9
8 62 2
8 63 6
8 64 3
8 65 3
8 66 2
8 67 1
8 68 6
8 69 271
8 70 1
8 71 4
8 72 5
8 73 1
8 74 3
8 75 3
8 76 5
8 77 2
8 78 1
8 79 2
8 81 1
8 83 106
8 86 2
8 87 1
8 88 3
8 89 2
8 90 1
8 91 2
8 93 4
8 94 1
8 96 1
8 97 2
8 99 1
8 100 5
8 101 1
8 102 1
8 103 1
8 104 2
8 105 3
8 106 1
8 107 6
8 108 1
8 109 2
8 110 29
8 111 131
8 112 3
8 113 4
8 114 2
8 115 18
8 116 4
8 117 1
8 118 1
8 119 1
8 120 2
8 121 11
8 122 10
8 123 2
8 124 3
8 127 2
8 129 1
8 130 1
8 131 1
8 133 6
8 135 2
8 136 1
8 137 4
8 138 1
8 139 229
8 140 2
8 141 3
8 143 6
8 144 1
8 145 3
8 146 3
8 147 1
8 148 3
8 149 1
8 151 3
8 153 2
8 154 2
8 155 111
8 157 1
8 158 15
8 159 4
8 160 158
8 162 3
8 163 3
8 165 190
8 166 6
8 167 2
8 168 3
8 169 3
8 170 2
8 171 1
8 172 1
8 173 1
8 175 1
8 176 2
8 177 340
8 178 4
8 179 2
8 180 108
8 182 1
8 184 1
8 186 4
8 187 2
8 188 1
8 189 1
8 190 1
8 192 1
8 193 5
8 194 160
8 196 1
8 198 379
8 199 3
8 200 2
8 201 1
8 202 2
8 205 8
8 206 1
8 207 1
8 208 3
8 209 1
8 210 142
8 211 3
8 212 3
8 214 64
8 215 3
8 216 16
8 217 82
8 218 1
8 219 1
8 220 2
8 221 120
8 222 5
8 223 4
8 224 2
8 225 3
8 227 2
8 230 3
8 231 3
8 232 3
8 233 259
8 234 3
8 235 3
8 236 1
8 238 2
8 239 1
8 240 2
8 241 4
8 242 4
8 243 2
8 244 2
8 245 3
8 246 315
8 247 3
8 248 2
8 249 4
8 250 4
8 251 3
8 252 2
8 253 2
8 256 156
8 258 2
8 260 2
8 261 2
8 263 6
8 264 1
8 265 3
8 266 4
8 268 2
8 269 48
8 270 1
8 272 3
8 274 50
8 275 3
8 276 3
8 279 17
8 280 3
8 281 4
8 283 1
8 284 128
8 285 6
8 286 1
8 288 1
8 289 2
8 291 4
8 292 1
8 293 2
8 294 40
8 295 113
8 296 260
8 297 1
8 298 2
8 299 4
8 300 1
8 301 1969
8 302 38
8 303 3
8 304 3
8 305 1
8 306 2
8 307 3
8 308 2
8 309 133
8 310 1
8 311 387
8 313 2
8 314 1
8 315 27
8 316 2
8 317 1
8 321 102
8 322 7
8 323 5
8 324 1
8 325 1
8 326 168
8 327 4
8 328 1
8 329 4
8 330 1
8 331 2
8 332 2
8 333 3
8 334 1
8 335 2
8 336 1
8 338 5
8 339 4
8 341 4
8 342 23
8 343 1
8 344 2
8 345 1
8 346 10
8 347 193
8 349 1
8 350 6
8 351 1
8 352 91
8 353 3
8 355 1
8 356 2
8 357 3
8 358 1
8 359 2
8 361 1
8 362 1
8 363 2
8 364 1
8 365 2
8 366 5
8 367 2
8 368 4
8 370 300
8 371 1
8 372 1
8 374 4
8 375 3
8 376 1
8 377 2
8 378 1
8 379 144
8 380 3
8 384 2
8 385 1
8 386 2
8 387 2
8 388 1
8 389 181
8 390 1
8 391 175
8 393 3
8 394 1
8 395 4
8 396 5
8 397 2
8 398 155
8 399 1
8 400 4
8 401 2
8 402 6
8 403 2
8 405 1
8 406 7
8 407 5
8 408 1
8 409 3
8 410 3
8 411 3
8 412 3
8 413 1
8 414 1
8 415 1
8 416 1
8 417 2
8 419 4
8 422 1
8 423 2
8 424 2
8 425 1
8 426 1
8 428 3
8 429 2
8 430 2
8 433 105
8 434 157
8 435 5
8 436 4
8 437 1
8 438 2
8 439 1
8 440 9
8 441 123
8 442 1
8 443 6
8 444 1
8 445 2
8 446 1
8 447 290
8 448 1
8 449 403
8 451 2
8 453 1
8 454 61
8 455 2
8 456 2
8 457 5
8 458 2
8 459 92
8 460 1
8 461 1
8 462 3
8 464 4
8 465 2
8 466 5
8 467 4
8 468 3
8 469 7
8 470 8
8 471 2
8 472 1
8 473 809
8 474 28
8 475 1
8 476 5
8 478 5
8 481 2
8 483 104
8 484 1
8 485 1
8 486 2
8 487 2
8 488 7
8 489 2
8 491 2
8 492 2
8 493 2
8 495 3
8 496 1
8 497 4
8 498 160
8 500 1
8 501 111
8 502 3
8 503 1
8 504 1
8 505 5
8 506 1
8 507 3
8 509 1
8 510 7
8 511 248
8 512 1
8 513 1
8 514 2
8 515 6
8 516 5
8 517 1
8 518 3
8 519 2
8 520 6
8 521 7346
8 522 370
8 524 3
8 525 1
8 526 6
8 527 1
8 528 8
8 529 3
8 530 4
8 531 5
8 532 1
8 533 1
8 535 1
8 538 2
8 539 137
8 540 1
8 542 2
8 543 61
8 544 3
8 545 2
8 546 2
8 547 1
8 548 2
8 550 7
8 551 1
8 552 100
8 553 1
8 554 1
8 555 2
8 556 4
8 557 2
8 558 2
8 559 2
8 560 1
8 561 2
8 563 4
8 564 176
8 565 6
8 567 2
8 568 1
8 569 3
8 570 89
8 571 1
8 572 5
8 573 8
8 574 288
8 575 2
8 576 1
8 577 227
8 580 3
8 581 95
8 583 2
8 587 3
8 588 1
8 589 1
8 590 239
8 591 1
8 592 2
8 593 3
8 594 324
8 595 88
8 596 51
8 597 3
8 598 155
8 599 1
8 600 1
8 601 2
8 602 114
8 604 7
8 605 2
8 606 5
8 607 1
8 609 1
8 610 2
8 611 2
8 612 192
8 613 2
8 614 3
8 615 2
8 616 2
8 619 1
8 620 2
8 621 1
8 622 1
8 623 2
8 624 1
8 625 100
8 626 2
8 627 2
8 628 2
8 629 462
8 630 122
8 631 2
8 632 3
8 634 4
8 635 2
8 638 2
8 640 2
8 642 404
8 643 1
8 645 1
8 646 1
8 648 2
8 649 1
8 650 78
8 651 321
8 652 2
8 653 2
8 654 2
8 656 2
8 658 1
8 659 2
8 660 230
8 661 230
8 662 2
8 663 1
8 664 1
8 665 20
8 666 2
8 668 3
8 670 190
8 671 5
8 672 1
8 673 4
8 674 2
8 675 116
8 676 7
8 677 2
8 678 1
8 680 1
8 681 1
8 682 1
8 683 3
8 684 2
8 685 2
8 686 2
8 687 1
8 688 82
8 689 1
8 690 1
8 691 151
8 693 4
8 694 4
8 695 1
8 696 1
8 697 1
8 698 344
8 699 5
8 700 118
8 702 1
8 703 3
8 704 574
8 705 1
8 706 4
8 707 3
8 708 3
8 709 3
8 710 3
8 711 5
8 712 2
8 713 2
8 714 5
8 715 171
8 716 2
8 717 74
8 718 1
8 719 1
8 721 2
8 722 1
8 723 4
8 724 2
8 725 4
8 726 1
8 727 3
8 729 1
8 731 1
8 732 2
8 734 2
8 735 4
8 736 2
8 738 3
8 739 2
8 740 1
8 742 2
8 743 1
8 744 1
8 745 1
8 746 2
8 749 5
8 750 402
8 751 1
8 754 1
8 755 3
8 756 3
8 757 2
8 760 1
8 761 1
8 762 3
8 763 6
8 764 1
8 765 5
8 766 2
8 767 3
8 768 2
8 769 6
8 770 4
8 771 2
8 773 2
8 774 3
8 775 6
8 776 2
8 777 2
8 778 3
8 779 3
8 780 2
8 781 1
8 783 326
8 784 2
8 785 2
8 786 2
8 787 2
8 788 146
8 789 2
8 790 1
8 791 3
8 792 4
8 793 1
8 794 3
8 795 2
8 796 3
8 798 1
8 799 556
8 800 2
8 801 1
8 802 1
8 803 1
8 805 2
8 806 1
8 807 3
8 808 3
8 809 4
8 810 1
8 811 2
8 812 1
8 814 10
8 815 3
8 816 2
8 817 1
8 818 4
8 819 2
8 821 3
8 822 2
8 823 3
8 824 9
8 825 2
8 826 15
8 827 3
8 828 1
8 829 2
8 830 1
8 831 2
8 832 1
8 833 152
8 834 282
8 835 1
8 836 6
8 837 114
8 838 1
8 839 11
8 840 2
8 841 3
8 842 2
8 843 2
8 844 3
8 845 2
8 846 1
8 847 2
8 849 3
8 850 2
8 853 1
8 854 2
8 855 1
8 856 155
8 857 2
8 859 49
8 860 2
8 861 1
8 864 2
8 865 3
8 867 1
8 868 2
8 869 6
8 870 4
8 872 3
8 873 4
8 874 4
8 875 3
8 876 2
8 877 2
8 878 4
8 879 2
8 880 3
8 881 1
8 882 5
8 883 2
8 884 1
8 885 3
8 886 2
8 887 4
8 888 1
8 889 15
8 890 1
8 892 272
8 893 1
8 894 2
8 895 2
8 896 2
8 898 5
8 899 4
8 900 2
8 902 266
8 904 3
8 906 1
8 907 1
8 908 1
8 909 2
8 910 27
8 911 2
8 912 71
8 913 84
8 914 1
8 915 1
8 916 4
8 917 132
8 918 1
8 920 83
8 921 3
8 922 1
8 923 2
8 924 5
8 926 3
8 927 1
8 928 1
8 929 1
8 930 3
8 932 3
8 933 1
8 934 2
8 935 4
8 937 81
8 938 3
8 939 3
8 940 1
8 943 3
8 944 1
8 945 4
8 946 2
8 947 2
8 948 4
8 949 2
8 950 2
8 951 1
8 952 1
8 953 1
8 954 1
8 955 82
8 956 3
8 957 2
8 958 4
8 959 4
8 961 84
8 962 2
8 963 1
8 964 4
8 965 4
8 966 60
8 967 2
8 970 1
8 971 6
8 972 2
8 973 9
8 974 1
8 975 1
8 977 2
8 978 5
8 979 2
8 980 410
8 982 2
8 983 1
8 984 388
8 985 33
8 987 2
8 989 1
8 990 3
8 993 5
8 995 3
8 996 1
8 997 5
8 998 1
8 1000 2
8 1001 1
8 1003 1
8 1005 227
8 1006 1
8 1007 1
8 1008 1
8 1009 153
8 1010 3
8 1011 6
8 1012 172
8 1013 4
8 1014 1
8 1015 2
8 1016 1
8 1017 1
8 1019 242
8 1020 2
8 1022 1
8 1023 2
8 1024 1
8 1025 1
8 1027 173
8 1028 1
8 1029 1
8 1030 2
8 1031 292
8 1032 1
8 1033 3
8 1035 2
8 1036 58
8 1037 1
8 1038 2
8 1039 3
8 1040 1
8 1041 69
8 1042 2
8 1043 2
8 1044 5
8 1045 2
8 1046 63
8 1047 132
8 1048 6
8 1049 2
8 1050 2
8 1051 1
8 1052 1
8 1053 3
8 1054 391
8 1056 5
8 1057 3
8 1058 3
8 1060 1
8 1061 1
8 1062 1
8 1063 3
8 1065 3
8 1067 5
8 1068 1
8 1069 1
8 1070 5
8 1071 22
8 1072 3
8 1073 87
8 1076 1
8 1077 2
8 1079 3
8 1081 2
8 1082 1
8 1083 1
8 1084 1
8 1086 3
8 1087 11
8 1088 352
8 1089 4
8 1090 1
8 1091 1
8 1093 5
8 1096 1
8 1097 1
8 1098 3
8 1099 3
8 1100 1
8 1101 5
8 1102 1220
8 1103 2
8 1104 1
8 1105 3
8 1107 5
8 1108 2
8 1109 4
8 1110 266
8 1111 1
8 1112 3
8 1113 1
8 1114 2
8 1115 1
8 1116 4
8 1117 4
8 1118 4
8 1119 2
8 1120 1
8 1121 103
8 1125 2
8 1126 2
8 1127 3
8 1128 1
8 1129 3
8 1130 125
8 1132 4
8 1134 9
8 1135 235
8 1136 1
8 1137 3
8 1138 4
8 1139 2
8 1140 177
8 1143 2
8 1144 3
8 1145 2
8 1146 218
8 1147 48
8 1148 71
8 1149 1
8 1150 3
8 1151 3
8 1152 2
8 1153 3
8 1154 1
8 1156 408
8 1157 3
8 1158 3
8 1159 1
8 1160 2
8 1162 194
8 1163 1
8 1164 2
8 1165 1
8 1166 3
8 1169 3
8 1170 2
8 1171 84
8 1172 17
8 1173 3
8 1174 5
8 1175 90
8 1176 1
8 1177 7
8 1179 262
8 1180 3
8 1181 3
8 1182 1
8 1183 2
8 1184 34
8 1185 2
8 1186 182
8 1187 2
8 1188 1
8 1189 2
8 1190 5
8 1191 1
8 1192 151
8 1193 1
8 1194 3
8 1195 2
8 1196 2
8 1197 239
8 1198 215
8 1199 4
8 1205 1
8 1206 4
8 1209 2
8 1210 3
8 1211 4
8 1215 1
8 1216 1
8 1218 112
8 1220 2
8 1221 2
8 1222 3
8 1223 1
8 1224 2
8 1225 2
8 1226 2
8 1227 1
8 1229 3
8 1230 1
8 1232 3
8 1234 172
8 1235 2
8 1236 9
8 1238 6
8 1239 7
8 1240 3
8 1241 286
8 1242 1
8 1243 2
8 1244 1
8 1245 2
8 1246 5
8 1247 160
8 1248 1
8 1249 6
8 1250 4
8 1252 1
8 1253 4
8 1254 6
8 1256 6
8 1257 1
8 1258 3
8 1260 1
8 1261 2
8 1262 1
8 1263 202
8 1264 6
8 1265 1
8 1266 3
8 1267 1
8 1268 3
8 1269 1
8 1270 10
8 1271 3
8 1272 44
8 1273 4
8 1274 1
8 1275 130
8 1276 406
8 1277 367
8 1278 3
8 1279 1
8 1280 1
8 1281 4
8 1282 2
8 1283 2
8 1284 290
8 1285 6
8 1286 4
8 1287 377
8 1288 2
8 1289 1
8 1290 5
8 1291 2
8 1292 55
8 1293 2
8 1294 2
8 1295 142
8 1297 5
8 1298 31
8 1300 6
8 1301 1
8 1304 1
8 1307 4
8 1309 1
8 1310 1
8 1311 87
8 1312 5
8 1313 2
8 1314 5
8 1315 1
8 1318 1
8 1319 3
8 1320 3
8 1321 2
8 1322 3
8 1323 1
8 1324 3
8 1325 2
8 1326 4
8 1328 1
8 1329 1
8 1330 71
8 1332 1
8 1333 1
8 1334 4
8 1335 2
8 1336 2
8 1337 2
8 1338 1
8 1339 1
8 1341 5
8 1342 2
8 1344 1
8 1345 1
8 1346 4
8 1347 1
8 1348 1
8 1350 356
8 1351 8
8 1353 3
8 1356 1
8 1357 2
8 1358 1
8 1359 1
8 1360 3
8 1361 3
8 1363 2
8 1364 2
8 1365 1
8 1368 2
8 1369 2
8 1370 2
8 1371 1
8 1373 1
8 1374 118
8 1376 2
8 1377 3
8 1378 2
8 1379 2
8 1380 1
8 1382 1
8 1385 404
8 1386 3
8 1388 2
8 1389 2
8 1390 2
8 1392 302
8 1393 274
8 1394 2
8 1395 2
8 1397 3
8 1398 2
8 1399 4
8 1400 1
8 1401 5
8 1402 1
8 1403 260
8 1404 2
8 1405 3
8 1408 2
8 1409 114
8 1410 2
8 1411 191
8 1413 3
8 1414 3
8 1415 3
8 1418 283
8 1420 1
8 1421 3
8 1422 4
8 1423 2
8 1424 114
8 1425 3
8 1426 2
8 1427 498
8 1428 4
8 1430 2
8 1431 2
8 1432 1
8 1433 4
8 1434 203
8 1435 3
8 1437 47
8 1438 2
8 1440 5
8 1441 4
8 1442 2
8 1443 4
8 1444 5
8 1445 2
8 1446 1
8 1447 4
8 1449 1
8 1451 2
8 1453 190
8 1454 4
8 1455 3
8 1456 1
8 1457 4
8 1458 2
8 1459 2
8 1460 2
8 1461 2
8 1462 2
8 1463 1
8 1464 3
8 1466 4
8 1467 1
8 1469 3
8 1470 321
8 1471 6
8 1472 2
8 1473 1
8 1474 58
8 1475 3
8 1476 1
8 1477 1
8 1479 1
8 1480 3
8 1482 3
8 1484 2
8 1486 3
8 1487 331
8 1488 1
8 1489 527
8 1490 1
8 1493 2
8 1494 3
8 1495 1
8 1496 1
8 1497 1
8 1498 6
8 1499 3
8 1500 7
8 1502 2
8 1504 203
8 1506 6
8 1507 2
8 1508 3
8 1510 80
8 1511 2
8 1512 2
8 1514 3
8 1515 4
8 1516 5
8 1517 1
8 1518 5
8 1519 3
8 1520 3
8 1521 2
8 1522 2
8 1523 6
8 1524 2
8 1525 3
8 1526 2
8 1528 7
8 1529 116
8 1530 2
8 1532 47
8 1533 2
8 1535 288
8 1536 2
8 1537 108
8 1538 3
8 1539 1
8 1540 127
8 1541 2
8 1542 20
8 1543 291
8 1544 2
8 1545 7
8 1546 9
8 1547 2
8 1549 423
8 1550 3
8 1551 1
8 1552 5
8 1553 3
8 1555 1
8 1556 209
8 1557 2
8 1560 1
8 1561 4
8 1562 3
8 1563 3
8 1564 3
8 1565 2
8 1566 1
8 1567 271
8 1568 6
8 1569 3
8 1570 1
8 1571 5
8 1572 1
8 1574 4
8 1575 6
8 1577 1
8 1578 1643
8 1579 2
8 1581 1
8 1582 299
8 1583 2
8 1584 2
8 1585 4
8 1586 9
8 1587 5
8 1588 1
8 1589 2
8 1590 1
8 1591 1
8 1593 3
8 1594 1
8 1595 244
8 1596 4
8 1597 1
8 1598 1
8 1599 1
8 1601 1
8 1603 3
8 1605 1
8 1606 2
8 1607 3
8 1608 1
8 1609 1
8 1611 1
8 1612 1
8 1613 2
8 1614 4
8 1615 5
8 1616 2
8 1618 1
8 1619 345
8 1621 1
8 1622 2
8 1623 3
8 1624 1
8 1625 1
8 1626 2
8 1627 3
8 1628 304
8 1629 2
8 1630 1
8 1632 1
8 1633 1
8 1634 2
8 1635 3
8 1636 1
8 1637 1
8 1638 1
8 1639 3
8 1640 3
8 1641 1
8 1643 356
8 1644 4
8 1645 4
8 1646 56
8 1647 2
8 1648 2
8 1649 6
8 1650 9
8 1651 189
8 1652 5
8 1654 317
8 1655 3
8 1657 9
8 1659 3
8 1660 184
8 1661 2
8 1662 2
8 1664 5
8 1665 1
8 1666 1
8 1668 7
8 1670 1
8 1671 139
8 1672 10
8 1673 1
8 1674 31
8 1675 7
8 1676 1
8 1678 4
8 1679 1
8 1680 1
8 1681 4
8 1683 2
8 1684 2
8 1686 3
8 1687 7
8 1688 3
8 1689 2
8 1690 42
8 1691 3
8 1693 7
8 1694 1
8 1697 3
8 1699 1
8 1700 1
8 1701 2
8 1702 31
8 1704 2
8 1705 72
8 1706 32
8 1707 1
8 1709 69
8 1710 13
8 1711 3
8 1712 1
8 1713 4
8 1714 4
8 1716 2
8 1717 2
8 1718 2
8 1719 4
8 1720 1
8 1721 2
8 1722 1
8 1723 2
8 1725 5
8 1726 3
8 1727 44
8 1728 1
8 1729 5
8 1730 1
8 1731 1
8 1732 2
8 1733 170
8 1734 3
8 1735 17
8 1737 2
8 1738 4
8 1739 2
8 1740 5
8 1741 4
8 1743 2
8 1744 8
8 1745 2
8 1747 1
8 1748 2
8 1749 4
8 1750 171
8 1753 2
8 1755 1
8 1756 5
8 1757 2
8 1758 544
8 1759 2
8 1760 2
8 1761 2
8 1762 2
8 1763 1
8 1764 1
8 1765 386
8 1766 219
8 1768 1
8 1769 3
8 1770 2
8 1771 155
8 1772 1
8 1773 21
8 1774 43
8 1775 313
8 1777 271
8 1778 168
8 1780 3
8 1781 3
8 1782 1
8 1783 2
8 1785 22
8 1786 2
8 1787 3
8 1788 1
8 1789 7
8 1790 5
8 1791 2
8 1793 2
8 1794 2
8 1795 3
8 1796 4
8 1799 1
8 1801 1
8 1802 7
8 1803 4
8 1804 4
8 1805 2
8 1806 9
8 1810 87
8 1811 29
8 1812 1
8 1813 5
8 1814 350
8 1816 3
8 1817 5
8 1818 4
8 1819 1
8 1820 2
8 1821 2
8 1822 48
8 1823 1
8 1824 2
8 1825 5
8 1828 4
8 1829 3
8 1831 1
8 1832 1
8 1833 4
8 1835 113
8 1837 2
8 1838 3
8 1839 2
8 1840 1
8 1841 1
8 1842 2555
8 1843 2
8 1846 1
8 1847 274
8 1848 161
8 1849 7
8 1850 1
8 1851 3
8 1852 5
8 1853 301
8 1854 2
8 1856 5
8 1857 1
8 1858 2
8 1859 2
8 1861 1
8 1863 177
8 1865 4
8 1866 233
8 1867 7
8 1868 2
8 1869 2
8 1870 4
8 1871 1
8 1872 1
8 1874 1
8 1875 2
8 1876 2
8 1877 1
8 1878 4
8 1879 3
8 1880 6
8 1881 1
8 1882 55
8 1884 2
8 1885 3
8 1886 1
8 1887 2
8 1888 1
8 1889 2
8 1891 2
8 1894 1
8 1895 6
8 1896 4
8 1897 191
8 1898 1
8 1900 3
8 1901 4
8 1902 3
8 1903 2
8 1904 3
8 1905 444
8 1908 1
8 1909 1
8 1910 4
8 1911 2
8 1913 2
8 1914 5
8 1915 3
8 1916 107
8 1917 2
8 1918 2
8 1919 6
8 1920 2
8 1921 1
8 1922 1
8 1923 95
8 1924 1
8 1925 152
8 1926 2
8 1929 181
8 1930 2
8 1931 1
8 1932 244
8 1933 2
8 1934 4
8 1935 145
8 1936 1
8 1937 4
8 1938 182
8 1940 1
8 1941 4
8 1942 42
8 1943 2
8 1944 1
8 1945 3
8 1947 1
8 1948 3
8 1949 81
8 1950 1
8 1951 2
8 1953 54
8 1954 2
8 1955 3
8 1957 2
8 1960 102
8 1961 3
8 1962 2
8 1963 2
8 1965 1
8 1966 1
8 1968 1
8 1969 8
8 1970 1
8 1971 2
8 1972 3
8 1973 113
8 1974 74
8 1977 2
8 1978 2
8 1980 153
8 1981 3
8 1982 2
8 1983 1
8 1984 1
8 1985 3
8 1986 1
8 1987 1
8 1989 50
8 1990 5
8 1991 1
8 1992 2
8 1993 1
8 1994 3
8 1995 2
8 1996 4
8 1997 1
8 1998 1
8 1999 106
8 2000 13
8 2002 4
8 2003 1
8 2004 2
8 2005 137
8 2006 3
8 2007 166
8 2008 1
8 2009 3
8 2011 1
8 2012 2
8 2013 1
8 2014 218
8 2015 1
8 2016 2
8 2017 1
8 2018 128
8 2020 100
8 2021 3
8 2022 6
8 2023 2
8 2024 1
8 2025 2
8 2026 1
8 2027 82
8 2028 4
8 2030 1
8 2031 2
8 2032 3
8 2033 209
8 2034 4
8 2035 3
8 2036 1
8 2037 71
8 2038 5
8 2039 1
8 2040 4
8 2041 194
8 2042 86
8 2043 2
8 2044 95
8 2045 3
8 2046 1
8 2049 139
8 2050 146
8 2051 1
8 2053 115
8 2055 4
8 2056 2
8 2057 2
8 2058 2
8 2059 99
8 2060 1
8 2061 2
8 2063 1
8 2064 2
8 2065 4
8 2066 3
8 2067 1
8 2068 1
8 2069 4
8 2070 1
8 2071 4
8 2072 317
8 2073 2
8 2074 2
8 2075 4
8 2078 2
8 2079 1
8 2080 1
8 2082 1
8 2083 63
8 2084 27
8 2086 2
8 2089 2
8 2090 1
8 2093 4
8 2094 1
8 2095 1
8 2096 2
8 2097 92
8 2100 2
8 2101 277
8 2103 2
8 2105 4
8 2106 8
8 2107 2
8 2108 2
8 2109 17
8 2111 3
8 2112 5
8 2113 147
8 2114 2
8 2116 220
8 2117 12
8 2118 2
8 2120 84
8 2121 2
8 2122 2
8 2124 1
8 2125 1
8 2126 3
8 2127 4
8 2130 1
8 2132 63
8 2133 3
8 2134 2
8 2135 3
8 2136 2
8 2137 2
8 2138 3
8 2139 7
8 2140 4
8 2142 1
8 2144 1
8 2145 2
8 2146 2
8 2148 2
8 2149 1
8 2150 1
8 2152 1
8 2153 3
8 2154 4
8 2155 4
8 2156 1
8 2157 1
8 2158 5
8 2159 1
8 2160 2
8 2161 5
8 2165 1
8 2166 1
8 2167 1
8 2168 2
8 2169 212
8 2170 44
8 2171 6
8 2172 2
8 2173 107
8 2174 4
8 2176 1
8 2177 204
8 2178 5
8 2179 3
8 2180 162
8 2181 2
8 2185 1
8 2186 4
8 2187 2
8 2188 1
8 2189 5
8 2192 1
8 2193 2
8 2194 1
8 2195 4
8 2196 2
8 2197 5
8 2198 1
8 2200 2
8 2201 3
8 2203 1
8 2205 1
8 2206 3
8 2207 1
8 2208 3
8 2209 1
8 2210 141
8 2212 1
8 2214 2
8 2215 3
8 2216 7
8 2217 1
8 2218 1
8 2219 5
8 2220 1
8 2221 226
8 2222 2
8 2225 1
8 2226 3
8 2227 2
8 2229 1
8 2230 2
8 2231 3
8 2232 1
8 2233 2
8 2234 2
8 2235 2
8 2236 1
8 2237 113
8 2238 4
8 2239 1
8 2241 5
8 2243 1
8 2244 230
8 2245 1
8 2246 2
8 2247 1
8 2248 1
8 2249 3
8 2250 276
8 2251 7
8 2252 237
8 2254 2
8 2255 1
8 2256 3
8 2257 1
8 2260 1
8 2261 3
8 2262 1
8 2263 9
8 2264 1
8 2265 1
8 2266 7
8 2267 1
8 2269 2
8 2270 2
8 2271 3
8 2272 1
8 2273 2
8 2274 1
8 2275 239
8 2277 3
8 2278 61
8 2279 5
8 2280 1
8 2281 3
8 2284 1
8 2286 5
8 2287 2
8 2288 2
8 2289 1
8 2290 2
8 2291 127887
8 2292 2
8 2293 66
8 2295 2
8 2296 1
8 2297 2
8 2298 3
8 2299 69
8 2300 3
8 2301 1
8 2302 5
8 2303 5
8 2304 2
8 2307 3
8 2308 2
8 2310 4
8 2311 10
8 2312 1
8 2313 1
8 2314 3
8 2315 118
8 2317 1
8 2318 3
8 2320 2
8 2321 2
8 2322 1
8 2323 3
8 2326 1
8 2327 1
8 2328 233
8 2329 2
8 2330 1
8 2331 2061
8 2332 4
8 2333 1
8 2334 2
8 2335 75
8 2336 25
8 2337 1
8 2338 1
8 2339 5
8 2340 2
8 2341 3
8 2342 1
8 2343 4
8 2344 5
8 2348 1
8 2349 1
8 2350 2
8 2351 1
8 2352 1
8 2353 4
8 2354 3
8 2355 1
8 2356 497
8 2358 1
8 2359 1
8 2360 3
8 2361 3
8 2362 2
8 2363 2
8 2364 1
8 2365 3
8 2366 2
8 2367 1
8 2368 1
8 2369 628
8 2370 3
8 2372 3
8 2374 2
8 2376 4
8 2377 4
8 2378 165
8 2379 90
8 2380 1
8 2381 6
8 2382 1
8 2383 2
8 2385 1
8 2386 2
8 2387 2
8 2390 1
8 2391 1
8 2392 2
8 2394 2
8 2396 3
8 2397 4
8 2398 1
8 2399 3
8 2400 3
8 2402 3
8 2404 6
8 2405 2
8 2406 2
8 2407 1
8 2409 1
8 2410 4
8 2411 2
8 2412 103
8 2413 177
8 2414 3
8 2416 2
8 2417 3
8 2421 233
8 2422 2
8 2424 2
8 2425 11
8 2426 3
8 2427 2
8 2429 1
8 2430 1
8 2431 1
8 2432 4
8 2433 9
8 2435 1
8 2436 1
8 2437 6
8 2438 4
8 2440 1
8 2441 87
8 2443 2
8 2444 3
8 2446 4
8 2447 2
8 2448 1
8 2449 4
8 2450 1
8 2452 4
8 2453 2
8 2454 2
8 2455 1
8 2456 1
8 2457 1
8 2458 2
8 2460 5
8 2461 3
8 2462 3
8 2463 2
8 2465 3
8 2466 2
8 2468 1
8 2470 3
8 2473 151
8 2474 7
8 2475 3
8 2476 202
8 2477 4
8 2478 38
8 2479 36
8 2480 2
8 2481 2
8 2482 1
8 2483 3
8 2484 6
8 2485 4
8 2486 1
8 2489 2
8 2490 104
8 2491 3
8 2492 37
8 2493 142
8 2494 2
8 2495 1
8 2496 1
8 2497 2
8 2498 2
8 2499 2
8 2501 1
8 2502 1
8 2505 5
8 2506 1
8 2507 1
8 2508 1
8 2509 4
8 2510 1
8 2512 75
8 2514 2
8 2515 1
8 2517 2
8 2518 1
8 2519 2
8 2520 2
8 2521 2
8 2522 6
8 2523 159
8 2524 175
8 2525 2
8 2526 1
8 2527 1
8 2528 17
8 2531 4
8 2532 2
8 2533 2
8 2534 1
8 2535 4
8 2536 732
8 2537 1
8 2538 233
8 2539 1
8 2540 1
8 2541 4
8 2542 1
8 2543 4
8 2544 91
8 2545 4
8 2547 1
8 2548 4
8 2549 85
8 2550 1
8 2552 4
8 2553 1
8 2556 2
8 2557 3
8 2558 1
8 2559 60
8 2562 1
8 2564 3
8 2565 2
8 2566 305
8 2567 2
8 2568 3
8 2569 68
8 2570 1
8 2571 34
8 2573 2
8 2574 1
8 2577 5
8 2578 2
8 2582 50
8 2583 4
8 2584 2
8 2586 4
8 2588 9
8 2590 2
8 2591 2
8 2592 2
8 2593 1
8 2594 5
8 2595 1
8 2596 8
8 2597 84
8 2598 1
8 2600 92
8 2601 1
8 2602 143
8 2603 1
8 2604 1
8 2605 1
8 2606 4
8 2607 1
8 2608 3
8 2610 1
8 2611 539
8 2612 3
8 2614 2
8 2615 1
8 2616 3
8 2618 1
8 2619 2
8 2620 6
8 2621 1
8 2622 2
8 2623 118
8 2625 2
8 2626 3
8 2627 2
8 2628 299
8 2629 2
8 2630 2
8 2631 5
8 2633 4
8 2634 2
8 2635 1
8 2636 251
8 2637 2
8 2638 2
8 2639 8
8 2640 5
8 2641 316
8 2642 454
8 2643 2
8 2644 4
8 2645 1
8 2646 2
8 2647 4
8 2648 3
8 2649 142
8 2651 3
8 2652 3
8 2654 183
8 2656 44
8 2657 68
8 2658 3
8 2659 3
8 2660 20
8 2661 11
8 2663 2
8 2664 1
8 2665 2
8 2666 1
8 2667 1
8 2668 2
8 2671 1
8 2672 1
8 2673 1
8 2674 5
8 2675 2
8 2676 1
8 2677 20
8 2678 2
8 2679 1
8 2680 8
8 2682 1
8 2684 3
8 2685 3
8 2687 1
8 2688 6
8 2689 1
8 2690 3
8 2691 2
8 2692 3
8 2693 2
8 2694 1
8 2695 2
8 2696 7
8 2697 2
8 2698 2
8 2700 148
8 2701 2
8 2704 40
8 2705 2
8 2706 75
8 2707 3
8 2709 2
8 2710 2
8 2711 1
8 2712 5
8 2713 9
8 2714 3
8 2715 7
8 2716 2
8 2717 381
8 2718 1
8 2719 3
8 2721 2
8 2722 2
8 2723 1
8 2724 2
8 2725 1
8 2726 1
8 2727 2
8 2729 1
8 2730 1
8 2731 2
8 2732 1
8 2733 2
8 2734 1
8 2735 3
8 2737 2
8 2738 6
8 2739 1
8 2741 5
8 2742 1
8 2743 141
8 2744 2
8 2745 1
8 2749 1
8 2751 290
8 2752 1
8 2753 2
8 2754 86
8 2755 3
8 2756 3
8 2757 4
8 2758 101
8 2759 1
8 2760 1
8 2763 42
8 2765 2
8 2766 1
8 2767 5
8 2768 2
8 2769 2
8 2770 3
8 2771 2
8 2772 2
8 2773 2
8 2774 2
8 2775 30
8 2776 1
8 2777 2
8 2779 176
8 2780 3
8 2781 2
8 2782 275
8 2783 1
8 2784 4
8 2785 4
8 2786 2
8 2787 3
8 2788 2
8 2789 3
8 2790 1
8 2791 3
8 2792 3
8 2793 3
8 2794 2
8 2795 4
8 2796 2
8 2797 2
8 2798 265
8 2799 3
8 2800 234
8 2802 2
8 2803 1
8 2805 3
8 2806 1
8 2809 2
8 2810 1
8 2811 2
8 2812 4
8 2813 20
8 2814 2
8 2815 87
8 2816 2
8 2817 4
8 2818 1
8 2819 2
8 2820 1
8 2821 2
8 2822 31
8 2823 11
8 2825 424
8 2826 1
8 2827 1
8 2828 4
8 2829 2
8 2830 5
8 2832 2
8 2833 2
8 2834 2
8 2835 6
8 2836 1
8 2837 2
8 2838 1
8 2839 2
8 2840 121
8 2841 3
8 2843 2
8 2844 4
8 2845 1
8 2846 3
8 2847 2
8 2848 1
8 2849 2
8 2850 324
8 2851 3
8 2852 4
8 2853 8
8 2854 1
8 2855 1
8 2856 3
8 2857 1
8 2858 3
8 2859 1
8 2861 388
8 2862 2
8 2863 2
8 2864 1
8 2865 10
8 2866 2
8 2868 3
8 2869 4
8 2870 3
8 2871 191
8 2872 5
8 2873 2
8 2874 170
8 2875 4
8 2876 186
8 2878 6
8 2880 1
8 2881 2
8 2883 410
8 2884 1
8 2887 5
8 2888 4
8 2889 1
8 2890 216
8 2891 3
8 2892 276
8 2893 4
8 2894 2
8 2895 2
8 2897 3
8 2898 2
8 2899 1
8 2900 3
8 2901 116
8 2902 1
8 2903 4
8 2905 2
8 2908 1
8 2911 4
8 2912 296
8 2913 5
8 2914 3
8 2915 3
8 2916 9
8 2917 2
8 2918 3
8 2919 2
8 2920 3
8 2921 4
8 2923 5
8 2924 1
8 2925 2
8 2926 2
8 2927 3
8 2928 368
8 2929 1
8 2930 3
8 2931 3
8 2932 5
8 2933 4
8 2934 5
8 2935 3
8 2936 244
8 2937 57
8 2940 1
8 2941 1
8 2942 4
8 2944 1
8 2945 1
8 2946 1
8 2947 2
8 2949 440
8 2950 3
8 2952 4
8 2953 1
8 2954 3
8 2955 1
8 2956 2
8 2957 2
8 2958 3
8 2959 2
8 2960 2
8 2961 1
8 2962 2
8 2963 6
8 2964 65
8 2965 138
8 2966 1
8 2967 382
8 2968 1
8 2969 1
8 2970 5
8 2971 3
8 2972 4
8 2973 201
8 2975 2
8 2976 2
8 2977 2
8 2978 3
8 2979 1
8 2981 1
8 2983 1
8 2984 2
8 2985 2
8 2986 4
8 2987 56
8 2988 4
8 2989 1
8 2990 2
8 2993 19
8 2994 2
8 2995 2
8 2996 2
8 2997 1
8 2999 1
8 3000 4
8 3001 2
8 3003 2
8 3004 12
8 3005 1
8 3006 2
8 3008 2
8 3009 5
8 3010 3
8 3011 27
8 3012 3
8 3013 1
8 3015 1
8 3016 2
8 3017 2
8 3018 2
8 3019 1
8 3021 2
8 3022 7
8 3023 6
8 3025 15
8 3026 3
8 3028 1
8 3030 3
8 3032 2
8 3033 2
8 3034 2
8 3035 116
8 3036 5
8 3037 1
8 3038 3
8 3039 4
8 3040 3
8 3041 2
8 3042 131
8 3043 362
8 3044 305
8 3045 5
8 3046 1
8 3047 3
8 3049 5
8 3051 3
8 3052 2
8 3053 3
8 3054 2
8 3055 1
8 3056 1
8 3057 1
8 3058 6
8 3059 2
8 3060 175
8 3061 170
8 3062 1
8 3063 2
8 3064 1
8 3065 2
8 3066 142
8 3067 93
8 3068 210
8 3069 1
8 3070 1
8 3071 2
8 3072 1
8 3074 4
8 3075 3
8 3077 1
8 3078 8
8 3079 2
8 3080 286
8 3081 2
8 3084 3
8 3085 22
8 3087 6
8 3088 243
8 3089 3
8 3090 5
8 3092 2
8 3093 1
8 3094 2
8 3095 13
8 3096 1
8 3097 3
8 3098 255
8 3099 225
8 3100 1
8 3101 2
8 3102 3
8 3104 1
8 3107 2
8 3108 3
8 3109 2
8 3110 118
8 3112 3
8 3114 3
8 3115 2
8 3116 3
8 3117 294
8 3118 169
8 3119 452
8 3120 1
8 3121 3
8 3122 2
8 3123 11
8 3124 1
8 3125 6
8 3126 125
8 3127 1
8 3128 2
8 3129 1
8 3130 209
8 3131 5
8 3132 6
8 3133 2
8 3135 1
8 3137 5
8 3138 2
8 3139 4
8 3140 3
8 3142 391
8 3143 5
8 3144 1
8 3146 9
8 3147 2
8 3149 4
8 3150 122
8 3152 2
8 3153 1
8 3154 1
8 3155 14
8 3156 3
8 3157 4
8 3158 1
8 3159 86
8 3160 3
8 3161 1
8 3162 6
8 3163 249
8 3165 3
8 3166 2
8 3167 2
8 3168 3
8 3169 1
8 3170 1
8 3171 1
8 3172 4
8 3173 1
8 3174 1
8 3175 2
8 3176 1
8 3177 2
8 3178 3
8 3180 4
8 3181 1
8 3183 3
8 3184 5
8 3185 7
8 3186 3
8 3187 1
8 3188 2
8 3189 3
8 3190 1
8 3191 1
8 3192 3
8 3194 2
8 3195 2
8 3197 1
8 3198 14
8 3200 4
8 3201 3
8 3202 4
8 3203 1
8 3204 1
8 3205 1
8 3206 2
8 3207 6
8 3209 158
8 3210 2
8 3211 1
8 3212 389
8 3213 1
8 3214 3
8 3215 3
8 3216 3
8 3217 6
8 3219 2
8 3220 3
8 3221 145
8 3222 1
8 3223 1
8 3224 3
8 3225 1
8 3226 3
8 3227 1
8 3228 107
8 3229 3
8 3230 3
8 3232 3
8 3233 2
8 3234 3
8 3236 7
8 3237 2
8 3238 230
8 3239 1
8 3240 2
8 3241 2
8 3242 6
8 3243 5
8 3244 1
8 3245 1
8 3246 3
8 3247 1
8 3248 3
8 3249 2
8 3250 2
8 3251 4
8 3252 3
8 3253 1
8 3254 3
8 3256 3
8 3259 4
8 3260 2
8 3261 7
8 3262 1
8 3263 2
8 3264 2
8 3265 1
8 3266 2
8 3267 2
8 3268 4
8 3269 1
8 3271 207
8 3272 3
8 3273 5
8 3274 4
8 3275 1
8 3276 1
8 3277 7
8 3281 1
8 3282 1
8 3283 171
8 3284 3
8 3285 1
8 3286 1
8 3287 1
8 3288 4
8 3290 1
8 3292 1
8 3293 1
8 3294 4
8 3295 3
8 3296 1
8 3297 1
8 3298 1
8 3299 2
8 3302 2
8 3303 1
8 3304 1
8 3305 6
8 3306 2
8 3307 511
8 3310 3
8 3311 2
8 3312 2
8 3313 2
8 3314 216
8 3316 4
8 3317 2
8 3319 2
8 3321 1
8 3322 3
8 3323 2
8 3324 181
8 3326 135
8 3327 4
8 3329 4
8 3332 4
8 3333 2
8 3334 2
8 3335 13
8 3336 1
8 3337 81
8 3338 1
8 3339 18
8 3340 6
8 3342 4
8 3343 1
8 3344 4
8 3345 1
8 3346 1
8 3347 1
8 3348 2
8 3349 5
8 3350 2
8 3351 1
8 3352 273
8 3354 49
8 3355 1
8 3356 2
8 3357 4
8 3358 1
8 3359 1
8 3361 150
8 3362 4
8 3363 1
8 3365 2
8 3366 269
8 3367 178
8 3368 187
8 3370 4
8 3372 2
8 3373 280
8 3374 1
8 3375 2
8 3376 109
8 3377 162
8 3378 22
8 3379 27
8 3380 4
8 3381 1
8 3382 3
8 3383 2
8 3385 205
8 3387 1
8 3388 44
8 3389 2
8 3390 21
8 3391 3
8 3392 1
8 3393 1
8 3396 4
8 3397 181
8 3398 1
8 3400 1
8 3401 2
8 3402 2
8 3403 1
8 3404 1
8 3405 4
8 3406 2
8 3407 130
8 3408 1
8 3409 3
8 3410 1
8 3411 1
8 3413 4
8 3414 2
8 3415 1
8 3416 2
8 3417 6
8 3418 1
8 3419 3
8 3420 4
8 3421 2
8 3422 61
8 3423 3
8 3424 5
8 3425 2
8 3426 1
8 3427 1
8 3428 2
8 3429 3
8 3430 2
8 3431 2
8 3432 2
8 3433 3
8 3434 7
8 3435 1
8 3437 79
8 3438 6
8 3439 109
8 3440 2
8 3441 2
8 3442 3
8 3444 4
8 3445 1
8 3447 2
8 3448 6
8 3449 3
8 3450 4
8 3451 1
8 3452 246
8 3453 2
8 3454 1
8 3455 264
8 3458 86
8 3459 7
8 3460 1
8 3461 5
8 3462 2
8 3463 1
8 3464 2
8 3465 71
8 3466 1
8 3467 286
8 3468 1
8 3469 69
8 3470 1
8 3471 3
8 3472 2
8 3473 1
8 3474 2
8 3475 2
8 3476 79
8 3477 1
8 3478 3
8 3479 2
8 3481 4
8 3482 4
8 3483 179
8 3485 5
8 3486 6
8 3487 1
8 3489 4
8 3490 3
8 3491 396
8 3492 2
8 3493 190
8 3494 4
8 3495 5
8 3496 24
8 3497 2
8 3498 18
8 3499 139
8 3500 126
8 3501 232
8 3502 2
8 3503 3
8 3504 1
8 3505 1
8 3506 2
8 3507 3
8 3508 4
8 3509 2
8 3510 1
8 3511 4
8 3512 10
8 3513 2
8 3514 2
8 3515 121
8 3516 368
8 3517 73
8 3518 4
8 3519 1
8 3520 1
8 3522 15
8 3524 150
8 3525 4
8 3526 5
8 3528 2
8 3530 1
8 3531 2
8 3532 4
8 3533 4
8 3534 2
8 3535 4
8 3536 3
8 3537 3
8 3538 1
8 3539 3
8 3540 1
8 3542 2
8 3544 3
8 3545 187
8 3546 1
8 3547 3
8 3548 1
8 3549 1
8 3550 1
8 3552 207
8 3553 2
8 3554 3
8 3555 317
8 3556 2
8 3557 513
8 3559 4
8 3560 3
8 3562 1
8 3564 44
8 3565 155
8 3566 2
8 3568 5
8 3570 2
8 3571 1
8 3572 1
8 3573 3
8 3574 2
8 3575 1
8 3576 3
8 3577 1
8 3578 3
8 3579 1
8 3580 1
8 3581 1
8 3582 250
8 3584 8
8 3586 1
8 3587 226
8 3588 3
8 3589 1
8 3590 12
8 3591 1
8 3592 3
8 3593 1
8 3594 3
8 3595 1
8 3596 1
8 3597 2
8 3599 1
8 3600 1
8 3601 5
8 3603 6
8 3604 3
8 3605 1
8 3606 1
8 3608 57
8 3609 4
8 3610 2
8 3611 2
8 3612 2
8 3614 11
8 3616 1
8 3617 3
8 3619 3
8 3620 4
8 3621 4
8 3622 120
8 3623 2
8 3624 2
8 3625 2
8 3626 2
8 3627 4
8 3628 1
8 3629 2
8 3630 3
8 3632 2
8 3633 1
8 3635 1
8 3636 1
8 3637 2
8 3638 3
8 3639 157
8 3640 6
8 3642 2
8 3643 3
8 3644 4
8 3645 2
8 3646 5
8 3647 1
8 3648 1
8 3649 2
8 3650 1
8 3651 1
8 3652 3
8 3653 1
8 3654 2
8 3655 2
8 3656 3
8 3657 3
8 3658 1
8 3659 2
8 3660 193
8 3661 1
8 3662 1
8 3663 2
8 3665 3
8 3667 4
8 3668 6
8 3669 4
8 3670 4
8 3671 2
8 3672 4
8 3673 2
8 3674 3
8 3675 1
8 3676 2
8 3677 1
8 3678 1
8 3679 1
8 3680 3
8 3681 7
8 3682 3
8 3683 4
8 3684 203
8 3686 2
8 3687 96
8 3689 3
8 3690 351
8 3691 2
8 3692 4
8 3693 1
8 3694 1
8 3695 13
8 3696 2
8 3697 4
8 3699 3
8 3700 191
8 3701 3
8 3703 2
8 3704 2
8 3706 1
8 3707 5
8 3708 2
8 3712 4
8 3713 5
8 3714 3
8 3715 3
8 3716 2
8 3717 5
8 3718 1
8 3719 88
8 3720 51
8 3721 34
8 3722 1
8 3723 4
8 3724 2
8 3725 8
8 3726 1
8 3727 2
8 3728 3
8 3729 9
8 3731 91
8 3732 3
8 3733 1
8 3735 3
8 3736 3
8 3737 2
8 3738 284
8 3739 51
8 3740 3
8 3741 2
8 3742 1
8 3743 2
8 3744 10
8 3745 3
8 3746 2
8 3747 4
8 3748 132
8 3750 4
8 3751 1
8 3752 3
8 3753 1
8 3755 4
8 3757 1
8 3758 3
8 3759 3
8 3763 1
8 3764 1
8 3765 2
8 3766 2
8 3768 7
8 3769 112
8 3770 47
8 3771 39
8 3773 80
8 3774 2
8 3775 2
8 3777 1
8 3778 159
8 3780 6
8 3781 1
8 3782 3
8 3783 4
8 3784 5
8 3785 124
8 3787 245
8 3788 2
8 3791 4
8 3792 131
8 3793 64
8 3794 3
8 3795 2
8 3796 4
8 3797 2
8 3798 2
8 3799 5
8 3800 2
8 3801 3
8 3802 3
8 3803 4
8 3804 1
8 3805 2
8 3806 1
8 3809 2
8 3810 3
8 3812 72
8 3813 1
8 3814 1
8 3815 1
8 3816 1
8 3817 80
8 3819 4
8 3820 179
8 3821 1
8 3822 2
8 3823 1
8 3824 246
8 3825 1
8 3827 3
8 3828 9
8 3829 1
8 3830 6
8 3831 1
8 3832 3
8 3834 2
8 3835 2
8 3837 1
8 3838 1
8 3839 2
8 3840 2
8 3841 2
8 3842 9
8 3843 133
8 3846 1
8 3847 4
8 3848 2
8 3849 3
8 3850 5
8 3851 1
8 3852 2
8 3853 2
8 3854 1
8 3855 229
8 3857 1
8 3859 3
8 3861 2
8 3863 7
8 3864 2
8 3865 3
8 3866 3
8 3867 1
8 3869 5
8 3870 2
8 3872 2
8 3873 2
8 3875 2
8 3876 1
8 3877 4
8 3878 1
8 3880 3
8 3881 2
8 3883 1
8 3884 53
8 3885 2
8 3886 270
8 3887 1
8 3888 98
8 3889 13
8 3890 10
8 3891 2
8 3892 1
8 3893 5
8 3894 2
8 3895 1
8 3896 2
8 3897 2
8 3898 198
8 3900 119
8 3901 2
8 3902 6
8 3903 3
8 3904 2
8 3905 133
8 3906 6
8 3907 3
8 3908 5
8 3910 99
8 3911 1
8 3912 5
8 3913 4
8 3914 1
8 3915 1
8 3916 1
8 3917 2
8 3918 2
8 3919 5
8 3920 4
8 3921 3
8 3923 1
8 3924 2
8 3925 1
8 3927 4
8 3928 5
8 3929 1
8 3930 3
8 3932 2
8 3934 3
8 3936 377
8 3937 8
8 3938 2
8 3939 139
8 3940 2
8 3941 2
8 3942 2
8 3943 1
8 3944 247
8 3946 2
8 3948 3
8 3949 2
8 3951 1
8 3953 1
8 3954 4
8 3955 3
8 3956 4
8 3957 3
8 3958 1
8 3959 1
8 3960 3
8 3961 1
8 3964 1
8 3965 3
8 3967 2
8 3968 1
8 3969 3
8 3970 4
8 3972 100
8 3973 273
8 3974 2
8 3975 4
8 3977 4
8 3978 2
8 3979 3
8 3980 9
8 3982 2
8 3983 3
8 3984 1
8 3987 5
8 3989 4
8 3990 58
8 3991 6
8 3992 1
8 3993 1
8 3994 3
8 3995 1
8 3996 3
8 3997 2
8 3998 2
8 3999 1
8 4000 1
8 4001 1
8 4002 197
8 4004 2
8 4006 4
8 4007 1
8 4008 287
8 4009 2
8 4010 1
8 4011 1
8 4012 2
8 4014 3
8 4015 46
8 4018 2
8 4019 1
8 4020 3
8 4021 2
8 4022 1
8 4024 1
8 4027 29
8 4028 2
8 4029 4
8 4030 74
8 4031 2
8 4032 1
8 4033 61
8 4034 117
8 4035 41
8 4036 42
8 4037 280
8 4038 1
8 4039 278
8 4040 5
8 4041 220
8 4042 4
8 4043 89
8 4044 178
8 4045 2
8 4046 231
8 4047 5
8 4048 1
8 4049 3
8 4051 2
8 4052 5
8 4053 1
8 4054 2
8 4055 4
8 4056 2
8 4057 155
8 4058 2
8 4059 5
8 4060 1
8 4061 3
8 4062 1
8 4063 2
8 4064 1
8 4065 2
8 4068 1
8 4069 2
8 4071 150
8 4072 3
8 4074 1
8 4075 1
8 4076 4
8 4078 1
8 4079 2
8 4080 3
8 4081 1
8 4082 1
8 4085 3
8 4087 2
8 4088 1
8 4089 1
8 4092 2
8 4093 6
8 4094 99
8 4095 2
8 4097 3
8 4098 10
8 4100 1
8 4101 2
8 4104 1
8 4105 3
8 4106 1
8 4107 3
8 4108 1
8 4109 263
8 4110 15
8 4112 2
8 4113 72
8 4115 2
8 4116 128
8 4117 1
8 4120 2
8 4122 1
8 4123 4
8 4124 4
8 4125 2
8 4126 5
8 4127 221
8 4128 4
8 4129 64
8 4130 3
8 4131 5
8 4132 340
8 4133 2
8 4134 3
8 4136 4
8 4137 8
8 4138 3
8 4139 3
8 4140 1
8 4142 2
8 4143 4
8 4144 3
8 4145 2
8 4146 4
8 4147 561
8 4148 1
8 4149 3
8 4150 4
8 4152 4
8 4153 2
8 4154 201
8 4155 3
8 4156 2
8 4157 4
8 4158 179
8 4159 6
8 4160 3
8 4161 1
8 4162 1
8 4163 5
8 4167 2
8 4168 2
8 4169 3
8 4171 11
8 4172 2
8 4174 228
8 4175 10
8 4176 1
8 4177 1
8 4178 3
8 4179 1
8 4180 5
8 4181 4
8 4183 3
8 4184 4
8 4185 112
8 4186 5
8 4188 4
8 4189 226
8 4190 2
8 4191 3
8 4192 1
8 4193 2
8 4194 3
8 4195 2
8 4196 2
8 4197 2
8 4198 177
8 4199 1
8 4200 2
8 4201 7
8 4202 3
8 4203 4
8 4204 7
8 4206 3
8 4207 3
8 4209 3
8 4211 1
8 4212 5
8 4213 1
8 4214 2
8 4215 1
8 4217 1
8 4218 169
8 4219 2
8 4220 1
8 4221 1
8 4222 1
8 4223 3
8 4224 2
8 4225 1
8 4226 36
8 4228 5
8 4229 5
8 4231 1
8 4232 6
8 4233 257
8 4234 1
8 4235 1
8 4236 1
8 4237 1
8 4238 2
8 4240 3
8 4242 1
8 4243 2
8 4244 3
8 4245 12
8 4246 1
8 4247 4
8 4248 2
8 4249 1
8 4251 1
8 4252 4
8 4254 8
8 4255 1
8 4257 1
8 4259 3
8 4260 2
8 4261 1
8 4262 1
8 4263 3
8 4264 3
8 4265 2
8 4266 1
8 4267 2
8 4268 358
8 4269 33
8 4270 2
8 4271 1
8 4272 2
8 4273 2
8 4274 2
8 4276 2
8 4277 1
8 4279 1
8 4281 1
8 4282 4
8 4283 1
8 4285 1
8 4286 103
8 4287 3
8 4288 5
8 4289 27
8 4290 3
8 4291 2
8 4292 1
8 4293 1
8 4295 6
8 4296 168
8 4297 5
8 4298 1
8 4299 1
8 4300 1
8 4301 1
8 4302 1
8 4303 356
8 4305 44
8 4306 2
8 4307 4
8 4308 1
8 4310 183
8 4311 5
8 4312 2
8 4313 14
8 4315 3
8 4318 1
8 4319 3
8 4320 1
8 4321 2
8 4322 73
8 4323 73
8 4324 6
8 4326 3
8 4327 1
8 4328 1
8 4329 9
8 4331 2
8 4332 2
8 4333 2
8 4334 1
8 4335 6
8 4336 184
8 4338 2
8 4339 6
8 4340 1
8 4341 2
8 4342 1
8 4343 1
8 4344 1
8 4345 175
8 4346 2
8 4347 1
8 4348 232
8 4350 1
8 4351 1
8 4352 1
8 4353 15
8 4354 2
8 4355 57
8 4356 2
8 4357 188
8 4358 1
8 4360 2
8 4361 131
8 4362 3
8 4363 4
8 4364 161
8 4365 2
8 4366 2
8 4367 1
8 4368 234
8 4369 7
8 4370 1
8 4371 3
8 4372 2
8 4374 3
8 4375 1
8 4376 1
8 4378 10
8 4379 1
8 4380 73
8 4382 77
8 4383 67
8 4384 5
8 4386 5
8 4387 146
8 4388 109
8 4390 3
8 4392 5
8 4393 100
8 4394 7
8 4395 2
8 4396 1
8 4397 3
8 4398 2
8 4399 3
8 4400 5
8 4401 1
8 4402 87
8 4403 3
8 4404 3
8 4407 1
8 4408 1
8 4409 199
8 4410 2
8 4413 2
8 4416 2
8 4417 2
8 4418 3
8 4420 2
8 4421 5
8 4422 2
8 4423 2
8 4424 181
8 4425 6
8 4426 3
8 4427 1
8 4428 1
8 4430 3
8 4431 5
8 4432 3
8 4433 2
8 4436 5
8 4437 3
8 4438 154
8 4439 3
8 4440 2
8 4441 2
8 4442 3
8 4443 10
8 4444 4
8 4445 416
8 4446 1
8 4447 1
8 4448 1
8 4449 2
8 4450 1
8 4451 2
8 4452 1
8 4453 3
8 4454 1
8 4455 1
8 4456 3
8 4457 2
8 4458 4
8 4460 6
8 4463 3
8 4466 1
8 4467 3
8 4468 86
8 4469 3
8 4470 3
8 4471 1
8 4472 1
8 4473 2
8 4474 4
8 4475 3
8 4476 6
8 4477 2
8 4478 25
8 4479 97
8 4480 10
8 4481 3
8 4482 1
8 4483 1
8 4484 2
8 4486 3
8 4487 77
8 4488 38
8 4489 4
8 4490 497
8 4492 3
8 4493 1
8 4494 7
8 4496 2
8 4497 1
8 4499 1
8 4500 1
8 4501 248
8 4502 1
8 4504 14
8 4506 3
8 4508 4
8 4509 2
8 4511 10
8 4512 4
8 4513 2
8 4514 964
8 4515 2
8 4516 225
8 4517 2
8 4518 6
8 4519 3
8 4520 4
8 4521 1
8 4522 1
8 4523 1
8 4524 3
8 4525 5
8 4526 1
8 4527 2610
8 4528 2
8 4529 2
8 4533 2
8 4534 229
8 4536 183
8 4537 1
8 4538 5
8 4539 1
8 4540 2
8 4541 1
8 4542 2
8 4544 2
8 4546 2
8 4547 2
8 4548 2
8 4549 1
8 4550 4
8 4551 2
8 4552 1
8 4553 156
8 4554 3
8 4556 99
8 4557 1
8 4558 1
8 4559 10
8 4560 2
8 4561 4
8 4562 4
8 4563 5
8 4564 83
8 4565 3
8 4567 1
8 4568 67
8 4569 2
8 4570 1
8 4571 77
8 4572 124
8 4573 2
8 4574 61
8 4576 2
8 4579 1
8 4580 74
8 4582 2
8 4584 2
8 4585 1
8 4586 2
8 4587 5
8 4588 160
8 4589 1
8 4590 6
8 4591 8
8 4592 5
8 4593 39
8 4594 112
8 4595 21
8 4596 139
8 4597 1
8 4598 4
8 4600 3
8 4601 3
8 4603 3
8 4604 1
8 4605 2
8 4608 2
8 4609 3
8 4610 146
8 4611 1
8 4612 1
8 4613 92
8 4614 2
8 4615 2
8 4616 184
8 4617 2
8 4618 224
8 4619 4
8 4620 5
8 4621 2
8 4623 112
8 4626 4
8 4627 2
8 4628 1
8 4629 1
8 4630 2
8 4631 2
8 4632 2
8 4633 4
8 4634 2
8 4635 2
8 4637 1
8 4638 6
8 4639 3
8 4640 410
8 4641 1
8 4642 1
8 4643 92
8 4644 1
8 4645 2
8 4646 3
8 4647 2
8 4648 221
8 4650 2
8 4653 2
8 4654 157
8 4658 4
8 4659 3
8 4660 99
8 4661 4
8 4662 2
8 4663 2
8 4664 3
8 4667 2
8 4668 1
8 4669 3
8 4670 234
8 4671 3
8 4672 2
8 4673 1
8 4674 6
8 4675 2
8 4677 22
8 4678 4
8 4680 2
8 4681 2
8 4683 4
8 4684 232
8 4687 3
8 4688 2
8 4689 2
8 4690 3
8 4691 1
8 4692 1
8 4693 2
8 4694 167
8 4696 3
8 4698 2
8 4702 1
8 4703 2
8 4704 5
8 4705 1
8 4706 4
8 4707 1
8 4708 7
8 4709 4
8 4711 1
8 4712 1
8 4714 2
8 4716 1
8 4717 3
8 4718 2
8 4721 2
8 4722 131
8 4723 3
8 4724 1
8 4725 1
8 4726 1
8 4727 6
8 4728 2
8 4729 5
8 4730 1
8 4732 4
8 4733 1
8 4734 226
8 4735 45
8 4736 4
8 4737 3
8 4738 2
8 4740 171
8 4741 329
8 4742 2
8 4743 1
8 4744 1
8 4745 2
8 4746 2
8 4747 8
8 4748 1
8 4749 3
8 4750 1
8 4752 1
8 4753 3
8 4754 243
8 4755 94
8 4756 236
8 4757 3
8 4758 1
8 4760 3
8 4761 2
8 4762 4
8 4763 6
8 4764 237
8 4766 5
8 4768 3
8 4769 15
8 4770 1
8 4771 3
8 4772 4
8 4773 1
8 4774 1
8 4775 41
8 4776 8
8 4777 2
8 4778 2
8 4779 3
8 4780 1
8 4781 3
8 4782 183
8 4783 1
8 4785 6
8 4786 5
8 4787 1874
8 4788 3
8 4789 1
8 4790 1
8 4791 51
8 4792 1
8 4793 107
8 4794 2
8 4795 1
8 4796 5
8 4797 1
8 4798 1
8 4799 3
8 4801 1
8 4802 2
8 4803 373
8 4804 79
8 4806 3
8 4807 219
8 4809 2
8 4810 1
8 4811 634
8 4812 4
8 4813 179
8 4814 1
8 4815 2
8 4816 1
8 4817 172
8 4819 257
8 4820 69
8 4821 1
8 4822 1
8 4823 1
8 4824 36
8 4825 3
8 4826 1
8 4827 2
8 4828 2
8 4829 2
8 4830 4
8 4831 3
8 4832 3
8 4833 2
8 4834 2
8 4835 1
8 4836 4
8 4837 2
8 4838 7
8 4839 18
8 4841 2
8 4842 2
8 4843 1
8 4844 4
8 4846 2
8 4847 2
8 4848 2
8 4849 5
8 4850 2
8 4851 105
8 4852 78
8 4853 2
8 4854 2
8 4855 6
8 4858 2
8 4859 2
8 4860 2
8 4861 2
8 4862 6
8 4863 138
8 4864 3
8 4865 39
8 4868 1
8 4869 2
8 4870 2086
8 4871 3
8 4872 2
8 4873 1
8 4874 2
8 4875 1
8 4876 1
8 4877 20
8 4878 1
8 4879 1
8 4880 5
8 4881 2
8 4882 6
8 4883 2
8 4884 1
8 4885 1
8 4887 3
8 4888 259
8 4889 1
8 4890 2
8 4892 5
8 4894 3
8 4895 173
8 4896 2
8 4897 6
8 4898 3
8 4900 6
8 4901 2
8 4902 3
8 4903 3
8 4904 3
8 4905 4
8 4906 1
8 4907 373
8 4908 260
8 4910 1
8 4911 173
8 4912 1
8 4913 8
8 4914 1
8 4915 2
8 4916 188
8 4917 5
8 4918 4
8 4919 2
8 4920 249
8 4921 1
8 4922 173
8 4923 637
8 4924 2
8 4925 104
8 4927 102
8 4928 2
8 4929 3
8 4930 7
8 4931 2
8 4932 1
8 4933 100
8 4934 85
8 4935 5
8 4936 137
8 4937 3
8 4941 2
8 4942 2
8 4943 114
8 4944 2
8 4945 2
8 4946 2
8 4949 243
8 4950 1
8 4951 2
8 4952 2
8 4955 99
8 4957 294
8 4958 93
8 4959 3
8 4960 1
8 4961 4
8 4962 29
8 4963 1
8 4964 1
8 4965 2
8 4966 1
8 4967 1
8 4968 1
8 4969 2
8 4970 1
8 4971 2
8 4972 5
8 4974 3
8 4975 1
8 4976 1
8 4978 1
8 4979 1
8 4980 2
8 4981 3
8 4984 2
8 4985 2
8 4986 4
8 4987 49
8 4989 84
8 4990 135
8 4991 56
8 4997 1
8 4998 93
8 4999 3
8 5000 6
8 5001 1
8 5002 47
8 5003 4
8 5004 2
8 5006 10
8 5010 3
8 5011 1
8 5013 74
8 5014 1
8 5015 2
8 5016 3
8 5017 105
8 5018 17
8 5019 2
8 5020 1
8 5021 1
8 5022 3
8 5023 1
8 5024 1
8 5025 2
8 5026 1
8 5027 2
8 5028 1
8 5029 4
8 5030 3
8 5031 1
8 5033 2
8 5034 1
8 5036 145
8 5037 4
8 5038 2
8 5039 2
8 5042 4
8 5043 3
8 5044 1
8 5045 1
8 5046 303
8 5049 2
8 5050 58
8 5051 1
8 5052 1
8 5053 3
8 5054 171
8 5055 2
8 5056 2
8 5057 1
8 5059 2
8 5060 103
8 5061 1
8 5063 1
8 5064 3
8 5065 1
8 5066 1
8 5067 120
8 5068 2
8 5069 111
8 5070 1
8 5072 3
8 5073 78
8 5074 1
8 5075 167
8 5076 12
8 5077 1
8 5078 4
8 5079 163
8 5080 2
8 5083 2
8 5084 2
8 5085 5
8 5086 1
8 5087 2
8 5088 3
8 5089 1
8 5090 3
8 5092 3
8 5093 37
8 5095 2
8 5098 122
8 5099 1
8 5100 1
8 5101 1
8 5102 3
8 5104 4
8 5105 1
8 5106 1
8 5108 1
8 5109 1
8 5110 1
8 5111 328
8 5113 3
8 5115 4
8 5116 2
8 5118 3
8 5119 3
8 5120 2
8 5121 2
8 5122 2
8 5123 3
8 5124 126
8 5125 2
8 5126 22
8 5127 4
8 5128 1
8 5129 69
8 5130 1
8 5131 122
8 5133 1
8 5135 2
8 5136 1
8 5139 1
8 5140 1
8 5141 2
8 5143 3
8 5145 3
8 5146 3
8 5149 3
8 5150 6
8 5152 6
8 5153 2
8 5154 2
8 5156 5
8 5157 5
8 5158 2
8 5159 3
