%%MatrixMarket matrix coordinate integer general
%
3 16598 49262
1 1 4
1 3 22
1 4 96
1 5 6
1 6 4
1 7 20
1 8 4
1 9 27
1 10 21
1 12 4
1 13 43
1 14 5
1 15 8
1 16 35
1 17 28
1 18 22
1 19 3
1 20 36
1 21 2
1 22 10
1 23 46
1 24 6
1 25 37
1 26 7
1 27 4
1 28 4
1 29 26
1 30 5
1 31 15
1 32 5
1 33 4
1 34 4
1 35 58
1 36 11
1 37 33
1 38 6
1 39 28
1 40 31
1 41 2
1 42 14
1 43 2
1 44 4
1 45 3
1 46 55
1 47 2
1 48 27
1 49 9
1 50 14
1 51 3
1 52 61
1 53 2
1 54 2
1 55 1049
1 56 5
1 57 1
1 58 4
1 59 1
1 60 4
1 61 2
1 62 4
1 63 2
1 64 3
1 65 11
1 66 20
1 67 16
1 68 18
1 69 37
1 70 29
1 71 3
1 72 13
1 73 4
1 74 6
1 75 8
1 76 3
1 77 5
1 78 16
1 79 81
1 80 7
1 81 4
1 82 37
1 83 7
1 84 5
1 85 6
1 86 3
1 87 6
1 88 55
1 89 21
1 90 4
1 91 5
1 92 6
1 93 17
1 94 54
1 95 4
1 96 11
1 97 38
1 98 24
1 99 31
1 100 24
1 101 7
1 102 3
1 103 2
1 104 6
1 105 44
1 106 15
1 107 1
1 108 1
1 109 29
1 110 19
1 111 20
1 112 14
1 113 6
1 114 4
1 115 64
1 116 2
1 117 3
1 118 10
1 119 57
1 121 11
1 122 22
1 123 11
1 124 4
1 125 1
1 126 5
1 127 735
1 128 23
1 129 62
1 130 2
1 132 2
1 133 21
1 134 116
1 137 26
1 138 3
1 139 12
1 140 6
1 141 40
1 142 40
1 143 4
1 144 6
1 145 82
1 146 40
1 147 6
1 148 44
1 149 1
1 150 23
1 151 28
1 152 24
1 153 4
1 154 8
1 155 1
1 157 6
1 158 8
1 159 144
1 160 26
1 161 770
1 162 1
1 163 2
1 164 8
1 165 3
1 166 11
1 167 31
1 168 3
1 169 5
1 170 3
1 171 69
1 172 6
1 173 5
1 174 35
1 175 6
1 176 3
1 177 14
1 179 2
1 180 6
1 181 4
1 182 18
1 183 19
1 184 530
1 185 2
1 186 10
1 187 3
1 188 25
1 189 59
1 190 6
1 191 24
1 192 5
1 193 7
1 194 4
1 195 3
1 196 6
1 197 58
1 198 23
1 199 17
1 200 1
1 201 2
1 202 18
1 204 3
1 205 19
1 206 17
1 207 2
1 208 4
1 209 37
1 210 25
1 211 7
1 212 4
1 213 30
1 214 20
1 215 5
1 216 3
1 217 23
1 218 10
1 219 40
1 220 9
1 221 32
1 222 17
1 223 3
1 224 4
1 225 45
1 226 20
1 227 27
1 228 6
1 229 3
1 230 6
1 231 5
1 232 6
1 233 2
1 234 15
1 235 7
1 236 2
1 237 38
1 238 5
1 239 9
1 240 17
1 241 3
1 242 13
1 243 6
1 244 41
1 245 39
1 246 3
1 247 22
1 248 47
1 249 1
1 250 57
1 251 6
1 252 104
1 253 95
1 254 18
1 255 20
1 256 11
1 257 371
1 258 4
1 259 20
1 260 15
1 261 4
1 262 15
1 263 15
1 264 2
1 265 13
1 266 5
1 267 15
1 268 59
1 269 21
1 270 26
1 271 32
1 272 4
1 273 12
1 274 19
1 275 3
1 276 8
1 277 25
1 278 4
1 279 2
1 280 14
1 281 5
1 282 5
1 283 4
1 285 4
1 286 2
1 287 22
1 288 3
1 290 4
1 291 2
1 292 8
1 293 1281
1 295 1
1 296 3
1 297 2
1 298 3
1 299 4
1 300 1
1 301 17
1 302 6
1 303 2
1 304 9
1 305 1
1 306 6
1 307 74
1 308 26
1 309 8
1 310 45
1 311 3
1 312 2
1 313 6
1 314 18
1 315 24
1 316 5
1 317 25
1 318 1
1 319 25
1 320 1
1 321 983
1 323 1
1 324 5
1 325 31
1 326 62
1 327 12
1 329 6
1 330 47
1 331 4
1 332 10
1 333 6
1 334 32
1 335 280
1 337 6
1 338 11
1 339 4
1 340 55
1 341 6
1 342 3
1 343 3
1 344 1
1 345 36
1 346 6
1 347 4
1 348 1
1 349 24
1 351 7
1 353 3
1 354 467
1 355 2
1 356 55
1 357 2
1 358 6
1 359 8
1 360 62
1 361 16
1 362 3
1 363 3
1 364 2
1 365 6
1 366 5
1 367 30
1 368 1011
1 369 3
1 370 5
1 371 13
1 372 665
1 373 32
1 374 18
1 375 6
1 376 1
1 377 4
1 378 18
1 379 10
1 380 7
1 381 1
1 382 16
1 383 5
1 384 6
1 385 368
1 386 38
1 387 7
1 388 4
1 389 6
1 390 25
1 391 28
1 392 2
1 393 2
1 394 1
1 395 3
1 396 65
1 397 2
1 398 9
1 399 19
1 400 30
1 401 8
1 402 1
1 403 2
1 404 6
1 405 21
1 406 371
1 408 57
1 409 3
1 410 6
1 411 4
1 412 7
1 413 57
1 414 4
1 415 54
1 416 22
1 417 35
1 418 4
1 419 2
1 420 4
1 421 14
1 422 3
1 423 61
1 424 6
1 425 29
1 426 2
1 427 7
1 428 17
1 429 1
1 430 45
1 431 4
1 432 30
1 433 3
1 434 3
1 435 18
1 436 15
1 437 2
1 438 4
1 439 22
1 440 29
1 441 16
1 442 6
1 443 3
1 444 18
1 445 22
1 446 5
1 447 12
1 448 8
1 449 7
1 450 14
1 451 3
1 452 29
1 453 3
1 454 2
1 455 4
1 456 11
1 457 1
1 458 4
1 459 22
1 460 1
1 461 4
1 462 467
1 463 5
1 464 4
1 466 13
1 467 39
1 468 2
1 469 5
1 470 44
1 471 39
1 472 4
1 473 23
1 474 13
1 475 43
1 476 17
1 477 1
1 478 18
1 479 21
1 480 46
1 481 4
1 482 15
1 483 20
1 484 18
1 485 1
1 486 42
1 487 20
1 488 2
1 489 12
1 490 3
1 491 5
1 492 29
1 493 23
1 494 1
1 495 10
1 496 9
1 497 4
1 498 60
1 499 17
1 500 4
1 501 22
1 502 17
1 503 9
1 504 17
1 505 4
1 506 1
1 507 6
1 508 18
1 509 3
1 510 18
1 511 8
1 512 3
1 513 1
1 514 18
1 515 60
1 516 3
1 517 12
1 518 13
1 519 21
1 520 31
1 521 29
1 522 54
1 523 5
1 524 14
1 525 7
1 526 2
1 527 8
1 528 5
1 529 8
1 530 3
1 531 6
1 532 46
1 533 5
1 534 22
1 535 7
1 536 3
1 537 33
1 538 16
1 539 17
1 540 27
1 541 2
1 542 2
1 543 1
1 544 3
1 546 54
1 547 3
1 548 15
1 549 39
1 550 4
1 551 10
1 552 1
1 553 30
1 554 3
1 555 4
1 556 19
1 558 2
1 559 52
1 560 25
1 561 10
1 562 2
1 564 19
1 565 2
1 566 33
1 567 6
1 568 26
1 569 23
1 570 2
1 571 2
1 572 19
1 573 51
1 574 3
1 575 37
1 576 55
1 577 6
1 578 4
1 579 2
1 580 813
1 581 28
1 582 4
1 583 29
1 584 37
1 585 18
1 586 83
1 587 7
1 588 51
1 589 21
1 590 3
1 591 16
1 592 28
1 593 2
1 594 6
1 595 5
1 596 2
1 598 6
1 599 8
1 600 4
1 601 3
1 602 7
1 603 1
1 604 4
1 605 2
1 606 1
1 607 4
1 608 5
1 609 4
1 610 1033
1 611 14
1 612 30
1 613 13
1 614 3
1 615 8
1 616 2
1 617 6
1 618 4
1 619 3
1 620 5
1 621 15
1 622 19
1 623 29
1 624 2
1 625 4
1 626 14
1 627 5
1 628 23
1 629 4
1 630 7
1 631 41
1 632 35
1 633 1
1 634 3
1 635 35
1 636 2
1 637 9
1 638 9
1 639 4
1 640 15
1 641 9
1 642 23
1 643 3
1 644 60
1 645 3
1 646 1
1 647 56
1 648 4
1 649 4
1 650 4
1 651 44
1 652 3
1 653 3
1 654 3
1 655 24
1 656 48
1 657 3
1 658 2
1 660 994
1 661 2
1 662 28
1 663 2
1 664 2
1 665 35
1 666 3
1 667 6
1 668 501
1 669 1
1 670 9
1 671 5
1 672 4
1 673 25
1 674 2
1 675 6
1 676 22
1 677 35
1 678 40
1 679 12
1 680 6
1 681 1
1 682 40
1 683 9
1 684 7
1 685 91
1 686 6
1 687 6
1 688 26
1 689 21
1 690 38
1 691 33
1 692 170
1 693 4
1 694 20
1 695 6
1 696 21
1 697 7
1 698 4
1 700 30
1 701 7
1 702 13
1 703 10
1 704 1
1 705 13
1 706 6
1 707 46
1 708 10
1 709 5
1 710 5
1 711 17
1 712 22
1 713 8
1 714 8
1 715 28
1 716 7
1 718 2
1 719 29
1 720 21
1 721 2
1 722 23
1 723 12
1 724 2
1 725 193
1 726 23
1 727 3
1 728 6
1 729 48
1 730 13
1 731 8
1 732 11
1 733 37
1 734 8
1 735 20
1 736 7
1 737 3
1 738 37
1 739 33
1 740 6
1 741 4
1 742 3
1 743 2
1 744 6
1 745 4
1 746 3
1 747 5
1 748 7
1 749 1
1 750 58
1 751 3
1 752 5
1 753 2
1 754 47
1 755 4
1 756 14
1 757 106
1 758 3
1 759 3
1 760 4
1 761 15
1 762 17
1 763 28
1 764 4
1 766 11
1 767 6
1 768 13
1 769 40
1 770 10
1 771 22
1 772 2
1 773 16
1 774 4
1 775 2
1 776 5
1 777 1041
1 778 16
1 779 5
1 780 5
1 781 4
1 782 4
1 783 9
1 784 2
1 785 13
1 786 50
1 787 6
1 788 78
1 789 2
1 790 6
1 791 3
1 792 19
1 793 28
1 794 2
1 795 1
1 796 8
1 797 4
1 798 53
1 799 21
1 800 3
1 801 5
1 802 5
1 803 9
1 804 26
1 805 5
1 806 21
1 807 9
1 808 17
1 809 3
1 810 21
1 811 10
1 812 2
1 813 4
1 814 4
1 815 5
1 816 4
1 817 489
1 818 17
1 819 6
1 820 4
1 821 5
1 822 32
1 823 6
1 824 9
1 825 32
1 826 3
1 827 1152
1 829 15
1 830 4
1 831 3
1 832 1
1 833 3
1 834 3
1 835 43
1 836 26
1 837 3
1 838 6
1 839 6
1 840 2
1 841 47
1 842 2
1 843 5
1 844 25
1 845 1
1 846 6
1 847 28
1 848 2
1 849 1
1 850 3
1 851 30
1 852 5
1 853 32
1 854 14
1 855 3
1 856 4
1 857 2
1 858 4
1 859 3
1 860 3
1 861 26
1 862 31
1 863 6
1 864 21
1 865 4
1 866 2
1 867 28
1 868 2
1 869 1321
1 870 9
1 871 2
1 872 11
1 873 67
1 874 9
1 875 12
1 876 6
1 877 20
1 878 20
1 879 1
1 880 8
1 881 36
1 882 6
1 883 4
1 884 23
1 885 3
1 886 1
1 887 3
1 888 4
1 889 41
1 890 19
1 891 4
1 892 12
1 893 41
1 894 23
1 895 45
1 896 2
1 897 1
1 898 21
1 899 2
1 900 14
1 901 17
1 902 1021
1 903 6
1 904 36
1 905 9
1 906 52
1 907 7
1 908 49
1 909 1
1 910 35
1 911 7
1 912 28
1 913 34
1 914 58
1 915 7
1 916 16
1 917 17
1 918 5
1 919 29
1 920 4
1 921 3
1 922 9
1 923 1
1 924 6
1 925 1136
1 926 6
1 927 5
1 928 3
1 929 1
1 930 47
1 931 4
1 932 22
1 933 32
1 934 37
1 935 25
1 936 3
1 937 3
1 938 7
1 939 6
1 940 8
1 941 5
1 942 5
1 943 7
1 944 28
1 945 4
1 946 20
1 947 30
1 948 2
1 949 26
1 950 8
1 951 3
1 952 3
1 953 10
1 954 3
1 955 44
1 956 42
1 957 4
1 958 4
1 959 3
1 960 5
1 961 63
1 962 45
1 963 12
1 964 2
1 965 14
1 966 38
1 967 5
1 968 21
1 969 5
1 970 5
1 971 1
1 972 2
1 973 28
1 974 1
1 975 39
1 976 111
1 977 2
1 978 6
1 979 4
1 980 2
1 981 22
1 982 3
1 983 23
1 984 3
1 985 31
1 986 5
1 987 3
1 988 4
1 989 30
1 990 3
1 991 2
1 992 4
1 993 14
1 994 5
1 995 5
1 996 3
1 997 5
1 998 30
1 999 2
1 1000 3
1 1001 1219
1 1002 116
1 1003 37
1 1004 7
1 1005 31
1 1006 4
1 1007 1
1 1008 1
1 1009 7
1 1011 571
1 1012 6
1 1013 4
1 1014 9
1 1015 3
1 1016 21
1 1017 15
1 1018 12
1 1019 19
1 1020 8
1 1021 5
1 1022 23
1 1023 1
1 1024 5
1 1025 9
1 1026 364
1 1028 5
1 1029 32
1 1030 24
1 1031 3
1 1032 582
1 1033 4
1 1034 42
1 1035 2
1 1036 36
1 1037 2
1 1038 41
1 1040 13
1 1041 7
1 1042 5
1 1043 59
1 1044 5
1 1045 17
1 1046 1
1 1047 3
1 1048 4
1 1049 22
1 1050 15
1 1051 3
1 1052 9
1 1053 22
1 1054 4
1 1055 12
1 1056 34
1 1057 5
1 1058 10
1 1059 4
1 1060 1
1 1061 3
1 1062 7
1 1063 29
1 1064 25
1 1065 4
1 1066 12
1 1067 21
1 1068 9
1 1069 2
1 1070 51
1 1071 3
1 1072 7
1 1073 33
1 1074 1
1 1075 33
1 1076 65
1 1077 3
1 1078 4
1 1079 2
1 1080 2
1 1081 1
1 1082 5
1 1083 8
1 1084 22
1 1085 2
1 1086 3
1 1087 5
1 1088 10
1 1089 1
1 1090 2
1 1091 7
1 1092 3
1 1093 3
1 1094 50
1 1095 4
1 1096 2
1 1097 1
1 1098 4
1 1099 5
1 1100 2
1 1101 6
1 1102 80
1 1103 1
1 1104 5
1 1105 59
1 1106 6
1 1107 27
1 1108 10
1 1109 45
1 1110 31
1 1111 260
1 1112 4
1 1113 84
1 1114 1
1 1115 14
1 1116 1
1 1117 4
1 1118 1
1 1119 27
1 1120 19
1 1121 28
1 1122 17
1 1123 10
1 1124 5
1 1125 6
1 1126 5
1 1127 50
1 1128 4
1 1129 28
1 1130 26
1 1131 42
1 1132 2
1 1133 23
1 1134 6
1 1135 4
1 1136 7
1 1137 3
1 1138 29
1 1139 5
1 1140 27
1 1141 11
1 1142 12
1 1143 68
1 1144 23
1 1145 11
1 1146 3
1 1147 32
1 1148 7
1 1149 3
1 1150 4
1 1151 25
1 1152 1299
1 1153 16
1 1154 5
1 1155 3
1 1156 10
1 1157 7
1 1158 17
1 1159 28
1 1160 2
1 1161 25
1 1162 29
1 1163 7
1 1164 1
1 1165 4
1 1166 2
1 1167 5
1 1168 2
1 1169 7
1 1170 39
1 1171 34
1 1172 20
1 1173 24
1 1174 6
1 1175 1
1 1176 143
1 1177 4
1 1178 4
1 1179 45
1 1180 11
1 1181 7
1 1182 16
1 1183 5
1 1184 15
1 1185 58
1 1186 2
1 1188 26
1 1189 4
1 1190 1
1 1191 36
1 1192 6
1 1193 3
1 1194 2
1 1195 3
1 1196 48
1 1197 57
1 1198 5
1 1199 6
1 1200 4
1 1201 3
1 1202 8
1 1203 19
1 1204 1
1 1205 14
1 1206 3
1 1207 65
1 1208 819
1 1209 16
1 1210 13
1 1211 5
1 1212 5
1 1213 1
1 1214 2
1 1215 3
1 1216 1
1 1217 25
1 1218 31
1 1219 4
1 1220 3
1 1221 17
1 1222 3
1 1223 33
1 1224 24
1 1225 286
1 1226 615
1 1227 20
1 1228 6
1 1229 5
1 1230 8
1 1231 1
1 1232 3
1 1233 34
1 1234 68
1 1235 48
1 1236 2
1 1237 3
1 1238 6
1 1239 4
1 1240 28
1 1241 17
1 1242 6
1 1243 6
1 1244 5
1 1245 41
1 1246 10
1 1247 6
1 1248 32
1 1249 4
1 1250 301
1 1251 1
1 1252 2
1 1253 2
1 1254 700
1 1255 18
1 1256 15
1 1257 2
1 1258 3
1 1259 6
1 1260 3
1 1261 21
1 1262 5
1 1263 2
1 1264 7
1 1265 23
1 1266 11
1 1267 35
1 1268 52
1 1269 3
1 1270 1
1 1271 9
1 1272 26
1 1273 24
1 1274 5
1 1275 6
1 1276 1
1 1277 54
1 1278 4
1 1279 3
1 1280 14
1 1282 18
1 1283 13
1 1284 69
1 1285 20
1 1286 7
1 1287 9
1 1288 4
1 1289 2
1 1290 4
1 1291 2
1 1292 12
1 1293 1
1 1294 4
1 1295 3
1 1296 7
1 1297 5
1 1298 64
1 1299 35
1 1300 25
1 1301 13
1 1302 8
1 1303 6
1 1304 22
1 1305 7
1 1306 3
1 1307 3
1 1308 3
1 1309 2
1 1310 28
1 1311 3
1 1312 3
1 1313 196
1 1314 45
1 1315 3
1 1316 1
1 1317 5
1 1318 1
1 1319 6
1 1320 2
1 1321 1
1 1322 31
1 1323 34
1 1324 27
1 1325 2
1 1326 20
1 1327 18
1 1328 24
1 1329 9
1 1330 22
1 1331 25
1 1332 7
1 1333 8
1 1334 7
1 1335 9
1 1336 4
1 1337 63
1 1338 3
1 1339 2
1 1340 5
1 1341 276
1 1342 1
1 1343 5
1 1344 3
1 1345 27
1 1346 5
1 1347 42
1 1348 4
1 1349 25
1 1350 12
1 1351 350
1 1352 15
1 1353 2
1 1354 6
1 1355 3
1 1357 15
1 1358 43
1 1359 2
1 1360 4
1 1361 3
1 1362 1
1 1363 24
1 1364 47
1 1365 5
1 1366 8
1 1367 28
1 1368 9
1 1369 13
1 1370 5
1 1371 1
1 1372 4
1 1373 3
1 1374 20
1 1375 16
1 1376 3
1 1377 5
1 1378 1143
1 1379 4
1 1380 2
1 1381 26
1 1382 3
1 1383 1
1 1384 6
1 1385 4
1 1386 4
1 1387 5
1 1388 13
1 1389 13
1 1390 4
1 1391 28
1 1392 4
1 1393 50
1 1394 4
1 1395 23
1 1396 14
1 1397 12
1 1398 13
1 1399 2
1 1400 3
1 1401 2
1 1402 25
1 1403 43
1 1404 5
1 1405 3
1 1406 1
1 1407 16
1 1408 9
1 1409 2
1 1410 26
1 1411 4
1 1412 8
1 1413 12
1 1414 6
1 1415 37
1 1416 6
1 1417 14
1 1418 19
1 1419 3
1 1420 7
1 1421 48
1 1422 36
1 1423 3
1 1424 6
1 1425 8
1 1426 3
1 1427 3
1 1428 45
1 1429 68
1 1430 1
1 1431 34
1 1432 1
1 1433 49
1 1434 41
1 1435 415
1 1436 2
1 1437 13
1 1438 11
1 1439 6
1 1440 8
1 1441 1
1 1442 37
1 1443 5
1 1444 27
1 1445 3
1 1446 3
1 1447 13
1 1448 9
1 1449 16
1 1450 3
1 1451 3
1 1452 19
1 1453 7
1 1454 4
1 1455 1
1 1456 4
1 1457 1
1 1458 22
1 1459 7
1 1460 3
1 1461 21
1 1462 3
1 1463 13
1 1464 3
1 1465 41
1 1466 2
1 1467 3
1 1468 1
1 1469 46
1 1470 4
1 1471 47
1 1472 2
1 1473 18
1 1474 52
1 1475 7
1 1476 10
1 1477 1
1 1478 43
1 1479 12
1 1480 18
1 1481 10
1 1482 2
1 1483 11
1 1484 2
1 1485 4
1 1486 1
1 1487 33
1 1488 36
1 1489 547
1 1490 12
1 1491 4
1 1492 3
1 1493 12
1 1494 3
1 1495 6
1 1496 3
1 1497 35
1 1498 9
1 1499 7
1 1500 35
1 1501 12
1 1502 417
1 1503 18
1 1504 3
1 1505 5
1 1506 3
1 1507 34
1 1508 23
1 1509 3
1 1510 20
1 1511 32
1 1512 25
1 1513 3
1 1514 1
1 1515 39
1 1516 4
1 1517 14
1 1518 9
1 1519 4
1 1520 47
1 1521 30
1 1523 151
1 1524 27
1 1525 24
1 1526 37
1 1527 3
1 1528 4
1 1529 4
1 1530 4
1 1531 5
1 1532 4
1 1533 15
1 1534 1
1 1536 21
1 1537 4
1 1538 1
1 1539 681
1 1540 34
1 1541 18
1 1542 11
1 1543 9
1 1544 21
1 1545 11
1 1546 5
1 1547 3
1 1548 8
1 1549 11
1 1550 23
1 1551 19
1 1552 8
1 1553 15
1 1554 11
1 1555 14
1 1556 21
1 1557 7
1 1558 10
1 1559 48
1 1560 20
1 1561 49
1 1562 15
1 1563 9
1 1564 61
1 1566 7
1 1567 3
1 1568 12
1 1569 9
1 1570 25
1 1571 2
1 1572 26
1 1573 15
1 1574 31
1 1575 6
1 1576 4
1 1577 2
1 1578 9
1 1579 13
1 1580 2
1 1581 6
1 1582 17
1 1583 17
1 1584 14
1 1585 512
1 1586 1
1 1587 3
1 1588 2
1 1589 2
1 1590 15
1 1591 4
1 1592 1
1 1593 4
1 1594 152
1 1595 53
1 1596 4
1 1597 2
1 1598 5
1 1599 22
1 1600 24
1 1601 25
1 1602 8
1 1603 4
1 1604 6
1 1605 14
1 1606 5
1 1607 2
1 1608 3
1 1609 21
1 1610 18
1 1611 7
1 1612 251
1 1613 6
1 1614 1
1 1615 6
1 1616 6
1 1617 8
1 1618 29
1 1619 1800
1 1620 15
1 1621 7
1 1622 13
1 1623 3
1 1624 9
1 1625 15
1 1626 2
1 1628 15
1 1629 6
1 1630 2
1 1631 13
1 1632 7
1 1634 1
1 1635 13
1 1636 3
1 1637 16
1 1638 4
1 1639 2
1 1640 3
1 1641 1
1 1642 4
1 1643 1056
1 1644 3
1 1645 6
1 1646 41
1 1647 13
1 1648 10
1 1649 3
1 1650 6
1 1651 2
1 1652 2
1 1653 34
1 1654 26
1 1655 2
1 1656 24
1 1657 3
1 1658 5
1 1659 15
1 1660 30
1 1661 3
1 1662 23
1 1663 22
1 1664 3
1 1665 4
1 1666 13
1 1667 6
1 1668 3
1 1669 27
1 1670 10
1 1671 5
1 1672 43
1 1673 3
1 1674 25
1 1675 22
1 1676 10
1 1677 1
1 1678 7
1 1679 2
1 1680 4
1 1681 28
1 1682 1
1 1683 14
1 1684 37
1 1685 5
1 1686 3
1 1687 11
1 1688 17
1 1689 9
1 1690 2
1 1691 4
1 1692 4
1 1693 3
1 1694 31
1 1695 19
1 1696 708
1 1697 33
1 1698 4
1 1699 20
1 1700 1
1 1701 4
1 1702 5
1 1703 32
1 1704 30
1 1705 22
1 1707 6
1 1708 6
1 1709 42
1 1710 21
1 1711 2
1 1712 1
1 1713 3
1 1714 2
1 1715 42
1 1716 8
1 1717 43
1 1718 23
1 1719 13
1 1720 17
1 1721 5
1 1722 6
1 1723 3
1 1724 40
1 1725 5
1 1726 3
1 1727 27
1 1728 15
1 1729 1
1 1730 8
1 1731 18
1 1732 3
1 1733 9
1 1734 3
1 1735 6
1 1736 1
1 1737 1
1 1738 3
1 1739 3
1 1740 1
1 1741 1
1 1742 11
1 1743 1
1 1744 7
1 1745 30
1 1746 45
1 1747 2
1 1748 20
1 1749 16
1 1750 2
1 1751 6
1 1752 60
1 1753 3
1 1754 16
1 1755 5
1 1756 1
1 1757 8
1 1758 3
1 1759 2
1 1760 5
1 1761 16
1 1762 2
1 1763 3
1 1764 18
1 1765 3
1 1766 5
1 1767 2
1 1768 1
1 1769 18
1 1770 15
1 1771 34
1 1772 3
1 1774 1
1 1775 2
1 1776 31
1 1777 10
1 1778 22
1 1779 3
1 1780 26
1 1781 17
1 1782 6
1 1783 11
1 1784 14
1 1785 25
1 1786 10
1 1787 4
1 1788 12
1 1789 2
1 1790 10
1 1791 22
1 1792 7
1 1793 4
1 1794 17
1 1795 12
1 1796 19
1 1797 20
1 1798 6
1 1799 1
1 1800 14
1 1801 5
1 1802 18
1 1803 22
1 1804 6
1 1805 14
1 1806 14
1 1807 24
1 1808 3
1 1809 4
1 1810 13
1 1811 5
1 1812 2
1 1813 2
1 1814 4
1 1815 20
1 1816 3
1 1817 31
1 1818 7
1 1819 39
1 1820 5
1 1821 3
1 1822 3
1 1823 4
1 1824 35
1 1825 6
1 1826 2
1 1827 2
1 1828 2
1 1829 34
1 1830 30
1 1831 4
1 1832 12
1 1833 35
1 1834 15
1 1835 24
1 1836 32
1 1837 24
1 1838 11
1 1839 14
1 1840 17
1 1841 67
1 1842 2
1 1843 2
1 1844 20
1 1845 379
1 1846 67
1 1847 4
1 1848 3
1 1849 47
1 1850 8
1 1851 34
1 1852 5
1 1853 4
1 1854 7
1 1855 1
1 1856 37
1 1857 61
1 1858 106
1 1859 6
1 1860 16
1 1861 2
1 1862 6
1 1863 10
1 1864 98
1 1865 33
1 1866 2
1 1867 65
1 1868 3
1 1869 5
1 1870 57
1 1871 4
1 1872 29
1 1873 3
1 1874 6
1 1875 5
1 1876 16
1 1877 2
1 1878 46
1 1879 4
1 1880 5
1 1881 49
1 1882 2
1 1883 1
1 1884 36
1 1885 2
1 1886 10
1 1887 30
1 1888 5
1 1889 2
1 1890 10
1 1891 6
1 1892 2
1 1893 4
1 1894 3
1 1895 44
1 1896 26
1 1897 8
1 1898 3
1 1899 10
1 1900 23
1 1901 27
1 1902 43
1 1903 3
1 1904 9
1 1905 22
1 1906 3
1 1907 3
1 1908 54
1 1909 22
1 1910 5
1 1911 3
1 1912 4
1 1913 5
1 1914 1
1 1915 5
1 1916 2
1 1917 29
1 1918 45
1 1919 15
1 1920 61
1 1921 2
1 1922 8
1 1923 1233
1 1924 3
1 1925 2
1 1926 1
1 1927 26
1 1928 32
1 1929 2
1 1930 4
1 1931 31
1 1932 758
1 1933 3
1 1934 8
1 1936 15
1 1937 25
1 1938 3
1 1939 21
1 1940 25
1 1941 16
1 1942 6
1 1943 13
1 1944 10
1 1945 18
1 1946 23
1 1947 1
1 1948 49
1 1949 4
1 1950 1
1 1952 2
1 1953 5
1 1954 4
1 1955 3
1 1956 51
1 1957 6
1 1958 7
1 1959 5
1 1960 4
1 1961 13
1 1962 5
1 1963 4
1 1964 2
1 1965 15
1 1966 9
1 1967 10
1 1968 21
1 1969 21
1 1970 5
1 1971 25
1 1972 7
1 1973 5
1 1974 3
1 1975 2
1 1976 17
1 1977 36
1 1978 1
1 1979 3
1 1980 4
1 1981 4
1 1982 23
1 1983 2
1 1984 2
1 1985 2
1 1986 59
1 1987 5
1 1988 10
1 1989 5
1 1990 21
1 1991 3
1 1992 1
1 1993 18
1 1994 78
1 1995 1
1 1996 12
1 1998 7
1 1999 1
1 2000 20
1 2001 10
1 2002 19
1 2003 3
1 2004 3
1 2005 1
1 2006 1
1 2007 3
1 2008 20
1 2009 4
1 2010 14
1 2011 3
1 2012 5
1 2013 5
1 2014 21
1 2015 2
1 2016 11
1 2017 15
1 2018 3
1 2019 24
1 2020 1259
1 2021 11
1 2022 5
1 2023 41
1 2024 4
1 2026 19
1 2027 2
1 2028 1
1 2029 3
1 2030 6
1 2031 16
1 2032 36
1 2033 11
1 2034 9
1 2035 6
1 2036 8
1 2037 5
1 2038 29
1 2039 4
1 2040 2
1 2041 6
1 2042 12
1 2043 16
1 2044 19
1 2045 13
1 2046 1280
1 2047 7
1 2048 5
1 2049 17
1 2050 3
1 2051 43
1 2052 5
1 2053 5
1 2054 4
1 2055 25
1 2056 43
1 2058 23
1 2059 257
1 2060 26
1 2061 37
1 2062 2
1 2063 19
1 2064 16
1 2065 13
1 2066 4
1 2067 5
1 2069 2
1 2070 18
1 2071 4
1 2072 1
1 2073 3
1 2074 4
1 2075 5
1 2076 5
1 2077 3
1 2078 1
1 2079 3
1 2080 11
1 2081 12
1 2082 55
1 2084 18
1 2085 14
1 2086 3
1 2087 3
1 2088 1
1 2089 34
1 2090 5
1 2091 5
1 2092 5
1 2093 6
1 2094 6
1 2096 29
1 2097 4
1 2098 18
1 2099 22
1 2100 1
1 2101 2
1 2102 2
1 2103 11
1 2104 4
1 2105 24
1 2106 6
1 2107 31
1 2108 46
1 2109 13
1 2111 46
1 2112 49
1 2113 1264
1 2114 13
1 2115 10
1 2116 22
1 2117 16
1 2118 30
1 2119 3
1 2120 12
1 2121 46
1 2122 2
1 2123 24
1 2124 39
1 2125 21
1 2126 9
1 2127 5
1 2128 1
1 2129 2
1 2130 25
1 2131 4
1 2132 40
1 2133 7
1 2136 24
1 2137 3
1 2138 17
1 2139 3
1 2140 3
1 2141 2
1 2142 41
1 2143 18
1 2144 30
1 2145 1
1 2146 2
1 2148 7
1 2149 56
1 2150 2
1 2151 383
1 2152 29
1 2153 1
1 2154 40
1 2155 6
1 2156 20
1 2157 6
1 2158 2
1 2159 10
1 2160 1
1 2161 4
1 2162 5
1 2163 21
1 2164 12
1 2165 2
1 2166 3
1 2167 35
1 2168 4
1 2169 14
1 2170 22
1 2171 31
1 2172 14
1 2173 32
1 2174 1
1 2175 55
1 2176 2
1 2177 24
1 2178 15
1 2179 24
1 2180 4
1 2181 74
1 2182 25
1 2183 31
1 2184 2
1 2185 4
1 2186 15
1 2187 3
1 2188 5
1 2189 3
1 2190 5
1 2191 3
1 2192 3
1 2193 4
1 2194 11
1 2195 31
1 2196 1
1 2197 3
1 2198 2
1 2199 34
1 2200 10
1 2201 12
1 2202 3
1 2203 13
1 2204 2
1 2205 36
1 2206 38
1 2207 3
1 2208 4
1 2209 3
1 2210 2
1 2212 3
1 2213 63
1 2214 5
1 2215 2
1 2216 2
1 2217 8
1 2218 2
1 2219 10
1 2220 6
1 2221 3
1 2222 4
1 2223 13
1 2224 25
1 2225 24
1 2226 7
1 2227 4
1 2228 37
1 2229 4
1 2230 13
1 2231 441
1 2232 5
1 2233 1
1 2234 17
1 2235 41
1 2236 700
1 2237 27
1 2238 13
1 2239 16
1 2240 5
1 2241 6
1 2242 24
1 2243 11
1 2244 3
1 2245 19
1 2246 2
1 2247 3
1 2248 20
1 2249 12
1 2250 11
1 2251 33
1 2253 2
1 2255 2
1 2256 2
1 2257 3
1 2258 2
1 2259 3
1 2260 5
1 2262 1
1 2263 4
1 2264 23
1 2265 17
1 2266 3
1 2267 2
1 2268 6
1 2269 2
1 2271 64
1 2272 5
1 2273 2
1 2274 7
1 2275 2
1 2276 3
1 2277 5
1 2278 1
1 2279 2
1 2280 18
1 2281 23
1 2282 22
1 2283 4
1 2284 5
1 2285 15
1 2286 21
1 2287 3
1 2288 2
1 2289 2
1 2290 39
1 2291 5
1 2292 7
1 2293 20
1 2294 8
1 2295 2
1 2296 4
1 2297 24
1 2298 4
1 2299 1
1 2300 33
1 2301 3
1 2302 4
1 2303 1
1 2304 17
1 2305 4
1 2307 1
1 2308 6
1 2309 3
1 2310 4
1 2311 4
1 2312 3
1 2313 23
1 2314 44
1 2315 21
1 2316 1
1 2317 3
1 2318 5
1 2319 4
1 2320 12
1 2321 3
1 2322 8
1 2323 3
1 2324 15
1 2325 63
1 2326 32
1 2327 16
1 2328 4
1 2329 28
1 2330 55
1 2331 3
1 2332 49
1 2333 6
1 2334 28
1 2335 6
1 2336 1
1 2337 52
1 2338 6
1 2339 3
1 2340 14
1 2341 44
1 2342 4
1 2343 11
1 2344 5
1 2345 7
1 2346 30
1 2347 21
1 2348 37
1 2349 32
1 2350 31
1 2351 1
1 2352 1
1 2353 39
1 2354 3
1 2355 2
1 2356 2
1 2357 19
1 2358 32
1 2359 42
1 2360 2
1 2361 23
1 2362 5
1 2363 4
1 2364 16
1 2365 19
1 2366 4
1 2367 15
1 2368 2
1 2369 4
1 2370 16
1 2371 23
1 2372 3
1 2373 20
1 2374 27
1 2375 6
1 2376 25
1 2377 1
1 2378 4
1 2379 23
1 2380 4
1 2381 6
1 2382 1
1 2383 3
1 2385 2
1 2386 3
1 2387 17
1 2388 4
1 2389 46
1 2390 2
1 2391 40
1 2392 15
1 2393 475
1 2394 13
1 2395 3
1 2396 1
1 2397 6
1 2398 12
1 2399 4
1 2400 1
1 2401 7
1 2402 5
1 2403 3
1 2404 43
1 2405 2
1 2406 1
1 2407 5
1 2408 9
1 2409 17
1 2410 6
1 2411 5
1 2412 3
1 2413 20
1 2414 13
1 2415 5
1 2416 2
1 2417 21
1 2418 2
1 2419 4
1 2420 16
1 2421 3
1 2422 4
1 2423 9
1 2425 2
1 2426 1
1 2427 2
1 2428 7
1 2429 29
1 2430 41
1 2431 30
1 2432 1
1 2433 5
1 2434 2
1 2435 32
1 2436 12
1 2437 37
1 2438 65
1 2439 27
1 2440 4
1 2441 6
1 2442 18
1 2443 5
1 2444 43
1 2445 4
1 2446 5
1 2447 33
1 2448 25
1 2449 1
1 2450 3
1 2452 62
1 2453 21
1 2454 5
1 2455 3
1 2456 15
1 2457 20
1 2458 3
1 2459 12
1 2460 9
1 2461 49
1 2462 22
1 2463 13
1 2464 11
1 2465 28
1 2466 5
1 2467 1035
1 2468 20
1 2469 35
1 2470 1
1 2471 2
1 2472 3
1 2473 1
1 2474 5
1 2475 4
1 2476 7
1 2477 3
1 2478 2
1 2479 9
1 2480 1
1 2481 4
1 2482 2
1 2483 10
1 2485 1168
1 2486 23
1 2487 4
1 2488 12
1 2489 5
1 2490 5
1 2491 3
1 2492 4
1 2493 4
1 2494 29
1 2495 1
1 2496 33
1 2497 4
1 2498 1
1 2499 29
1 2500 18
1 2501 2
1 2502 23
1 2503 26
1 2504 39
1 2505 2
1 2506 29
1 2507 29
1 2508 1
1 2509 4
1 2510 17
1 2511 1
1 2512 3
1 2513 34
1 2514 12
1 2515 3
1 2516 18
1 2517 16
1 2518 4
1 2519 702
1 2520 41
1 2521 2
1 2522 7
1 2523 17
1 2524 2
1 2525 6
1 2526 3
1 2527 10
1 2528 13
1 2529 4
1 2530 1
1 2531 16
1 2532 41
1 2533 34
1 2534 3
1 2535 33
1 2536 54
1 2537 27
1 2538 2
1 2539 5
1 2540 3
1 2541 14
1 2542 49
1 2543 14
1 2544 2
1 2545 1
1 2546 17
1 2547 6
1 2548 2
1 2549 2
1 2550 7
1 2551 1
1 2552 2
1 2553 5
1 2554 1102
1 2555 8
1 2556 75
1 2557 4
1 2559 5
1 2560 28
1 2561 3
1 2562 27
1 2563 3
1 2564 1
1 2565 3
1 2566 28
1 2567 12
1 2568 4
1 2569 4
1 2570 3
1 2571 19
1 2572 16
1 2573 6
1 2574 2
1 2575 15
1 2576 4
1 2577 4
1 2578 9
1 2580 12
1 2581 3
1 2582 37
1 2583 6
1 2585 3
1 2586 1
1 2587 2
1 2588 4
1 2590 15
1 2591 55
1 2592 2
1 2593 630
1 2594 85
1 2595 18
1 2596 5
1 2597 3
1 2598 2
1 2599 3
1 2600 2
1 2601 22
1 2602 226
1 2603 3
1 2605 5
1 2606 23
1 2607 3
1 2608 2
1 2609 2
1 2610 3
1 2611 9
1 2612 69
1 2613 15
1 2614 9
1 2615 13
1 2616 1
1 2617 17
1 2618 8
1 2619 36
1 2620 4
1 2621 18
1 2622 3
1 2623 23
1 2624 179
1 2625 645
1 2627 9
1 2628 2
1 2629 3
1 2630 3
1 2631 6
1 2632 3
1 2633 2
1 2634 11
1 2635 23
1 2636 11
1 2637 46
1 2638 14
1 2639 17
1 2640 15
1 2641 2
1 2642 11
1 2643 6
1 2644 5
1 2645 6
1 2646 4
1 2647 9
1 2648 10
1 2649 21
1 2650 2
1 2651 11
1 2652 5
1 2653 1
1 2654 24
1 2655 11
1 2656 10
1 2657 22
1 2658 33
1 2659 38
1 2660 5
1 2661 37
1 2662 6
1 2663 3
1 2664 2
1 2665 36
1 2666 122
1 2667 4
1 2668 10
1 2669 37
1 2670 17
1 2671 39
1 2672 36
1 2673 4
1 2674 7
1 2675 2
1 2676 4
1 2677 25
1 2678 21
1 2679 22
1 2680 9
1 2681 39
1 2682 6
1 2683 2
1 2684 25
1 2685 2
1 2686 5
1 2687 29
1 2688 3
1 2689 7
1 2690 6
1 2691 8
1 2692 6
1 2693 43
1 2694 3
1 2695 6
1 2696 2
1 2697 6
1 2698 2
1 2699 1
1 2700 2
1 2701 21
1 2702 2
1 2703 1
1 2704 11
1 2705 30
1 2706 2
1 2707 7
1 2708 4
1 2709 4
1 2710 5
1 2711 3
1 2712 2
1 2713 25
1 2714 33
1 2715 70
1 2716 56
1 2718 1
1 2719 21
1 2720 3
1 2721 20
1 2722 6
1 2723 11
1 2724 5
1 2725 14
1 2727 64
1 2728 2
1 2729 2
1 2730 42
1 2731 4
1 2732 5
1 2733 31
1 2734 1
1 2735 15
1 2736 2
1 2737 29
1 2739 6
1 2740 3
1 2741 21
1 2742 2
1 2743 15
1 2744 2
1 2745 124
1 2746 48
1 2747 76
1 2748 9
1 2749 6
1 2750 1
1 2751 21
1 2752 5
1 2753 2
1 2754 9
1 2755 1
1 2756 3
1 2757 789
1 2758 30
1 2759 2
1 2760 38
1 2761 7
1 2762 3
1 2763 3
1 2764 40
1 2765 2
1 2766 13
1 2767 838
1 2768 27
1 2769 15
1 2770 4
1 2771 6
1 2772 6
1 2773 5
1 2774 2
1 2775 2
1 2776 8
1 2777 5
1 2778 18
1 2779 27
1 2780 14
1 2781 9
1 2782 11
1 2783 7
1 2785 13
1 2786 2
1 2787 48
1 2788 28
1 2789 8
1 2790 3
1 2791 4
1 2792 22
1 2793 7
1 2794 63
1 2795 79
1 2796 2
1 2797 21
1 2798 5
1 2799 4
1 2800 2
1 2801 1
1 2802 4
1 2803 8
1 2804 100
1 2805 1
1 2806 2
1 2807 15
1 2808 43
1 2809 4
1 2810 17
1 2811 5
1 2812 14
1 2813 18
1 2815 24
1 2816 4
1 2817 4
1 2818 3
1 2819 57
1 2820 586
1 2821 2
1 2822 3
1 2823 783
1 2824 4
1 2825 6
1 2826 48
1 2827 6
1 2828 25
1 2829 19
1 2830 3
1 2831 1011
1 2832 4
1 2833 19
1 2834 2
1 2835 4
1 2836 2
1 2837 2
1 2838 3
1 2839 3
1 2840 13
1 2841 2
1 2843 439
1 2844 3
1 2845 17
1 2846 46
1 2847 4
1 2848 6
1 2849 3
1 2850 2
1 2851 15
1 2852 664
1 2853 1
1 2854 3
1 2855 12
1 2856 38
1 2857 38
1 2858 5
1 2859 4
1 2860 11
1 2861 5
1 2862 6
1 2863 8
1 2864 24
1 2865 4
1 2866 14
1 2867 15
1 2868 37
1 2869 2
1 2870 3
1 2871 3
1 2872 167
1 2874 27
1 2875 4
1 2876 21
1 2877 2
1 2878 5
1 2879 24
1 2880 2
1 2881 4
1 2882 22
1 2883 11
1 2884 1
1 2885 5
1 2886 14
1 2887 1
1 2888 25
1 2889 37
1 2890 6
1 2891 28
1 2892 2
1 2893 5
1 2894 11
1 2895 30
1 2896 16
1 2897 2
1 2898 93
1 2899 6
1 2900 3
1 2901 3
1 2902 27
1 2903 4
1 2904 21
1 2905 41
1 2907 77
1 2908 13
1 2909 9
1 2910 4
1 2911 27
1 2912 3
1 2913 3
1 2915 30
1 2916 32
1 2917 17
1 2918 7
1 2919 6
1 2920 40
1 2921 4
1 2922 27
1 2923 4
1 2924 2
1 2925 4
1 2926 4
1 2927 2
1 2928 21
1 2929 9
1 2930 3
1 2931 3
1 2932 3
1 2933 6
1 2934 201
1 2935 4
1 2936 6
1 2937 11
1 2938 6
1 2939 3
1 2940 24
1 2941 61
1 2942 46
1 2943 28
1 2944 23
1 2945 3
1 2946 20
1 2947 55
1 2948 10
1 2949 48
1 2950 36
1 2951 47
1 2952 19
1 2953 44
1 2954 5
1 2955 2
1 2956 3
1 2957 28
1 2958 3
1 2959 5
1 2960 32
1 2961 4
1 2962 601
1 2963 6
1 2964 4
1 2965 3
1 2966 21
1 2967 2
1 2968 3
1 2969 33
1 2970 6
1 2971 39
1 2972 15
1 2973 22
1 2974 16
1 2975 12
1 2976 3
1 2977 3
1 2978 17
1 2979 3
1 2980 6
1 2981 5
1 2982 36
1 2983 27
1 2984 3
1 2985 86
1 2986 2
1 2987 6
1 2988 5
1 2989 5
1 2990 22
1 2991 50
1 2992 3
1 2993 11
1 2994 3
1 2995 489
1 2996 4
1 2997 2
1 2998 5
1 2999 1
1 3000 44
1 3001 40
1 3002 2
1 3003 18
1 3004 4
1 3005 3
1 3006 1
1 3007 29
1 3008 5
1 3009 21
1 3010 6
1 3011 14
1 3012 14
1 3013 30
1 3014 11
1 3015 38
1 3016 9
1 3017 11
1 3018 4
1 3019 20
1 3020 3
1 3021 3
1 3022 14
1 3023 43
1 3024 26
1 3025 15
1 3026 40
1 3027 27
1 3028 4
1 3029 12
1 3030 1
1 3031 5
1 3032 26
1 3033 16
1 3034 25
1 3035 3
1 3036 13
1 3037 9
1 3038 32
1 3039 16
1 3040 8
1 3041 100
1 3042 4
1 3043 18
1 3044 3
1 3045 9
1 3046 2
1 3047 13
1 3048 6
1 3049 25
1 3050 11
1 3051 1
1 3052 2
1 3053 3
1 3054 2
1 3055 4
1 3056 4
1 3057 16
1 3058 14
1 3059 2
1 3060 35
1 3061 13
1 3062 20
1 3063 3
1 3064 1
1 3065 21
1 3066 3
1 3067 11
1 3068 21
1 3069 5
1 3070 29
1 3071 1
1 3072 21
1 3073 3
1 3074 22
1 3075 4
1 3076 22
1 3077 18
1 3078 27
1 3079 19
1 3080 4
1 3081 58
1 3082 5
1 3083 15
1 3084 2
1 3085 4
1 3086 22
1 3087 37
1 3088 16
1 3089 3
1 3090 15
1 3091 10
1 3092 3
1 3093 4
1 3094 2
1 3096 2
1 3097 2
1 3098 3
1 3099 35
1 3100 11
1 3101 3
1 3102 7
1 3103 1
1 3105 8
1 3106 14
1 3107 17
1 3108 1
1 3109 8
1 3110 18
1 3111 23
1 3112 9
1 3113 8
1 3114 1
1 3115 32
1 3116 1
1 3117 50
1 3118 21
1 3119 39
1 3120 28
1 3121 27
1 3122 3
1 3123 20
1 3124 4
1 3125 11
1 3126 3
1 3127 4
1 3128 2
1 3129 20
1 3130 18
1 3131 9
1 3132 1
1 3133 4
1 3134 7
1 3135 16
1 3136 1
1 3137 9
1 3139 22
1 3140 15
1 3141 1
1 3142 6
1 3143 25
1 3144 2
1 3145 7
1 3146 30
1 3147 4
1 3148 4
1 3149 28
1 3150 95
1 3151 4
1 3152 5
1 3153 17
1 3154 2
1 3155 3
1 3156 1
1 3157 20
1 3158 11
1 3159 6
1 3160 20
1 3161 37
1 3162 6
1 3163 4
1 3164 32
1 3165 2
1 3166 4
1 3167 3
1 3168 2
1 3169 2
1 3170 53
1 3171 4
1 3172 8
1 3173 47
1 3174 8
1 3175 24
1 3176 15
1 3177 1125
1 3178 5
1 3179 3
1 3180 3
1 3181 30
1 3182 3
1 3183 33
1 3184 46
1 3185 2
1 3186 5
1 3187 21
1 3188 2
1 3189 3
1 3190 4
1 3191 4
1 3192 10
1 3193 589
1 3194 29
1 3195 3
1 3196 6
1 3197 9
1 3198 17
1 3199 25
1 3200 27
1 3201 12
1 3202 22
1 3203 3
1 3204 3
1 3205 6
1 3206 4
1 3207 4
1 3208 37
1 3209 5
1 3210 1
1 3211 5
1 3212 6
1 3213 4
1 3214 2
1 3215 36
1 3216 3
1 3217 4
1 3218 150
1 3219 6
1 3220 16
1 3221 8
1 3222 9
1 3223 19
1 3224 24
1 3225 31
1 3226 29
1 3227 4
1 3228 21
1 3229 3
1 3230 37
1 3231 4
1 3232 3
1 3233 18
1 3234 5
1 3235 89
1 3236 1
1 3237 3
1 3238 6
1 3239 5
1 3240 2
1 3241 2
1 3242 26
1 3243 26
1 3245 46
1 3246 4
1 3247 11
1 3248 53
1 3249 5
1 3250 1
1 3251 25
1 3252 9
1 3253 1
1 3254 9
1 3255 2
1 3256 5
1 3257 18
1 3258 635
1 3259 19
1 3260 4
1 3261 9
1 3262 5
1 3263 19
1 3264 4
1 3265 4
1 3266 3
1 3267 36
1 3268 47
1 3269 3
1 3270 5
1 3271 4
1 3272 4
1 3273 1143
1 3274 5
1 3275 633
1 3276 4
1 3277 5
1 3278 4
1 3279 9
1 3280 30
1 3281 10
1 3282 35
1 3283 23
1 3284 3
1 3285 29
1 3286 3
1 3287 26
1 3288 2
1 3289 1
1 3290 62
1 3291 1
1 3292 6
1 3293 41
1 3294 3
1 3295 3
1 3296 5
1 3297 1071
1 3298 73
1 3299 3
1 3300 46
1 3301 2
1 3302 10
1 3303 35
1 3304 44
1 3305 1
1 3306 5
1 3307 18
1 3308 3
1 3309 10
1 3310 1
1 3311 2
1 3312 2
1 3313 2
1 3314 1
1 3315 6
1 3316 1
1 3317 5
1 3318 12
1 3319 4
1 3320 31
1 3321 11
1 3322 18
1 3323 3
1 3324 30
1 3325 4
1 3326 34
1 3327 11
1 3328 13
1 3329 33
1 3330 14
1 3331 3
1 3332 1
1 3333 6
1 3334 2
1 3335 21
1 3336 4
1 3337 43
1 3338 4
1 3339 2
1 3340 11
1 3341 85
1 3342 4
1 3343 2
1 3344 30
1 3345 4
1 3346 3
1 3347 3
1 3348 2
1 3349 18
1 3350 6
1 3351 5
1 3352 5
1 3353 37
1 3354 6
1 3355 4
1 3356 11
1 3357 5
1 3358 18
1 3359 7
1 3360 7
1 3361 1
1 3362 2
1 3363 33
1 3364 13
1 3365 12
1 3366 843
1 3367 2
1 3368 3
1 3369 3
1 3370 31
1 3371 2
1 3372 17
1 3373 36
1 3374 34
1 3375 1
1 3376 3
1 3377 21
1 3378 1175
1 3379 3
1 3380 2
1 3381 77
1 3382 13
1 3383 18
1 3384 810
1 3385 55
1 3386 3
1 3387 29
1 3388 6
1 3389 2
1 3390 11
1 3391 5
1 3392 6
1 3393 12
1 3394 6
1 3395 4
1 3396 9
1 3397 53
1 3398 10
1 3399 17
1 3400 7
1 3401 17
1 3402 12
1 3403 45
1 3404 6
1 3405 15
1 3407 2
1 3408 35
1 3409 9
1 3410 15
1 3411 1
1 3412 24
1 3413 62
1 3414 1
1 3415 22
1 3416 3
1 3417 18
1 3418 18
1 3419 1
1 3420 4
1 3421 3
1 3422 7
1 3423 14
1 3424 16
1 3425 1
1 3426 18
1 3427 3
1 3428 6
1 3429 7
1 3430 1
1 3431 4
1 3432 4
1 3433 4
1 3434 15
1 3435 2
1 3436 81
1 3437 16
1 3438 3
1 3439 6
1 3440 9
1 3441 7
1 3442 2
1 3443 2
1 3444 177
1 3445 5
1 3446 16
1 3447 16
1 3448 24
1 3449 5
1 3450 179
1 3451 4
1 3452 3
1 3453 2
1 3454 6
1 3455 25
1 3456 3
1 3457 1
1 3458 25
1 3459 8
1 3460 1
1 3461 2
1 3462 4
1 3463 60
1 3464 30
1 3465 23
1 3466 17
1 3467 3
1 3468 5
1 3469 38
1 3470 39
1 3471 21
1 3472 22
1 3473 64
1 3474 2
1 3475 10
1 3476 8
1 3477 7
1 3478 5
1 3479 895
1 3481 554
1 3482 11
1 3483 4
1 3484 32
1 3485 1
1 3486 18
1 3487 35
1 3488 13
1 3489 7
1 3490 7
1 3491 4
1 3492 4
1 3494 5
1 3495 7
1 3496 4
1 3497 13
1 3498 4
1 3499 15
1 3500 5
1 3501 3
1 3502 20
1 3503 7
1 3504 7
1 3505 4
1 3506 29
1 3507 2
1 3508 39
1 3509 41
1 3510 15
1 3511 4
1 3512 16
1 3513 101
1 3514 3
1 3515 1017
1 3516 5
1 3517 5
1 3519 7
1 3520 2
1 3521 10
1 3522 2
1 3523 6
1 3524 3
1 3525 6
1 3526 22
1 3527 71
1 3528 10
1 3529 33
1 3530 5
1 3531 6
1 3532 9
1 3533 2
1 3534 48
1 3535 8
1 3536 56
1 3537 8
1 3538 7
1 3539 28
1 3540 5
1 3542 13
1 3543 1
1 3544 26
1 3545 2
1 3546 1
1 3547 20
1 3548 49
1 3549 2
1 3550 115
1 3551 4
1 3552 4
1 3553 2
1 3554 3
1 3555 1005
1 3556 34
1 3557 3
1 3559 7
1 3560 4
1 3561 33
1 3563 7
1 3564 28
1 3565 13
1 3566 11
1 3567 13
1 3568 4
1 3569 9
1 3570 91
1 3571 26
1 3572 2
1 3573 18
1 3575 4
1 3576 5
1 3577 3
1 3578 2
1 3579 2
1 3580 10
1 3581 5
1 3582 11
1 3583 6
1 3584 4
1 3585 2
1 3586 5
1 3587 15
1 3588 5
1 3589 71
1 3590 3
1 3591 3
1 3592 3
1 3593 25
1 3594 4
1 3595 9
1 3596 4
1 3597 5
1 3598 4
1 3599 3
1 3600 2
1 3601 34
1 3602 4
1 3603 6
1 3604 1
1 3605 4
1 3606 4
1 3607 2
1 3608 2
1 3609 14
1 3610 2
1 3611 21
1 3612 72
1 3613 6
1 3614 29
1 3615 2
1 3616 4
1 3617 4
1 3618 1
1 3619 38
1 3620 11
1 3621 35
1 3622 27
1 3623 28
1 3624 15
1 3625 3
1 3626 4
1 3627 134
1 3628 7
1 3629 4
1 3630 997
1 3631 21
1 3632 3
1 3633 23
1 3634 16
1 3635 3
1 3636 16
1 3637 2
1 3638 3
1 3639 12
1 3640 8
1 3641 4
1 3642 11
1 3643 18
1 3644 27
1 3646 7
1 3647 758
1 3648 28
1 3649 26
1 3650 3
1 3651 3
1 3653 3
1 3654 29
1 3655 30
1 3656 14
1 3657 33
1 3658 7
1 3659 2
1 3660 4
1 3661 28
1 3662 29
1 3663 16
1 3664 2
1 3665 4
1 3666 34
1 3668 29
1 3669 2
1 3670 24
1 3671 26
1 3672 20
1 3674 311
1 3675 903
1 3676 1
1 3677 23
1 3678 3
1 3679 15
1 3680 6
1 3681 1
1 3682 11
1 3683 1
1 3684 2
1 3685 790
1 3686 23
1 3687 3
1 3688 4
1 3689 4
1 3690 10
1 3692 11
1 3693 4
1 3694 3
1 3695 4
1 3696 15
1 3697 2
1 3698 2
1 3699 40
1 3700 1000
1 3701 327
1 3702 6
1 3703 4
1 3704 4
1 3705 3
1 3706 6
1 3707 3
1 3708 41
1 3710 81
1 3711 1
1 3712 8
1 3713 15
1 3714 2
1 3715 39
1 3716 6
1 3717 1
1 3718 17
1 3719 30
1 3720 3
1 3722 1
1 3723 1
1 3724 16
1 3725 1
1 3726 18
1 3727 4
1 3728 73
1 3729 5
1 3730 25
1 3731 10
1 3732 1
1 3733 47
1 3734 17
1 3735 1
1 3736 2
1 3737 1
1 3738 4
1 3739 35
1 3740 1
1 3741 2
1 3742 13
1 3743 24
1 3744 4
1 3745 6
1 3746 6
1 3747 50
1 3748 5
1 3749 12
1 3750 4
1 3751 46
1 3752 10
1 3753 32
1 3754 3
1 3755 16
1 3756 3
1 3757 15
1 3758 1
1 3759 31
1 3760 2
1 3761 38
1 3762 12
1 3763 915
1 3764 3
1 3765 3
1 3766 2
1 3767 1
1 3768 63
1 3769 1
1 3770 4
1 3771 4
1 3772 5
1 3773 3
1 3774 3
1 3775 4
1 3776 2
1 3777 3
1 3778 2
1 3779 2
1 3780 2
1 3781 2
1 3782 9
1 3783 13
1 3784 1
1 3786 15
1 3787 1
1 3788 4
1 3789 19
1 3790 2
1 3791 1
1 3792 53
1 3793 15
1 3794 3
1 3795 51
1 3796 18
1 3797 14
1 3799 26
1 3800 1
1 3801 4
1 3802 7
1 3803 8
1 3804 14
1 3805 3
1 3806 17
1 3807 3
1 3808 1
1 3809 7
1 3810 1068
1 3811 6
1 3812 6
1 3813 4
1 3814 42
1 3815 15
1 3816 13
1 3817 4
1 3819 9
1 3820 15
1 3821 5
1 3822 13
1 3823 6
1 3824 4
1 3825 18
1 3826 12
1 3827 63
1 3828 18
1 3829 2
1 3830 4
1 3831 14
1 3832 13
1 3833 36
1 3834 4
1 3835 1
1 3836 38
1 3838 23
1 3839 15
1 3840 6
1 3841 24
1 3842 1000
1 3843 2
1 3844 5
1 3845 20
1 3846 1
1 3847 13
1 3848 3
1 3849 1
1 3850 6
1 3851 63
1 3852 3
1 3853 16
1 3854 53
1 3855 59
1 3856 2
1 3857 9
1 3859 2
1 3860 20
1 3861 4
1 3862 40
1 3863 42
1 3864 2
1 3865 53
1 3866 2
1 3867 25
1 3868 18
1 3869 4
1 3870 1
1 3871 1
1 3872 6
1 3873 4
1 3874 11
1 3875 61
1 3876 3
1 3877 33
1 3878 50
1 3879 6
1 3880 1
1 3881 7
1 3882 3
1 3883 2
1 3884 3
1 3885 35
1 3887 4
1 3888 13
1 3889 2
1 3890 40
1 3891 3
1 3892 16
1 3893 3
1 3894 3
1 3895 3
1 3896 1
1 3897 49
1 3898 25
1 3899 25
1 3900 19
1 3901 2
1 3902 16
1 3903 4
1 3904 4
1 3905 3
1 3906 28
1 3907 3
1 3908 4
1 3909 33
1 3910 27
1 3911 24
1 3912 58
1 3913 9
1 3914 9
1 3915 7
1 3916 11
1 3917 2
1 3918 35
1 3919 1
1 3920 17
1 3921 5
1 3922 3
1 3923 30
1 3924 29
1 3925 2
1 3926 21
1 3927 6
1 3928 29
1 3929 5
1 3930 52
1 3931 3
1 3932 28
1 3933 13
1 3934 1
1 3935 2
1 3936 3
1 3937 5
1 3938 27
1 3939 4
1 3940 14
1 3941 22
1 3942 5
1 3943 5
1 3944 81
1 3945 23
1 3946 22
1 3947 8
1 3948 34
1 3949 5
1 3950 7
1 3951 16
1 3952 11
1 3953 2
1 3954 5
1 3955 30
1 3956 1
1 3957 51
1 3958 3
1 3959 17
1 3960 3
1 3961 22
1 3962 25
1 3963 2
1 3964 2
1 3965 2
1 3966 3
1 3967 7
1 3968 8
1 3969 6
1 3971 26
1 3972 19
1 3973 24
1 3974 12
1 3975 6
1 3976 2
1 3978 542
1 3979 13
1 3980 2
1 3981 6
1 3982 5
1 3983 21
1 3984 29
1 3985 1
1 3986 1
1 3987 1
1 3988 14
1 3989 11
1 3990 1
1 3991 25
1 3992 9
1 3994 6
1 3995 11
1 3996 10
1 3997 4
1 3998 7
1 3999 13
1 4000 2
1 4001 11
1 4002 3
1 4003 7
1 4004 19
1 4005 16
1 4006 14
1 4007 20
1 4008 3
1 4009 2
1 4010 6
1 4011 27
1 4012 3
1 4013 2
1 4014 21
1 4015 5
1 4016 51
1 4017 6
1 4018 56
1 4019 1
1 4020 29
1 4021 5
1 4022 5
1 4023 5
1 4024 36
1 4025 8
1 4026 5
1 4027 158
1 4028 1
1 4029 27
1 4030 25
1 4031 15
1 4032 3
1 4033 61
1 4034 34
1 4035 2
1 4036 26
1 4037 5
1 4038 7
1 4039 17
1 4040 6
1 4041 6
1 4042 8
1 4043 2
1 4044 5
1 4045 19
1 4046 1
1 4047 2
1 4048 5
1 4049 5
1 4050 5
1 4051 37
1 4052 2
1 4053 4
1 4054 3
1 4055 52
1 4056 52
1 4057 2
1 4058 3
1 4059 4
1 4060 910
1 4061 73
1 4062 3
1 4063 12
1 4064 8
1 4065 2
1 4066 19
1 4067 3
1 4068 13
1 4069 5
1 4070 18
1 4071 2
1 4072 3
1 4073 7
1 4074 17
1 4075 1
1 4076 3
1 4077 2
1 4078 164
1 4079 26
1 4080 964
1 4081 34
1 4082 15
1 4083 2
1 4084 4
1 4086 9
1 4087 6
1 4088 3
1 4089 19
1 4090 18
1 4091 7
1 4092 1
1 4093 6
1 4094 7
1 4095 3
1 4096 27
1 4097 509
1 4098 4
1 4099 3
1 4100 58
1 4101 3
1 4102 27
1 4103 4
1 4104 3
1 4105 16
1 4106 37
1 4107 4
1 4108 2
1 4109 2
1 4110 4
1 4111 5
1 4112 1
1 4113 2
1 4114 12
1 4115 39
1 4116 4
1 4117 2
1 4118 1
1 4119 34
1 4120 5
1 4121 10
1 4122 3
1 4123 2
1 4124 11
1 4125 6
1 4126 7
1 4127 7
1 4128 15
1 4129 41
1 4130 36
1 4131 19
1 4132 50
1 4133 2
1 4134 8
1 4135 18
1 4136 2
1 4137 13
1 4138 7
1 4139 11
1 4140 1
1 4141 1
1 4142 1
1 4143 4
1 4144 4
1 4145 11
1 4146 18
1 4147 4
1 4148 3
1 4149 34
1 4150 3
1 4151 6
1 4152 2
1 4153 3
1 4154 5
1 4155 13
1 4156 3
1 4157 50
1 4158 33
1 4159 4
1 4160 3
1 4161 6
1 4162 34
1 4163 8
1 4164 49
1 4165 3
1 4166 18
1 4167 5
1 4168 4
1 4169 3
1 4171 9
1 4172 12
1 4173 43
1 4174 23
1 4175 31
1 4176 43
1 4177 2
1 4178 4
1 4179 7
1 4180 10
1 4181 9
1 4182 14
1 4183 2
1 4184 18
1 4185 2
1 4186 6
1 4187 18
1 4188 3
1 4189 2
1 4190 8
1 4191 8
1 4192 3
1 4193 7
1 4194 1
1 4195 2
1 4196 17
1 4197 7
1 4198 10
1 4199 3
1 4200 2
1 4201 40
1 4202 1
1 4203 28
1 4204 16
1 4205 7
1 4206 18
1 4207 1
1 4208 26
1 4209 1
1 4210 17
1 4211 1
1 4212 8
1 4213 9
1 4214 6
1 4215 19
1 4216 1
1 4217 2
1 4218 9
1 4219 5
1 4220 2
1 4221 22
1 4222 1
1 4223 27
1 4224 12
1 4225 10
1 4226 29
1 4227 24
1 4228 48
1 4229 4
1 4230 4
1 4231 227
1 4232 25
1 4233 18
1 4234 21
1 4235 8
1 4236 16
1 4237 4
1 4238 7
1 4239 6
1 4240 23
1 4241 5
1 4242 48
1 4243 68
1 4244 50
1 4245 4
1 4246 6
1 4247 6
1 4248 5
1 4250 2
1 4251 51
1 4252 2
1 4253 1
1 4254 4
1 4255 2
1 4256 4
1 4257 2
1 4258 68
1 4259 14
1 4260 14
1 4261 26
1 4262 33
1 4263 2
1 4264 20
1 4265 43
1 4266 22
1 4267 90
1 4268 4
1 4269 1252
1 4270 23
1 4271 16
1 4272 26
1 4273 9
1 4274 2
1 4275 25
1 4276 37
1 4277 4
1 4278 34
1 4279 7
1 4280 2
1 4281 24
1 4282 1
1 4283 17
1 4284 6
1 4285 8
1 4286 6
1 4287 2
1 4288 12
1 4289 5
1 4290 4
1 4291 6
1 4292 6
1 4293 1
1 4294 9
1 4295 64
1 4296 1
1 4297 9
1 4298 2
1 4299 28
1 4300 26
1 4301 34
1 4302 2
1 4303 2
1 4304 17
1 4305 40
1 4306 8
1 4307 4
1 4308 20
1 4309 41
1 4310 28
1 4311 5
1 4312 14
1 4313 13
1 4314 3
1 4315 11
1 4316 9
1 4317 4
1 4318 1
1 4319 6
1 4320 24
1 4321 11
1 4322 3
1 4323 22
1 4324 13
1 4325 5
1 4326 1215
1 4327 29
1 4328 29
1 4329 3
1 4330 7
1 4331 2
1 4332 4
1 4334 53
1 4335 1
1 4336 4
1 4337 4
1 4338 1
1 4339 8
1 4340 6
1 4341 62
1 4342 37
1 4343 47
1 4344 3
1 4345 2
1 4346 2
1 4347 16
1 4348 18
1 4349 13
1 4350 19
1 4351 2
1 4352 281
1 4353 39
1 4354 6
1 4355 11
1 4356 6
1 4357 2
1 4358 18
1 4359 4
1 4360 15
1 4361 5
1 4362 5
1 4363 54
1 4364 33
1 4365 25
1 4366 3
1 4367 3
1 4368 4
1 4369 1
1 4370 5
1 4371 28
1 4372 16
1 4373 20
1 4374 2
1 4375 43
1 4376 6
1 4377 5
1 4378 4
1 4379 36
1 4380 1
1 4381 27
1 4382 5
1 4383 11
1 4384 19
1 4385 17
1 4386 4
1 4387 536
1 4388 3
1 4389 3
1 4390 16
1 4391 18
1 4392 25
1 4394 23
1 4395 2
1 4396 8
1 4397 2
1 4398 4
1 4399 4
1 4400 517
1 4401 15
1 4402 13
1 4403 1
1 4404 6
1 4405 3
1 4406 90
1 4407 8
1 4408 38
1 4409 5
1 4410 25
1 4411 7
1 4412 7
1 4413 4
1 4414 11
1 4415 27
1 4417 3
1 4418 14
1 4420 52
1 4421 17
1 4422 12
1 4423 47
1 4424 3
1 4425 20
1 4427 23
1 4428 17
1 4429 7
1 4430 100
1 4431 9
1 4432 6
1 4433 11
1 4434 1
1 4435 2
1 4436 32
1 4437 2
1 4438 6
1 4439 30
1 4440 8
1 4441 4
1 4442 24
1 4443 47
1 4444 18
1 4445 3
1 4446 2
1 4447 9
1 4448 18
1 4450 2
1 4451 41
1 4452 14
1 4453 47
1 4454 2
1 4455 11
1 4456 2
1 4457 4
1 4458 3
1 4459 29
1 4460 21
1 4461 5
1 4462 11
1 4463 14
1 4464 2
1 4465 1
1 4466 3
1 4467 12
1 4468 2
1 4469 2
1 4470 1190
1 4471 38
1 4472 289
1 4473 6
1 4474 1
1 4475 39
1 4476 3
1 4477 17
1 4478 1
1 4479 1
1 4480 1
1 4481 8
1 4482 3
1 4483 7
1 4484 5
1 4485 11
1 4486 17
1 4487 2
1 4488 15
1 4489 60
1 4490 13
1 4491 45
1 4492 4
1 4493 5
1 4494 59
1 4495 2
1 4496 1
1 4497 1
1 4498 3
1 4499 19
1 4500 6
1 4501 6
1 4502 5
1 4503 3
1 4504 2
1 4505 897
1 4506 2
1 4507 15
1 4508 2
1 4509 12
1 4510 6
1 4511 4
1 4512 15
1 4513 6
1 4514 3
1 4515 1
1 4516 3
1 4517 17
1 4518 19
1 4519 7
1 4520 3
1 4521 4
1 4522 36
1 4523 3
1 4524 2
1 4525 7
1 4527 9
1 4528 30
1 4529 3
1 4530 5
1 4531 11
1 4532 568
1 4533 2
1 4534 26
1 4535 8
1 4536 20
1 4537 3
1 4538 6
1 4539 1218
1 4540 3
1 4541 39
1 4542 2
1 4543 2
1 4544 18
1 4545 33
1 4546 1
1 4547 27
1 4548 61
1 4549 6
1 4550 3
1 4551 13
1 4552 39
1 4553 26
1 4554 16
1 4555 16
1 4556 1
1 4557 56
1 4558 27
1 4559 5
1 4560 2
1 4561 2
1 4562 3
1 4563 1
1 4564 30
1 4565 57
1 4566 51
1 4567 7
1 4568 3
1 4569 1
1 4570 3
1 4571 6
1 4572 16
1 4573 29
1 4574 54
1 4575 1
1 4576 2
1 4577 3
1 4578 5
1 4579 5
1 4580 5
1 4581 4
1 4582 3
1 4583 8
1 4584 2
1 4585 3
1 4586 3
1 4587 67
1 4588 28
1 4589 5
1 4590 4
1 4591 13
1 4592 13
1 4593 2
1 4594 2
1 4595 7
1 4596 34
1 4597 17
1 4598 25
1 4599 9
1 4600 3
1 4601 5
1 4603 50
1 4604 1
1 4605 3
1 4606 7
1 4607 14
1 4609 9
1 4610 31
1 4611 43
1 4613 4
1 4614 2
1 4615 5
1 4616 21
1 4617 4
1 4618 21
1 4619 64
1 4620 4
1 4621 9
1 4623 26
1 4624 7
1 4625 13
1 4626 33
1 4627 8
1 4629 62
1 4630 16
1 4631 27
1 4633 6
1 4634 4
1 4635 13
1 4636 13
1 4637 18
1 4638 4
1 4639 97
1 4640 10
1 4641 3
1 4642 4
1 4643 5
1 4644 23
1 4645 13
1 4646 4
1 4647 4
1 4648 3
1 4649 5
1 4650 2
1 4651 14
1 4652 30
1 4653 3
1 4654 11
1 4655 4
1 4656 24
1 4657 11
1 4658 38
1 4659 19
1 4660 4
1 4661 35
1 4662 2
1 4663 13
1 4664 2
1 4665 5
1 4666 29
1 4667 1078
1 4668 3
1 4669 1
1 4670 13
1 4671 49
1 4672 1
1 4673 3
1 4674 3
1 4675 56
1 4676 1
1 4677 20
1 4678 27
1 4679 45
1 4680 17
1 4681 4
1 4682 4
1 4683 4
1 4684 21
1 4685 2
1 4686 4
1 4687 9
1 4688 5
1 4689 10
1 4690 2
1 4691 7
1 4692 1
1 4693 28
1 4694 16
1 4695 31
1 4696 3
1 4697 5
1 4698 3
1 4699 15
1 4701 3
1 4702 3
1 4703 1
1 4704 41
1 4705 4
1 4706 5
1 4707 6
1 4708 19
1 4709 60
1 4710 1
1 4711 3
1 4712 22
1 4713 3
1 4714 2
1 4715 1
1 4716 22
1 4717 12
1 4718 24
1 4719 27
1 4720 12
1 4721 2
1 4722 37
1 4723 3
1 4724 4
1 4725 2
1 4726 13
1 4727 8
1 4728 1
1 4729 19
1 4730 2
1 4731 44
1 4732 10
1 4733 1
1 4734 11
1 4735 22
1 4736 2
1 4737 2
1 4738 1
1 4739 19
1 4740 1
1 4741 21
1 4742 5
1 4743 30
1 4744 3
1 4746 15
1 4747 13
1 4748 2
1 4749 2
1 4750 1
1 4751 15
1 4752 5
1 4753 4
1 4754 17
1 4755 38
1 4756 4
1 4757 34
1 4758 2
1 4759 1
1 4760 32
1 4761 29
1 4762 3
1 4763 23
1 4764 7
1 4765 5
1 4766 7
1 4767 2
1 4768 2
1 4769 1
1 4770 1
1 4771 34
1 4772 2
1 4773 2
1 4774 4
1 4775 6
1 4776 20
1 4777 26
1 4778 25
1 4779 66
1 4780 406
1 4781 6
1 4782 26
1 4783 3
1 4784 28
1 4785 22
1 4786 34
1 4787 12
1 4788 2
1 4789 6
1 4790 3
1 4791 36
1 4792 34
1 4794 4
1 4795 3
1 4796 21
1 4797 33
1 4798 5
1 4799 2
1 4800 32
1 4801 43
1 4802 3
1 4803 26
1 4804 3
1 4805 4
1 4806 42
1 4807 4
1 4808 2
1 4809 2
1 4810 32
1 4811 2
1 4812 4
1 4813 2
1 4814 3
1 4815 5
1 4816 19
1 4817 1
1 4819 1
1 4820 6
1 4821 2
1 4822 12
1 4823 12
1 4824 23
1 4825 26
1 4826 13
1 4827 25
1 4828 6
1 4829 13
1 4830 34
1 4831 2
1 4832 6
1 4833 14
1 4834 40
1 4835 5
1 4836 20
1 4837 21
1 4838 1
1 4839 11
1 4840 32
1 4841 1
1 4842 1
1 4843 6
1 4844 24
1 4845 5
1 4846 22
1 4847 3
1 4848 22
1 4849 4
1 4850 5
1 4851 6
1 4852 879
1 4853 17
1 4854 5
1 4855 41
1 4856 12
1 4857 22
1 4858 4
1 4859 8
1 4860 3
1 4861 2
1 4862 6
1 4863 1
1 4864 5
1 4866 3
1 4867 3
1 4868 12
1 4869 10
1 4870 4
1 4871 14
1 4872 29
1 4873 3
1 4874 2
1 4875 10
1 4876 5
1 4877 2
1 4878 2
1 4879 6
1 4880 21
1 4882 4
1 4883 3
1 4884 35
1 4885 4
1 4886 8
1 4887 4
1 4888 1
1 4889 8
1 4890 13
1 4891 5
1 4892 3
1 4893 4
1 4894 4
1 4895 52
1 4896 37
1 4897 19
1 4898 61
1 4900 7
1 4901 10
1 4902 7
1 4904 51
1 4905 4
1 4906 57
1 4907 6
1 4908 10
1 4909 38
1 4910 13
1 4911 38
1 4912 19
1 4913 4
1 4914 25
1 4915 4
1 4916 7
1 4917 4
1 4918 5
1 4919 24
1 4920 4
1 4921 3
1 4922 60
1 4923 31
1 4924 3
1 4925 2
1 4926 4
1 4927 307
1 4928 5
1 4929 2
1 4930 10
1 4931 12
1 4932 31
1 4933 19
1 4934 5
1 4935 10
1 4936 36
1 4937 18
1 4938 1
1 4939 11
1 4940 2
1 4941 8
1 4942 5
1 4943 19
1 4944 18
1 4945 5
1 4946 16
1 4947 48
1 4949 4
1 4950 43
1 4951 2
1 4952 45
1 4953 42
1 4954 39
1 4955 10
1 4956 2
1 4957 3
1 4958 26
1 4959 9
1 4960 14
1 4961 17
1 4962 24
1 4963 5
1 4964 5
1 4965 4
1 4966 4
1 4967 2
1 4968 15
1 4969 13
1 4970 3
1 4971 2
1 4972 5
1 4973 34
1 4974 3
1 4975 4
1 4976 255
1 4977 2
1 4978 4
1 4979 10
1 4980 11
1 4981 3
1 4982 1
1 4983 1
1 4984 6
1 4985 12
1 4986 4
1 4987 33
1 4988 2
1 4989 5
1 4990 5
1 4991 1
1 4992 44
1 4993 2
1 4994 20
1 4996 4
1 4997 4
1 4998 6
1 4999 6
1 5001 37
1 5002 23
1 5003 3
1 5004 3
1 5005 4
1 5006 6
1 5007 5
1 5008 48
1 5009 65
1 5010 9
1 5011 3
1 5012 21
1 5013 3
1 5014 18
1 5015 2
1 5016 31
1 5017 13
1 5018 29
1 5019 18
1 5020 3
1 5021 3
1 5022 5
1 5023 44
1 5024 11
1 5025 3
1 5026 17
1 5027 2
1 5028 2
1 5029 32
1 5030 6
1 5031 3
1 5032 647
1 5033 3
1 5034 2
1 5035 4
1 5036 22
1 5037 3
1 5038 2
1 5039 2
1 5040 5
1 5041 5
1 5042 3
1 5043 2
1 5044 17
1 5045 36
1 5046 5
1 5047 25
1 5048 348
1 5049 4
1 5050 11
1 5051 4
1 5052 121
1 5053 3
1 5054 30
1 5055 15
1 5056 12
1 5057 29
1 5058 34
1 5060 9
1 5061 3
1 5062 2
1 5063 4
1 5064 37
1 5065 21
1 5066 4
1 5067 4
1 5068 26
1 5069 61
1 5070 1
1 5071 11
1 5072 37
1 5073 13
1 5074 1
1 5075 3
1 5076 7
1 5077 3
1 5078 36
1 5079 20
1 5080 24
1 5081 4
1 5082 153
1 5083 16
1 5084 10
1 5085 40
1 5086 11
1 5087 3
1 5088 10
1 5089 13
1 5090 14
1 5091 1
1 5092 10
1 5093 5
1 5094 10
1 5096 2
1 5097 33
1 5098 1
1 5099 3
1 5100 4
1 5101 5
1 5102 4
1 5103 9
1 5104 4
1 5105 4
1 5106 4
1 5107 10
1 5108 13
1 5110 18
1 5111 24
1 5112 5
1 5113 22
1 5114 1
1 5115 2
1 5116 5
1 5117 21
1 5118 4
1 5119 3
1 5120 13
1 5121 24
1 5122 7
1 5123 18
1 5124 16
1 5125 4
1 5126 2
1 5127 6
1 5128 9
1 5129 10
1 5130 5
1 5131 1
1 5132 8
1 5134 49
1 5135 3
1 5136 3
1 5137 33
1 5139 45
1 5140 9
1 5141 5
1 5142 7
1 5143 28
1 5144 4
1 5145 5
1 5147 16
1 5148 40
1 5149 3
1 5150 45
1 5151 2
1 5152 6
1 5153 4
1 5154 8
1 5155 23
1 5156 15
1 5157 21
1 5158 2
1 5159 13
1 5160 33
1 5161 3
1 5162 12
1 5163 22
1 5164 5
1 5165 8
1 5166 7
1 5167 27
1 5168 2
1 5169 10
1 5170 3
1 5171 4
1 5172 7
1 5173 38
1 5174 8
1 5175 11
1 5176 16
1 5177 174
1 5178 3
1 5179 23
1 5180 4
1 5181 16
1 5182 12
1 5183 2
1 5184 12
1 5185 2
1 5186 1
1 5187 5
1 5188 23
1 5189 44
1 5190 12
1 5191 16
1 5192 2
1 5193 5
1 5194 5
1 5195 2
1 5196 29
1 5197 43
1 5199 5
1 5200 15
1 5201 2
1 5202 8
1 5203 4
1 5204 1
1 5205 9
1 5206 31
1 5208 3
1 5210 19
1 5211 5
1 5213 3
1 5214 2
1 5215 12
1 5216 4
1 5217 36
1 5218 48
1 5219 1
1 5220 4
1 5221 8
1 5222 6
1 5223 21
1 5224 8
1 5225 5
1 5226 1
1 5227 44
1 5228 17
1 5229 1
1 5230 3
1 5231 5
1 5232 1
1 5233 32
1 5234 8
1 5235 14
1 5237 124
1 5238 26
1 5239 4
1 5240 6
1 5241 66
1 5242 4
1 5243 4
1 5244 30
1 5245 4
1 5246 1
1 5247 3
1 5248 22
1 5249 20
1 5250 3
1 5251 152
1 5252 5
1 5253 5
1 5254 4
1 5255 1
1 5256 54
1 5258 5
1 5259 1
1 5260 574
1 5261 7
1 5262 15
1 5263 14
1 5264 3
1 5265 3
1 5266 75
1 5267 6
1 5268 19
1 5269 6
1 5270 10
1 5271 3
1 5272 26
1 5273 3
1 5274 25
1 5275 41
1 5276 3
1 5277 5
1 5279 11
1 5280 4
1 5281 5
1 5282 4
1 5283 4
1 5284 10
1 5285 12
1 5286 14
1 5287 34
1 5288 4
1 5289 6
1 5290 3
1 5291 3
1 5292 3
1 5293 17
1 5294 3
1 5295 4
1 5296 20
1 5297 2
1 5298 2
1 5300 33
1 5301 5
1 5302 6
1 5303 34
1 5304 31
1 5305 3
1 5306 4
1 5307 5
1 5308 11
1 5309 18
1 5310 7
1 5311 3
1 5312 5
1 5313 52
1 5314 50
1 5315 11
1 5316 41
1 5317 3
1 5318 31
1 5319 5
1 5320 19
1 5321 15
1 5322 27
1 5323 619
1 5324 3
1 5325 2
1 5326 3
1 5327 3
1 5328 3
1 5329 16
1 5330 8
1 5331 1
1 5332 3
1 5333 21
1 5334 2
1 5335 3
1 5336 4
1 5337 19
1 5338 2
1 5339 1
1 5340 2
1 5341 3
1 5342 383
1 5343 2
1 5344 4
1 5345 29
1 5346 3
1 5347 4
1 5348 15
1 5349 10
1 5350 920
1 5351 4
1 5352 8
1 5354 5
1 5355 11
1 5356 10
1 5357 4
1 5358 23
1 5359 1
1 5360 3
1 5361 27
1 5362 3
1 5363 11
1 5364 57
1 5365 2
1 5366 26
1 5367 14
1 5368 1
1 5369 7
1 5370 15
1 5371 8
1 5372 14
1 5373 34
1 5374 12
1 5375 33
1 5376 4
1 5377 15
1 5378 12
1 5379 7
1 5380 2
1 5381 52
1 5382 474
1 5383 1
1 5385 3
1 5386 4
1 5387 4
1 5388 3
1 5389 992
1 5390 7
1 5391 49
1 5392 1
1 5393 58
1 5394 4
1 5395 4
1 5396 23
1 5397 4
1 5398 64
1 5399 20
1 5400 2
1 5401 31
1 5402 15
1 5403 2
1 5404 7
1 5405 2
1 5406 9
1 5407 30
1 5408 26
1 5409 4
1 5410 1
1 5411 1
1 5412 5
1 5413 5
1 5414 11
1 5415 13
1 5416 28
1 5417 53
1 5418 4
1 5419 65
1 5420 49
1 5421 4
1 5422 22
1 5423 70
1 5424 57
1 5425 2
1 5426 14
1 5427 2
1 5428 2
1 5429 31
1 5430 24
1 5431 2
1 5432 19
1 5433 6
1 5434 15
1 5435 24
1 5436 3
1 5437 10
1 5438 30
1 5439 2
1 5440 2
1 5441 6
1 5442 3
1 5443 13
1 5444 6
1 5445 4
1 5446 19
1 5447 19
1 5448 13
1 5449 18
1 5450 2
1 5451 6
1 5452 7
1 5453 4
1 5454 1
1 5455 45
1 5456 8
1 5457 16
1 5458 5
1 5459 11
1 5460 3
1 5461 42
1 5462 5
1 5463 26
1 5464 44
1 5465 4
1 5466 7
1 5467 27
1 5468 32
1 5469 17
1 5470 14
1 5471 3
1 5472 3
1 5473 31
1 5474 4
1 5475 42
1 5476 31
1 5477 31
1 5478 3
1 5479 4
1 5480 1
1 5481 27
1 5482 5
1 5483 4
1 5484 1054
1 5485 9
1 5486 6
1 5487 6
1 5488 4
1 5489 2
1 5490 2
1 5491 3
1 5492 20
1 5493 5
1 5494 4
1 5495 4
1 5496 2
1 5497 8
1 5498 13
1 5499 3
1 5500 4
1 5501 3
1 5502 1
1 5503 2
1 5504 4
1 5505 5
1 5506 3
1 5507 13
1 5508 8
1 5509 1
1 5510 1
1 5511 6
1 5512 13
1 5513 3
1 5514 27
1 5515 14
1 5516 2
1 5517 30
1 5518 2
1 5519 22
1 5520 3
1 5521 8
1 5522 1
1 5523 47
1 5524 3
1 5525 2
1 5526 1
1 5527 49
1 5528 29
1 5529 52
1 5530 22
1 5532 5
1 5533 47
1 5534 17
1 5535 2
1 5536 5
1 5537 18
1 5538 18
1 5539 10
1 5540 3
1 5541 3
1 5542 14
1 5543 3
1 5544 1
1 5545 27
1 5546 8
1 5547 32
1 5548 12
1 5549 5
1 5550 10
1 5551 1
1 5552 44
1 5553 3
1 5554 55
1 5555 2
1 5556 5
1 5557 4
1 5558 14
1 5559 4
1 5560 4
1 5561 28
1 5562 3
1 5563 2
1 5564 1063
1 5565 36
1 5566 3
1 5567 19
1 5568 10
1 5569 2
1 5570 3
1 5571 2
1 5572 3
1 5573 19
1 5574 6
1 5575 10
1 5576 33
1 5577 2
1 5578 27
1 5579 26
1 5580 14
1 5581 32
1 5582 10
1 5583 17
1 5584 34
1 5585 1
1 5586 7
1 5587 1
1 5588 4
1 5589 2
1 5590 38
1 5591 3
1 5592 2
1 5593 6
1 5594 7
1 5595 11
1 5596 2
1 5597 43
1 5598 16
1 5599 2
1 5600 11
1 5601 8
1 5602 21
1 5603 14
1 5604 3
1 5605 5
1 5606 7
1 5607 2
1 5608 91
1 5609 3
1 5610 38
1 5611 7
1 5612 4
1 5613 35
1 5614 15
1 5615 4
1 5616 1
1 5617 7
1 5618 1
1 5619 4
1 5620 50
1 5621 236
1 5622 90
1 5623 1
1 5624 4
1 5625 38
1 5626 17
1 5627 4
1 5628 3
1 5629 4
1 5630 16
1 5631 7
1 5632 33
1 5633 4
1 5634 9
1 5635 41
1 5636 41
1 5637 5
1 5638 2
1 5639 3
1 5640 26
1 5641 4
1 5642 6
1 5643 10
1 5644 14
1 5645 3
1 5646 5
1 5647 2
1 5648 2
1 5649 3
1 5650 1
1 5651 4
1 5652 4
1 5653 9
1 5654 2
1 5655 48
1 5656 22
1 5657 1
1 5658 4
1 5659 34
1 5660 7
1 5661 3
1 5662 5
1 5663 48
1 5664 6
1 5665 3
1 5666 3
1 5667 50
1 5668 1
1 5669 4
1 5670 24
1 5671 6
1 5672 4
1 5673 19
1 5674 33
1 5675 23
1 5676 3
1 5677 2
1 5678 244
1 5679 5
1 5680 4
1 5681 1
1 5682 2
1 5683 21
1 5684 2
1 5685 6
1 5686 3
1 5687 23
1 5688 3
1 5689 14
1 5690 2
1 5691 17
1 5692 2
1 5694 2
1 5695 1
1 5696 21
1 5697 28
1 5698 61
1 5699 5
1 5700 32
1 5701 39
1 5702 42
1 5703 2
1 5704 3
1 5705 4
1 5706 1
1 5707 1
1 5708 42
1 5710 25
1 5711 3
1 5712 17
1 5713 8
1 5714 5
1 5715 22
1 5716 2
1 5717 2
1 5718 3
1 5719 2
1 5721 4
1 5722 5
1 5723 5
1 5724 4
1 5725 1
1 5726 6
1 5727 38
1 5728 31
1 5729 2
1 5730 3
1 5731 22
1 5732 31
1 5733 1
1 5734 22
1 5735 2
1 5736 56
1 5737 10
1 5738 26
1 5739 8
1 5740 5
1 5741 3
1 5742 5
1 5743 12
1 5744 3
1 5746 16
1 5747 24
1 5748 17
1 5749 3
1 5750 1
1 5751 2
1 5752 12
1 5753 25
1 5754 5
1 5755 24
1 5756 3
1 5757 1
1 5758 5
1 5759 1
1 5761 4
1 5762 6
1 5763 43
1 5764 8
1 5765 18
1 5766 2
1 5767 27
1 5768 713
1 5769 1
1 5770 2
1 5771 120
1 5772 1
1 5774 22
1 5775 8
1 5776 2
1 5777 3
1 5778 4
1 5779 1
1 5780 3
1 5781 11
1 5782 18
1 5783 6
1 5784 1
1 5785 17
1 5786 3
1 5787 7
1 5788 3
1 5789 17
1 5790 3
1 5791 2
1 5792 36
1 5793 18
1 5794 8
1 5795 72
1 5796 743
1 5797 26
1 5798 3
1 5799 44
1 5800 33
1 5801 15
1 5802 2
1 5803 2
1 5804 29
1 5805 6
1 5806 4
1 5807 19
1 5808 20
1 5810 2
1 5811 3
1 5812 24
1 5813 9
1 5814 1
1 5815 3
1 5816 32
1 5817 1
1 5818 17
1 5819 32
1 5820 4
1 5821 25
1 5822 1
1 5823 54
1 5825 84
1 5826 43
1 5827 6
1 5828 41
1 5829 1
1 5830 1
1 5831 1
1 5832 4
1 5833 4
1 5834 16
1 5835 3
1 5836 5
1 5837 9
1 5838 8
1 5839 3
1 5840 3
1 5841 6
1 5842 16
1 5843 3
1 5844 28
1 5845 21
1 5846 14
1 5847 10
1 5848 4
1 5849 10
1 5850 5
1 5851 2
1 5853 3
1 5854 76
1 5855 12
1 5856 32
1 5857 4
1 5858 3
1 5859 15
1 5860 5
1 5861 26
1 5862 5
1 5863 1
1 5864 622
1 5865 7
1 5866 10
1 5867 14
1 5868 6
1 5869 7
1 5870 3
1 5871 35
1 5872 1683
1 5873 13
1 5874 4
1 5875 4
1 5876 4
1 5877 31
1 5878 90
1 5879 21
1 5880 41
1 5881 6
1 5882 7
1 5883 30
1 5884 26
1 5885 32
1 5886 1
1 5887 3
1 5888 5
1 5889 2
1 5890 2
1 5891 4
1 5892 3
1 5893 28
1 5894 19
1 5895 9
1 5896 16
1 5897 14
1 5898 11
1 5899 6
1 5900 4
1 5901 2
1 5902 43
1 5903 3
1 5904 3
1 5905 17
1 5906 15
1 5907 4
1 5908 19
1 5909 24
1 5910 33
1 5911 2
1 5912 9
1 5913 44
1 5914 21
1 5916 6
1 5917 1
1 5918 29
1 5919 16
1 5920 2
1 5921 2
1 5922 24
1 5923 57
1 5924 5
1 5925 44
1 5926 1
1 5927 3
1 5928 4
1 5929 62
1 5930 5
1 5931 15
1 5933 2
1 5934 2
1 5935 4
1 5936 3
1 5937 5
1 5938 2
1 5939 4
1 5940 13
1 5941 7
1 5942 3
1 5943 2
1 5944 1
1 5945 1
1 5946 8
1 5947 2
1 5948 3
1 5949 2
1 5950 1
1 5951 1
1 5952 1
1 5953 4
1 5954 2
1 5955 8
1 5956 3
1 5957 32
1 5958 98
1 5959 6
1 5960 33
1 5961 6
1 5962 2
1 5963 4
1 5964 4
1 5965 9
1 5966 43
1 5967 50
1 5968 2
1 5969 3
1 5970 3
1 5971 2
1 5972 10
1 5973 4
1 5974 4
1 5976 2
1 5977 7
1 5978 77
1 5979 18
1 5980 39
1 5982 3
1 5983 3
1 5984 38
1 5985 19
1 5986 9
1 5987 25
1 5988 11
1 5989 3
1 5990 3
1 5991 2
1 5992 13
1 5993 40
1 5994 6
1 5995 25
1 5996 3
1 5997 34
1 5998 1
1 5999 12
1 6000 2
1 6001 19
1 6002 3
1 6003 16
1 6004 6
1 6005 1
1 6006 7
1 6007 7
1 6008 3
1 6009 4
1 6010 7
1 6011 1
1 6012 24
1 6013 12
1 6014 3
1 6015 5
1 6016 32
1 6017 13
1 6018 4
1 6019 6
1 6020 7
1 6021 28
1 6022 3
1 6024 3
1 6025 2
1 6026 1
1 6027 5
1 6028 11
1 6030 37
1 6031 5
1 6032 12
1 6033 2
1 6034 5
1 6035 1
1 6036 2
1 6037 56
1 6038 2
1 6039 20
1 6040 2
1 6041 3
1 6042 5
1 6043 15
1 6044 2
1 6045 2
1 6046 10
1 6047 3
1 6048 19
1 6049 22
1 6050 37
1 6051 5
1 6052 5
1 6053 7
1 6054 7
1 6055 4
1 6056 21
1 6057 39
1 6058 5
1 6059 72
1 6060 1
1 6061 2
1 6062 2
1 6063 999
1 6064 5
1 6065 1
1 6066 29
1 6067 14
1 6068 4
1 6069 2
1 6070 5
1 6071 36
1 6072 7
1 6073 3
1 6074 10
1 6075 17
1 6076 31
1 6077 5
1 6078 34
1 6079 1
1 6080 7
1 6081 12
1 6082 4
1 6084 19
1 6085 4
1 6086 5
1 6087 51
1 6088 4
1 6089 13
1 6090 9
1 6091 26
1 6092 16
1 6093 16
1 6094 4
1 6095 59
1 6096 2
1 6097 10
1 6098 3
1 6099 15
1 6100 5
1 6101 38
1 6102 4
1 6103 3
1 6104 2
1 6105 3
1 6106 6
1 6107 9
1 6108 2
1 6109 4
1 6110 20
1 6111 9
1 6112 42
1 6113 18
1 6114 13
1 6115 3
1 6116 3
1 6117 3
1 6118 2
1 6119 8
1 6120 1
1 6121 4
1 6122 4
1 6123 30
1 6124 8
1 6125 1
1 6126 3
1 6128 37
1 6129 43
1 6130 2
1 6131 3
1 6133 13
1 6134 1
1 6135 21
1 6136 4
1 6137 1
1 6138 30
1 6139 1
1 6140 14
1 6141 1
1 6142 18
1 6143 58
1 6144 3
1 6145 13
1 6146 36
1 6147 39
1 6148 5
1 6149 23
1 6150 5
1 6151 36
1 6152 9
1 6153 1
1 6154 21
1 6155 1
1 6156 2
1 6157 549
1 6158 3
1 6159 18
1 6161 14
1 6162 1
1 6163 2
1 6164 7
1 6165 3
1 6166 1
1 6167 4
1 6168 5
1 6169 2
1 6170 36
1 6171 20
1 6172 1
1 6173 17
1 6174 111
1 6175 39
1 6176 6
1 6177 3
1 6178 36
1 6179 9
1 6180 2
1 6181 19
1 6182 14
1 6183 1
1 6184 2
1 6185 3
1 6186 29
1 6187 1
1 6188 4
1 6189 4
1 6190 61
1 6191 22
1 6192 17
1 6193 25
1 6194 4
1 6195 13
1 6196 11
1 6197 3
1 6198 5
1 6199 4
1 6200 2
1 6201 18
1 6202 29
1 6203 17
1 6204 3
1 6205 3
1 6206 2
1 6207 2
1 6208 17
1 6209 629
1 6210 36
1 6211 39
1 6212 7
1 6213 19
1 6214 3
1 6215 9
1 6216 3
1 6217 3
1 6218 6
1 6219 4
1 6220 61
1 6221 26
1 6222 3
1 6223 5
1 6224 9
1 6225 1
1 6226 5
1 6227 4
1 6228 17
1 6229 2
1 6230 22
1 6231 43
1 6232 2
1 6233 3
1 6234 29
1 6235 7
1 6236 99
1 6237 11
1 6238 40
1 6240 18
1 6241 25
1 6242 31
1 6243 3
1 6244 25
1 6245 15
1 6246 1327
1 6247 38
1 6248 4
1 6249 34
1 6250 3
1 6251 85
1 6252 2
1 6253 981
1 6254 1064
1 6255 5
1 6256 25
1 6257 3
1 6258 8
1 6259 8
1 6261 2
1 6262 4
1 6263 6
1 6264 23
1 6265 7
1 6266 4
1 6267 18
1 6268 20
1 6269 24
1 6270 31
1 6271 3
1 6272 26
1 6273 2
1 6274 25
1 6275 1
1 6276 2
1 6277 412
1 6278 8
1 6279 4
1 6280 16
1 6281 20
1 6282 1
1 6283 3
1 6284 24
1 6285 8
1 6286 3
1 6287 5
1 6288 23
1 6289 36
1 6290 6
1 6291 3
1 6292 8
1 6293 8
1 6294 3
1 6295 3
1 6296 47
1 6297 3
1 6298 22
1 6299 18
1 6300 5
1 6302 48
1 6303 62
1 6304 2
1 6305 5
1 6306 2
1 6307 15
1 6308 1
1 6309 3
1 6310 15
1 6311 13
1 6312 3
1 6313 741
1 6314 6
1 6315 7
1 6316 17
1 6317 8
1 6318 5
1 6319 13
1 6320 2
1 6321 1
1 6322 1
1 6323 686
1 6324 9
1 6325 30
1 6326 32
1 6327 22
1 6328 4
1 6329 1
1 6330 14
1 6332 1
1 6333 23
1 6334 2
1 6335 16
1 6336 1
1 6337 22
1 6338 3
1 6339 6
1 6340 1
1 6341 3
1 6342 2
1 6343 1
1 6344 5
1 6345 2
1 6346 34
1 6347 3
1 6348 2
1 6349 3
1 6350 11
1 6351 76
1 6352 20
1 6353 4
1 6354 3
1 6355 48
1 6356 36
1 6357 14
1 6358 6
1 6359 12
1 6360 2
1 6361 3
1 6362 36
1 6363 43
1 6364 43
1 6365 10
1 6366 35
1 6367 11
1 6368 16
1 6369 2
1 6370 10
1 6371 22
1 6372 4
1 6373 40
1 6374 2
1 6375 3
1 6376 1
1 6377 1
1 6378 1
1 6379 1
1 6380 1
1 6383 15
1 6384 2
1 6385 6
1 6386 13
1 6388 2
1 6389 6
1 6390 17
1 6392 48
1 6393 3
1 6394 4
1 6395 1
1 6396 3
1 6397 20
1 6398 15
1 6399 32
1 6400 3
1 6401 20
1 6402 3
1 6403 87
1 6404 26
1 6405 13
1 6406 3
1 6407 62
1 6408 1
1 6409 4
1 6410 47
1 6411 4
1 6412 2
1 6413 34
1 6414 4
1 6415 47
1 6416 12
1 6418 1
1 6419 6
1 6420 5
1 6421 3
1 6422 60
1 6423 24
1 6424 15
1 6425 4
1 6426 1
1 6427 18
1 6428 13
1 6429 1
1 6430 7
1 6431 12
1 6432 23
1 6433 2
1 6434 2
1 6435 31
1 6436 13
1 6437 4
1 6438 1
1 6439 17
1 6440 14
1 6441 51
1 6442 1115
1 6443 3
1 6444 2
1 6445 5
1 6446 6
1 6447 57
1 6448 10
1 6449 3
1 6450 9
1 6451 2
1 6452 398
1 6453 10
1 6454 8
1 6455 5
1 6456 45
1 6457 1
1 6458 2
1 6459 4
1 6460 6
1 6461 3
1 6462 33
1 6463 16
1 6464 6
1 6465 4
1 6466 2
1 6467 1
1 6468 2
1 6469 6
1 6470 16
1 6471 3
1 6472 1
1 6473 247
1 6474 1
1 6475 50
1 6476 3
1 6477 2
1 6478 4
1 6479 44
1 6480 11
1 6481 6
1 6482 3
1 6483 1
1 6484 2
1 6485 3
1 6486 14
1 6487 2
1 6488 5
1 6489 8
1 6491 1
1 6492 15
1 6493 1
1 6494 5
1 6495 24
1 6496 29
1 6497 1
1 6498 4
1 6499 16
1 6500 3
1 6501 9
1 6502 1
1 6503 33
1 6504 30
1 6505 2
1 6506 54
1 6507 10
1 6508 1
1 6509 6
1 6510 23
1 6511 2
1 6512 3
1 6513 411
1 6514 5
1 6515 2
1 6516 2
1 6517 3
1 6518 2
1 6520 10
1 6521 12
1 6522 7
1 6523 3
1 6524 1
1 6525 31
1 6526 3
1 6527 4
1 6528 262
1 6529 74
1 6530 15
1 6531 18
1 6532 2
1 6533 21
1 6534 1
1 6536 8
1 6537 6
1 6538 31
1 6539 4
1 6540 4
1 6541 2
1 6542 24
1 6543 14
1 6544 3
1 6545 5
1 6546 2
1 6547 1
1 6548 3
1 6549 70
1 6550 3
1 6551 10
1 6552 4
1 6553 15
1 6554 1
1 6555 14
1 6556 25
1 6557 4
1 6558 5
1 6559 3
1 6560 7
1 6561 7
1 6562 1
1 6563 6
1 6564 2
1 6565 10
1 6566 29
1 6567 3
1 6568 13
1 6569 9
1 6570 25
1 6571 1
1 6572 552
1 6573 27
1 6574 3
1 6575 24
1 6576 1
1 6577 40
1 6578 4
1 6579 22
1 6580 8
1 6581 14
1 6582 1
1 6583 1
1 6584 3
1 6586 1113
1 6587 4
1 6588 3
1 6589 3
1 6590 31
1 6591 11
1 6592 12
1 6593 3
1 6594 12
1 6595 2
1 6596 4
1 6597 5
1 6598 2
1 6599 4
1 6600 6
1 6602 890
1 6603 59
1 6604 36
1 6605 6
1 6606 30
1 6607 3
1 6608 9
1 6609 3
1 6610 3
1 6611 1
1 6612 16
1 6613 5
1 6614 23
1 6615 3
1 6616 17
1 6617 16
1 6618 4
1 6619 3
1 6620 2
1 6621 1
1 6622 11
1 6623 2
1 6624 21
1 6625 23
1 6626 3
1 6627 3
1 6628 2
1 6629 1
1 6630 1
1 6631 2
1 6632 29
1 6633 47
1 6634 11
1 6635 3
1 6636 13
1 6637 60
1 6638 5
1 6639 31
1 6640 4
1 6641 3
1 6642 4
1 6643 20
1 6644 16
1 6645 22
1 6646 13
1 6648 15
1 6649 3
1 6650 15
1 6651 30
1 6652 2
1 6653 23
1 6654 7
1 6655 4
1 6656 1
1 6657 39
1 6658 35
1 6659 28
1 6660 7
1 6661 22
1 6662 21
1 6663 39
1 6664 25
1 6665 68
1 6666 3
1 6667 2
1 6668 5
1 6669 3
1 6670 1
1 6671 14
1 6672 8
1 6673 4
1 6674 7
1 6675 3
1 6677 2
1 6678 4
1 6679 22
1 6680 44
1 6681 6
1 6682 2
1 6683 4
1 6685 1
1 6686 3
1 6687 7
1 6688 2
1 6689 5
1 6690 3
1 6691 33
1 6692 20
1 6693 2
1 6694 31
1 6695 250
1 6696 3
1 6697 4
1 6698 2
1 6699 6
1 6700 3
1 6701 4
1 6702 7
1 6703 13
1 6704 2
1 6705 237
1 6706 8
1 6707 4
1 6708 2
1 6709 4
1 6710 1
1 6711 29
1 6712 3
1 6713 5
1 6714 45
1 6715 4
1 6716 13
1 6717 3
1 6718 6
1 6719 5
1 6720 42
1 6721 6
1 6722 9
1 6723 27
1 6724 21
1 6725 7
1 6726 8
1 6727 6
1 6728 1
1 6729 5
1 6730 3
1 6731 1
1 6733 4
1 6734 2
1 6735 26
1 6736 23
1 6737 2
1 6738 8
1 6739 3
1 6740 10
1 6741 479
1 6742 3
1 6743 4
1 6744 35
1 6745 15
1 6746 2
1 6747 1
1 6748 333
1 6749 19
1 6750 25
1 6751 55
1 6752 4
1 6753 2
1 6754 4
1 6755 3
1 6757 21
1 6758 9
1 6759 3
1 6760 8
1 6761 3
1 6762 24
1 6763 3
1 6764 14
1 6765 4
1 6766 2
1 6767 56
1 6768 20
1 6769 4
1 6770 7
1 6771 7
1 6772 13
1 6773 14
1 6774 5
1 6775 30
1 6776 2
1 6777 4
1 6778 2
1 6779 20
1 6780 3
1 6781 10
1 6782 2
1 6783 61
1 6784 108
1 6785 5
1 6786 2
1 6787 332
1 6788 20
1 6789 5
1 6790 19
1 6791 1
1 6792 5
1 6793 17
1 6794 13
1 6795 3
1 6796 2
1 6797 16
1 6798 22
1 6799 4
1 6800 9
1 6801 5
1 6802 170
1 6803 265
1 6804 40
1 6805 1
1 6806 1
1 6807 3
1 6808 19
1 6809 3
1 6810 3
1 6811 15
1 6812 28
1 6813 4
1 6814 2
1 6815 32
1 6816 25
1 6817 14
1 6818 1
1 6819 7
1 6820 1
1 6821 2
1 6822 1
1 6823 2
1 6824 7
1 6825 126
1 6826 49
1 6827 4
1 6828 26
1 6829 65
1 6830 2
1 6831 5
1 6833 21
1 6834 1074
1 6835 11
1 6836 3
1 6838 13
1 6839 37
1 6840 412
1 6841 4
1 6842 20
1 6843 20
1 6844 62
1 6845 1
1 6846 7
1 6847 18
1 6848 3
1 6849 22
1 6850 16
1 6851 7
1 6852 41
1 6853 17
1 6854 8
1 6855 1
1 6856 25
1 6857 37
1 6858 4
1 6859 24
1 6860 5
1 6861 6
1 6862 2
1 6863 5
1 6864 3
1 6865 5
1 6866 1
1 6867 18
1 6868 12
1 6869 3
1 6870 6
1 6871 2
1 6872 19
1 6873 18
1 6874 12
1 6875 19
1 6876 8
1 6877 17
1 6878 429
1 6879 38
1 6880 9
1 6881 396
1 6882 91
1 6883 6
1 6884 20
1 6885 2
1 6886 11
1 6887 27
1 6888 28
1 6889 3
1 6890 3
1 6891 10
1 6892 14
1 6893 26
1 6894 7
1 6895 11
1 6896 2
1 6897 4
1 6898 711
1 6899 35
1 6900 2
1 6901 7
1 6902 7
1 6903 34
1 6904 24
1 6905 6
1 6906 5
1 6907 3
1 6908 15
1 6909 3
1 6910 16
1 6911 6
1 6912 28
1 6913 28
1 6914 4
1 6915 921
1 6916 1057
1 6917 1
1 6918 2
1 6919 3
1 6920 17
1 6921 20
1 6922 5
1 6923 30
1 6924 23
1 6925 272
1 6926 4
1 6927 22
1 6928 2
1 6929 7
1 6930 8
1 6931 74
1 6932 15
1 6933 20
1 6934 2
1 6935 7
1 6936 4
1 6937 1
1 6938 1
1 6939 4
1 6940 6
1 6941 5
1 6942 1
1 6943 4
1 6944 3
1 6946 217
1 6947 20
1 6948 9
1 6949 19
1 6950 4
1 6951 2
1 6952 2
1 6953 3
1 6954 3
1 6955 54
1 6956 6
1 6957 18
1 6958 2
1 6959 23
1 6960 5
1 6961 5
1 6962 2
1 6963 25
1 6964 2
1 6965 35
1 6966 4
1 6967 26
1 6968 13
1 6969 802
1 6970 3
1 6971 5
1 6972 4
1 6973 32
1 6974 4
1 6975 3
1 6976 8
1 6977 3
1 6978 30
1 6979 4
1 6980 18
1 6981 8
1 6982 36
1 6983 31
1 6984 6
1 6985 5
1 6986 3
1 6987 7
1 6988 14
1 6989 2
1 6990 14
1 6991 3
1 6992 5
1 6993 25
1 6994 5
1 6995 12
1 6996 1
1 6997 1
1 6998 5
1 6999 20
1 7000 25
1 7001 7
1 7002 2
1 7003 1
1 7004 2
1 7005 4
1 7006 11
1 7007 24
1 7008 12
1 7009 24
1 7010 29
1 7011 13
1 7012 11
1 7013 18
1 7014 56
1 7015 5
1 7016 9
1 7017 2
1 7018 8
1 7019 4
1 7020 611
1 7021 2
1 7022 14
1 7023 24
1 7024 6
1 7025 6
1 7026 30
1 7027 1
1 7028 26
1 7029 11
1 7030 32
1 7031 2
1 7032 6
1 7033 6
1 7034 23
1 7035 22
1 7036 16
1 7037 1060
1 7038 30
1 7039 4
1 7040 3
1 7041 17
1 7042 1
1 7043 45
1 7044 3
1 7045 15
1 7046 24
1 7047 5
1 7048 18
1 7049 2
1 7050 13
1 7051 1067
1 7052 673
1 7053 35
1 7054 5
1 7055 4
1 7056 1
1 7057 14
1 7058 4
1 7059 10
1 7060 34
1 7061 25
1 7062 4
1 7063 3
1 7064 2
1 7065 5
1 7066 16
1 7067 1
1 7068 2
1 7069 4
1 7070 3
1 7071 22
1 7072 28
1 7073 28
1 7074 3
1 7075 19
1 7076 4
1 7077 9
1 7078 19
1 7079 18
1 7080 28
1 7081 26
1 7082 8
1 7083 2
1 7084 17
1 7085 2
1 7086 3
1 7087 7
1 7088 1
1 7089 6
1 7091 1
1 7092 2
1 7093 17
1 7094 27
1 7095 4
1 7096 7
1 7097 22
1 7098 293
1 7099 28
1 7100 2
1 7102 1
1 7103 1
1 7104 7
1 7105 2
1 7106 4
1 7107 3
1 7108 1
1 7109 23
1 7110 4
1 7111 2
1 7112 20
1 7113 51
1 7114 43
1 7115 3
1 7117 288
1 7118 6
1 7119 3
1 7120 27
1 7121 1
1 7122 31
1 7123 2
1 7124 11
1 7125 5
1 7126 2
1 7127 2
1 7128 24
1 7129 2
1 7130 13
1 7131 18
1 7132 10
1 7133 1237
1 7134 4
1 7135 1
1 7136 1
1 7137 27
1 7138 19
1 7139 22
1 7141 34
1 7142 64
1 7143 3
1 7144 4
1 7145 6
1 7146 18
1 7147 6
1 7148 36
1 7149 5
1 7150 5
1 7151 6
1 7152 1
1 7153 23
1 7154 1
1 7155 6
1 7156 17
1 7157 28
1 7158 1
1 7159 7
1 7160 12
1 7161 57
1 7162 33
1 7163 20
1 7164 4
1 7165 1
1 7166 13
1 7167 4
1 7168 4
1 7169 62
1 7170 29
1 7171 2
1 7172 1028
1 7173 14
1 7174 4
1 7175 23
1 7176 6
1 7177 3
1 7178 7
1 7179 1
1 7180 20
1 7181 16
1 7182 2
1 7183 6
1 7184 2
1 7186 17
1 7187 14
1 7188 30
1 7189 2
1 7190 3
1 7191 2
1 7192 3
1 7193 46
1 7194 22
1 7195 7
1 7196 5
1 7197 37
1 7198 14
1 7199 13
1 7200 4
1 7201 34
1 7202 14
1 7203 27
1 7204 2
1 7205 6
1 7206 2
1 7207 12
1 7208 26
1 7209 18
1 7210 7
1 7211 2
1 7212 1
1 7213 4
1 7214 23
1 7215 2
1 7216 6
1 7217 19
1 7218 2
1 7219 6
1 7220 2
1 7221 2
1 7222 38
1 7223 3
1 7224 30
1 7225 951
1 7226 21
1 7227 12
1 7228 3
1 7229 5
1 7230 1
1 7231 14
1 7232 18
1 7233 13
1 7234 11
1 7235 17
1 7236 6
1 7237 15
1 7238 72
1 7239 505
1 7240 46
1 7241 3
1 7242 35
1 7243 29
1 7244 31
1 7245 6
1 7246 8
1 7247 12
1 7248 1
1 7249 1086
1 7250 8
1 7251 18
1 7252 2
1 7253 20
1 7254 15
1 7255 69
1 7256 21
1 7257 3
1 7258 13
1 7259 66
1 7260 1
1 7261 1
1 7262 9
1 7263 5
1 7264 34
1 7265 4
1 7266 3
1 7267 6
1 7268 4
1 7269 80
1 7270 8
1 7271 3
1 7272 581
1 7273 19
1 7274 33
1 7275 3
1 7276 18
1 7277 3
1 7278 17
1 7279 4
1 7280 5
1 7281 4
1 7282 3
1 7283 35
1 7284 3
1 7285 2
1 7286 29
1 7287 8
1 7288 32
1 7289 2
1 7290 6
1 7291 3
1 7292 48
1 7293 16
1 7294 791
1 7295 2
1 7296 2
1 7297 13
1 7298 6
1 7299 2
1 7300 4
1 7301 12
1 7302 14
1 7303 2
1 7304 16
1 7305 3
1 7306 5
1 7307 65
1 7308 1
1 7309 5
1 7310 2
1 7311 9
1 7312 2
1 7313 17
1 7314 47
1 7315 3
1 7316 2
1 7317 5
1 7318 48
1 7319 3
1 7320 13
1 7322 2
1 7323 6
1 7324 49
1 7325 4
1 7326 9
1 7327 11
1 7328 24
1 7329 8
1 7330 23
1 7331 3
1 7332 13
1 7333 159
1 7334 3
1 7335 9
1 7336 1
1 7337 7
1 7338 15
1 7339 48
1 7340 1
1 7341 2
1 7342 619
1 7343 5
1 7344 6
1 7345 1
1 7346 4
1 7347 2
1 7348 14
1 7349 6
1 7350 1
1 7351 19
1 7352 3
1 7353 16
1 7354 5
1 7355 20
1 7356 6
1 7357 1
1 7358 1
1 7359 18
1 7360 20
1 7361 27
1 7362 2
1 7363 9
1 7364 8
1 7365 12
1 7366 3
1 7367 2
1 7368 3
1 7369 5
1 7370 14
1 7371 13
1 7372 1
1 7373 38
1 7374 2
1 7375 4
1 7376 3
1 7377 4
1 7379 4
1 7380 24
1 7381 3
1 7382 33
1 7383 16
1 7384 2
1 7385 3
1 7386 6
1 7387 21
1 7388 1
1 7389 2
1 7390 3
1 7391 2
1 7392 9
1 7393 2
1 7394 1
1 7395 3
1 7396 2
1 7397 2
1 7398 6
1 7399 43
1 7400 2
1 7401 1
1 7402 3
1 7403 1
1 7404 3
1 7405 2
1 7406 3
1 7407 4
1 7408 3
1 7409 2
1 7410 13
1 7411 3
1 7412 19
1 7413 11
1 7414 3
1 7415 12
1 7416 3
1 7417 4
1 7418 11
1 7419 3
1 7420 4
1 7421 4
1 7422 12
1 7423 12
1 7424 15
1 7425 213
1 7426 15
1 7427 6
1 7428 4
1 7429 5
1 7430 3
1 7431 3
1 7432 4
1 7433 20
1 7434 11
1 7435 19
1 7436 3
1 7437 3
1 7438 30
1 7439 8
1 7440 2
1 7441 10
1 7442 3
1 7443 13
1 7444 54
1 7445 3
1 7446 2
1 7447 250
1 7448 2
1 7449 26
1 7450 1
1 7451 16
1 7452 1
1 7453 7
1 7454 7
1 7455 2
1 7456 6
1 7457 15
1 7458 15
1 7459 18
1 7460 6
1 7461 18
1 7462 3
1 7463 1
1 7464 33
1 7465 8
1 7466 1013
1 7467 5
1 7468 2
1 7469 23
1 7470 2
1 7471 41
1 7472 4
1 7473 19
1 7474 6
1 7475 1
1 7476 17
1 7477 6
1 7478 1
1 7479 12
1 7480 27
1 7481 27
1 7482 4
1 7483 3
1 7484 10
1 7485 4
1 7486 26
1 7487 3
1 7488 46
1 7489 24
1 7490 31
1 7491 5
1 7492 76
1 7493 4
1 7494 4
1 7495 5
1 7496 33
1 7497 13
1 7498 3
1 7499 27
1 7500 4
1 7501 8
1 7502 6
1 7503 20
1 7504 15
1 7505 13
1 7506 43
1 7507 12
1 7508 2
1 7509 5
1 7510 13
1 7511 4
1 7512 1
1 7513 5
1 7514 12
1 7515 22
1 7516 2
1 7517 3
1 7518 5
1 7519 25
1 7520 2
1 7521 6
1 7522 1
1 7523 45
1 7524 2
1 7525 51
1 7526 21
1 7527 29
1 7528 2
1 7529 42
1 7530 3
1 7531 3
1 7532 1
1 7533 9
1 7534 1
1 7535 6
1 7536 22
1 7537 1
1 7538 5
1 7539 7
1 7540 2
1 7541 3
1 7542 5
1 7543 23
1 7544 25
1 7545 3
1 7546 79
1 7547 7
1 7548 274
1 7549 1
1 7550 24
1 7551 3
1 7552 18
1 7553 13
1 7554 3
1 7555 2
1 7556 23
1 7557 53
1 7558 3
1 7559 3
1 7560 39
1 7561 2
1 7562 4
1 7563 3
1 7564 6
1 7566 15
1 7568 15
1 7569 3
1 7570 27
1 7571 5
1 7572 20
1 7573 19
1 7574 2
1 7575 5
1 7576 12
1 7577 24
1 7578 43
1 7579 4
1 7580 1
1 7581 2
1 7582 18
1 7583 2
1 7584 1
1 7585 5
1 7586 5
1 7587 32
1 7588 4
1 7589 60
1 7590 1
1 7591 5
1 7592 26
1 7593 30
1 7594 25
1 7595 20
1 7596 4
1 7597 3
1 7598 8
1 7599 28
1 7600 2
1 7601 15
1 7602 3
1 7603 3
1 7604 5
1 7605 3
1 7606 40
1 7607 4
1 7608 6
1 7609 34
1 7610 17
1 7611 2
1 7612 4
1 7613 3
1 7614 36
1 7615 6
1 7616 9
1 7617 2
1 7618 19
1 7619 2
1 7620 7
1 7621 2
1 7622 3
1 7623 2
1 7624 58
1 7625 1031
1 7626 574
1 7627 2
1 7628 17
1 7629 7
1 7630 1
1 7631 22
1 7632 422
1 7633 5
1 7634 17
1 7635 21
1 7636 4
1 7637 11
1 7638 6
1 7639 7
1 7640 16
1 7641 5
1 7642 36
1 7643 2
1 7644 347
1 7645 9
1 7646 4
1 7647 3
1 7648 27
1 7649 3
1 7650 11
1 7651 3
1 7652 2
1 7653 9
1 7654 5
1 7655 12
1 7656 9
1 7657 14
1 7658 2
1 7659 24
1 7660 17
1 7661 2
1 7662 3
1 7663 28
1 7664 24
1 7665 13
1 7666 26
1 7667 4
1 7668 5
1 7669 20
1 7670 36
1 7671 66
1 7672 13
1 7673 6
1 7675 4
1 7676 24
1 7677 8
1 7678 1
1 7679 59
1 7680 32
1 7681 8
1 7682 14
1 7683 38
1 7684 3
1 7685 6
1 7686 4
1 7687 6
1 7688 29
1 7689 28
1 7690 3
1 7691 5
1 7692 1
1 7693 28
1 7694 12
1 7695 2
1 7696 7
1 7697 6
1 7698 1
1 7699 3
1 7700 31
1 7701 4
1 7702 1
1 7703 7
1 7704 4
1 7705 1
1 7706 4
1 7707 27
1 7708 799
1 7709 14
1 7710 2
1 7711 22
1 7712 7
1 7713 4
1 7714 6
1 7715 50
1 7716 26
1 7717 2
1 7718 19
1 7719 40
1 7720 4
1 7721 7
1 7722 4
1 7723 1
1 7724 6
1 7725 881
1 7726 1
1 7727 2
1 7728 10
1 7729 1
1 7730 1
1 7731 1
1 7732 1
1 7733 3
1 7734 5
1 7735 3
1 7736 28
1 7737 3
1 7738 3
1 7739 46
1 7740 1
1 7741 35
1 7742 601
1 7743 4
1 7744 34
1 7745 11
1 7746 3
1 7747 3
1 7748 2
1 7750 27
1 7751 3
1 7752 3
1 7753 17
1 7754 4
1 7755 1
1 7756 4
1 7757 6
1 7758 10
1 7759 1
1 7760 1
1 7761 1073
1 7762 9
1 7763 8
1 7764 22
1 7765 1
1 7766 25
1 7767 2
1 7768 12
1 7769 43
1 7770 3
1 7771 20
1 7772 7
1 7773 1
1 7774 5
1 7775 3
1 7776 23
1 7777 61
1 7778 3
1 7779 2
1 7781 5
1 7782 29
1 7784 4
1 7785 669
1 7786 6
1 7788 3
1 7789 1051
1 7790 2
1 7791 9
1 7792 5
1 7793 42
1 7794 33
1 7795 5
1 7796 17
1 7797 44
1 7798 6
1 7799 24
1 7800 226
1 7801 767
1 7802 15
1 7803 5
1 7804 6
1 7805 15
1 7806 1
1 7807 30
1 7808 23
1 7809 4
1 7810 9
1 7811 20
1 7812 10
1 7813 3
1 7814 3
1 7815 1
1 7817 3
1 7818 5
1 7819 12
1 7820 1
1 7821 5
1 7822 11
1 7823 9
1 7824 61
1 7825 4
1 7826 4
1 7827 1
1 7828 1
1 7829 3
1 7830 1
1 7831 1
1 7832 4
1 7833 26
1 7834 3
1 7835 3
1 7836 28
1 7837 2
1 7838 26
1 7839 3
1 7840 1
1 7841 31
1 7842 22
1 7843 2
1 7844 24
1 7846 3
1 7847 14
1 7848 3
1 7849 20
1 7850 2
1 7851 40
1 7852 4
1 7853 54
1 7854 48
1 7855 1
1 7856 3
1 7857 20
1 7858 7
1 7859 1
1 7860 3
1 7861 1
1 7862 5
1 7863 9
1 7864 4
1 7865 132
1 7866 7
1 7867 6
1 7868 2
1 7869 2
1 7870 9
1 7871 1
1 7872 18
1 7873 4
1 7874 11
1 7875 22
1 7876 15
1 7878 12
1 7879 6
1 7880 29
1 7881 7
1 7882 1
1 7883 5
1 7884 3
1 7885 1
1 7886 5
1 7887 67
1 7888 4
1 7889 4
1 7890 6
1 7891 12
1 7892 2
1 7893 8
1 7894 10
1 7895 18
1 7896 14
1 7897 7
1 7898 3
1 7899 32
1 7900 11
1 7901 6
1 7902 2
1 7903 5
1 7904 4
1 7905 30
1 7906 1
1 7907 188
1 7908 3
1 7909 28
1 7910 20
1 7911 3
1 7912 28
1 7913 8
1 7914 2
1 7915 3
1 7916 8
1 7917 6
1 7918 4
1 7919 19
1 7920 1
1 7921 943
1 7922 17
1 7923 64
1 7924 12
1 7925 1
1 7926 8
1 7927 1
1 7928 45
1 7929 17
1 7930 15
1 7931 27
1 7932 11
1 7933 2
1 7934 9
1 7935 4
1 7936 2
1 7937 16
1 7938 4
1 7939 4
1 7940 3
1 7941 7
1 7942 2
1 7943 5
1 7944 4
1 7945 23
1 7946 39
1 7947 4
1 7948 1
1 7949 6
1 7950 6
1 7951 1
1 7952 40
1 7953 4
1 7954 4
1 7955 1
1 7956 7
1 7957 14
1 7958 8
1 7959 12
1 7960 29
1 7961 2
1 7962 4
1 7963 2
1 7964 19
1 7965 3
1 7966 5
1 7967 1
1 7968 6
1 7969 97
1 7970 6
1 7971 26
1 7972 47
1 7973 5
1 7974 21
1 7975 4
1 7976 25
1 7977 1
1 7978 16
1 7979 32
1 7980 3
1 7981 2
1 7982 2
1 7983 13
1 7984 10
1 7985 4
1 7986 54
1 7987 30
1 7988 2
1 7989 2
1 7990 19
1 7991 6
1 7992 4
1 7993 43
1 7994 1
1 7995 24
1 7996 26
1 7997 9
1 7998 50
1 7999 16
1 8002 613
1 8003 3
1 8004 24
1 8005 13
1 8006 2
1 8007 29
1 8008 3
1 8009 12
1 8010 2
1 8011 6
1 8012 4
1 8013 2
1 8014 4
1 8015 6
1 8016 2
1 8017 3
1 8018 40
1 8019 2
1 8020 1
1 8021 5
1 8022 7
1 8023 3
1 8024 57
1 8025 4
1 8026 2
1 8027 1
1 8028 5
1 8029 19
1 8030 74
1 8031 43
1 8032 4
1 8033 24
1 8034 3
1 8035 2
1 8036 5
1 8037 10
1 8038 14
1 8039 30
1 8040 543
1 8041 23
1 8042 8
1 8043 57
1 8044 3
1 8045 12
1 8046 1
1 8047 3
1 8048 4
1 8049 53
1 8050 3
1 8051 2
1 8052 2
1 8053 16
1 8054 58
1 8055 6
1 8056 2
1 8057 1
1 8058 36
1 8059 11
1 8060 25
1 8061 3
1 8062 1
1 8063 59
1 8064 18
1 8065 6
1 8066 3
1 8067 52
1 8068 9
1 8070 56
1 8071 17
1 8072 3
1 8073 12
1 8074 26
1 8075 1
1 8076 29
1 8077 4
1 8078 6
1 8079 44
1 8080 57
1 8081 38
1 8082 11
1 8083 1
1 8084 5
1 8085 36
1 8086 6
1 8087 26
1 8088 13
1 8089 13
1 8090 3
1 8091 4
1 8092 4
1 8093 22
1 8094 15
1 8095 58
1 8096 14
1 8097 1
1 8098 26
1 8099 4
1 8100 26
1 8101 5
1 8102 1
1 8103 1
1 8104 3
1 8105 18
1 8106 6
1 8107 3
1 8108 143
1 8109 2
1 8110 1
1 8111 18
1 8113 44
1 8114 2
1 8115 12
1 8116 2
1 8117 25
1 8118 27
1 8119 2
1 8120 42
1 8121 4
1 8122 12
1 8123 7
1 8124 13
1 8125 60
1 8126 2
1 8127 26
1 8128 9
1 8129 38
1 8130 11
1 8131 4
1 8132 1
1 8133 49
1 8134 32
1 8135 19
1 8136 1
1 8137 14
1 8138 13
1 8139 4
1 8140 25
1 8141 7
1 8142 21
1 8143 4
1 8144 12
1 8145 9
1 8146 9
1 8147 3
1 8148 2
1 8149 9
1 8150 51
1 8151 15
1 8152 21
1 8153 3
1 8154 4
1 8155 6
1 8156 2
1 8157 5
1 8158 9
1 8159 9
1 8160 4
1 8161 7
1 8162 6
1 8163 3
1 8164 32
1 8165 2
1 8166 1
1 8167 1127
1 8168 4
1 8169 37
1 8170 3
1 8171 2
1 8172 3
1 8173 2
1 8174 3
1 8175 39
1 8176 6
1 8177 33
1 8178 100
1 8179 9
1 8180 12
1 8181 4
1 8182 25
1 8183 24
1 8184 27
1 8185 8
1 8186 1
1 8187 25
1 8188 77
1 8189 6
1 8190 3
1 8191 8
1 8192 4
1 8193 33
1 8195 3
1 8196 10
1 8197 4
1 8198 20
1 8199 23
1 8200 4
1 8201 10
1 8202 934
1 8203 43
1 8204 26
1 8205 3
1 8206 17
1 8207 51
1 8208 14
1 8209 4
1 8210 3
1 8211 35
1 8212 46
1 8213 58
1 8214 5
1 8215 10
1 8216 2
1 8217 4
1 8218 22
1 8219 10
1 8220 3
1 8221 5
1 8222 3
1 8223 18
1 8224 3
1 8225 5
1 8226 4
1 8227 12
1 8228 3
1 8229 1186
1 8230 1
1 8231 4
1 8232 2
1 8233 15
1 8234 36
1 8235 6
1 8236 5
1 8237 4
1 8238 26
1 8239 18
1 8240 611
1 8241 2
1 8242 1
1 8243 18
1 8244 5
1 8245 2
1 8246 4
1 8247 39
1 8248 2
1 8249 2
1 8250 6
1 8251 5
1 8252 3
1 8253 19
1 8254 9
1 8255 22
1 8256 2
1 8257 17
1 8258 50
1 8259 3
1 8260 41
1 8261 737
1 8262 54
1 8264 8
1 8265 29
1 8266 3
1 8267 3
1 8268 2
1 8269 6
1 8270 3
1 8271 4
1 8272 25
1 8273 7
1 8274 24
1 8275 16
1 8276 4
1 8277 2
1 8278 23
1 8279 2
1 8280 5
1 8281 4
1 8282 2
1 8283 4
1 8284 24
1 8285 10
1 8286 4
1 8287 8
1 8288 11
1 8289 5
1 8290 2
1 8291 26
1 8292 19
1 8293 25
1 8294 9
1 8295 15
1 8296 5
1 8297 16
1 8298 2
1 8299 3
1 8300 14
1 8301 3
1 8302 12
1 8303 21
1 8304 3
1 8305 2
1 8306 61
1 8307 1
1 8308 5
1 8309 2
1 8310 20
1 8311 10
1 8312 2
1 8313 4
1 8314 3
1 8316 7
1 8317 6
1 8318 37
1 8319 27
1 8320 2
1 8321 29
1 8322 15
1 8323 4
1 8324 38
1 8325 3
1 8326 33
1 8327 2
1 8328 3
1 8329 18
1 8330 18
1 8331 7
1 8332 32
1 8333 6
1 8334 4
1 8335 27
1 8336 52
1 8337 5
1 8338 3
1 8339 4
1 8340 7
1 8341 31
1 8342 24
1 8343 3
1 8344 16
1 8345 5
1 8346 4
1 8347 27
1 8348 55
1 8349 11
1 8350 4
1 8351 37
1 8352 30
1 8353 17
1 8354 4
1 8355 38
1 8356 10
1 8357 8
1 8358 39
1 8359 7
1 8360 1
1 8361 62
1 8362 15
1 8363 7
1 8364 4
1 8365 27
1 8366 6
1 8367 2
1 8368 3
1 8369 34
1 8370 17
1 8371 4
1 8372 8
1 8373 19
1 8374 3
1 8375 14
1 8376 2
1 8377 10
1 8378 3
1 8379 31
1 8380 4
1 8381 30
1 8382 3
1 8383 2
1 8384 6
1 8385 19
1 8386 37
1 8387 1
1 8388 4
1 8389 3
1 8390 12
1 8391 1102
1 8392 2
1 8393 3
1 8394 1
1 8395 30
1 8396 24
1 8397 14
1 8398 18
1 8399 8
1 8400 7
1 8401 16
1 8402 1252
1 8403 7
1 8404 3
1 8405 1
1 8406 3
1 8407 10
1 8408 1
1 8409 16
1 8410 3
1 8411 21
1 8412 1172
1 8413 5
1 8414 5
1 8415 16
1 8416 19
1 8417 2
1 8418 2
1 8419 31
1 8420 3
1 8421 4
1 8422 5
1 8423 5
1 8424 46
1 8425 54
1 8426 4
1 8427 2
1 8428 7
1 8429 16
1 8430 33
1 8431 49
1 8432 1
1 8433 5
1 8434 5
1 8435 9
1 8436 1
1 8437 449
1 8438 67
1 8439 6
1 8440 77
1 8441 8
1 8442 7
1 8443 3
1 8444 75
1 8445 21
1 8446 3
1 8447 11
1 8448 4
1 8449 26
1 8450 20
1 8451 3
1 8452 2
1 8453 3
1 8454 3
1 8455 2
1 8456 24
1 8457 2
1 8458 39
1 8459 4
1 8460 1
1 8461 20
1 8462 13
1 8463 3
1 8464 2
1 8465 1
1 8466 2
1 8467 3
1 8468 6
1 8469 4
1 8470 2
1 8471 3
1 8472 8
1 8473 3
1 8474 16
1 8475 4
1 8476 27
1 8477 40
1 8478 2
1 8479 32
1 8480 8
1 8481 8
1 8482 5
1 8483 2
1 8484 18
1 8485 19
1 8486 1
1 8487 32
1 8488 24
1 8489 3
1 8490 10
1 8491 2
1 8492 2
1 8493 2
1 8494 33
1 8495 6
1 8496 7
1 8497 52
1 8498 28
1 8499 2
1 8500 40
1 8501 2
1 8502 53
1 8503 18
1 8504 11
1 8505 4
1 8506 14
1 8507 13
1 8508 3
1 8509 12
1 8510 39
1 8511 19
1 8512 16
1 8513 11
1 8514 5
1 8515 19
1 8516 26
1 8517 56
1 8518 3
1 8519 14
1 8520 2
1 8521 3
1 8522 4
1 8524 1
1 8525 4
1 8526 20
1 8527 11
1 8528 10
1 8529 2
1 8530 33
1 8531 27
1 8532 1
1 8533 15
1 8534 18
1 8535 15
1 8536 4
1 8537 5
1 8538 41
1 8539 2
1 8540 12
1 8541 5
1 8542 19
1 8543 1
1 8544 4
1 8545 2
1 8546 30
1 8547 24
1 8548 23
1 8549 5
1 8550 23
1 8551 12
1 8552 3
1 8553 1
1 8554 7
1 8555 36
1 8556 2
1 8557 27
1 8558 3
1 8559 8
1 8560 36
1 8561 23
1 8562 4
1 8563 3
1 8565 2
1 8566 19
1 8567 2
1 8569 7
1 8570 4
1 8571 23
1 8572 3
1 8573 23
1 8574 1
1 8575 1
1 8576 21
1 8577 4
1 8579 2
1 8580 25
1 8581 4
1 8582 36
1 8583 6
1 8584 16
1 8585 57
1 8586 3
1 8588 11
1 8589 37
1 8590 7
1 8591 4
1 8592 2
1 8594 3
1 8595 46
1 8596 2
1 8597 22
1 8598 16
1 8599 6
1 8600 3
1 8601 37
1 8603 2
1 8604 1
1 8605 12
1 8606 17
1 8607 9
1 8608 9
1 8609 19
1 8610 14
1 8611 55
1 8613 24
1 8614 8
1 8615 26
1 8616 23
1 8617 2
1 8618 3
1 8619 4
1 8620 2
1 8621 6
1 8622 43
1 8623 23
1 8624 8
1 8625 3
1 8626 32
1 8627 3
1 8628 7
1 8629 653
1 8630 3
1 8631 911
1 8633 7
1 8634 15
1 8635 3
1 8636 4
1 8637 19
1 8638 55
1 8639 268
1 8640 6
1 8641 16
1 8642 2
1 8643 2
1 8644 2
1 8645 6
1 8646 7
1 8647 7
1 8648 18
1 8649 26
1 8650 2
1 8651 1
1 8652 2
1 8653 13
1 8654 15
1 8655 7
1 8656 4
1 8657 6
1 8658 19
1 8659 4
1 8660 36
1 8661 3
1 8662 4
1 8663 1
1 8664 12
1 8665 3
1 8666 12
1 8667 62
1 8668 56
1 8669 79
1 8670 2
1 8672 24
1 8673 3
1 8674 8
1 8675 4
1 8676 7
1 8677 3
1 8678 1
1 8679 1
1 8680 2
1 8681 3
1 8682 468
1 8683 2
1 8684 13
1 8685 4
1 8686 1
1 8687 20
1 8688 27
1 8689 8
1 8690 57
1 8691 3
1 8692 2
1 8693 29
1 8694 1
1 8695 128
1 8696 5
1 8697 25
1 8698 9
1 8699 1
1 8700 5
1 8701 8
1 8702 64
1 8703 1
1 8704 2
1 8705 1
1 8706 21
1 8707 24
1 8708 27
1 8709 28
1 8710 2
1 8711 4
1 8712 9
1 8713 17
1 8714 36
1 8715 8
1 8716 40
1 8717 35
1 8718 5
1 8719 3
1 8720 16
1 8721 32
1 8722 32
1 8723 67
1 8724 9
1 8725 2
1 8726 15
1 8727 10
1 8728 2
1 8729 7
1 8730 34
1 8731 12
1 8732 7
1 8733 1
1 8734 37
1 8736 4
1 8737 2
1 8738 19
1 8739 15
1 8740 27
1 8741 10
1 8742 3
1 8743 23
1 8744 38
1 8745 14
1 8746 48
1 8747 4
1 8748 27
1 8749 9
1 8750 16
1 8751 1
1 8752 3
1 8753 42
1 8754 1
1 8755 7
1 8756 47
1 8757 5
1 8758 4
1 8759 41
1 8760 3
1 8761 334
1 8762 4
1 8763 9
1 8764 3
1 8765 9
1 8766 56
1 8767 94
1 8768 3
1 8769 9
1 8770 3
1 8771 19
1 8772 41
1 8773 8
1 8774 8
1 8775 15
1 8776 36
1 8777 4
1 8778 6
1 8779 5
1 8780 13
1 8781 1
1 8782 919
1 8783 3
1 8784 20
1 8785 20
1 8786 3
1 8787 3
1 8788 2
1 8789 206
1 8790 12
1 8791 2
1 8792 3
1 8793 4
1 8794 24
1 8795 2
1 8796 21
1 8797 6
1 8798 3
1 8799 74
1 8800 1360
1 8801 50
1 8802 2
1 8803 14
1 8804 8
1 8805 37
1 8806 47
1 8807 37
1 8808 4
1 8809 930
1 8810 24
1 8811 15
1 8812 2
1 8813 3
1 8814 14
1 8815 5
1 8816 51
1 8817 3
1 8818 7
1 8819 18
1 8820 7
1 8821 928
1 8822 8
1 8823 28
1 8824 6
1 8825 4
1 8826 3
1 8827 3
1 8828 8
1 8829 4
1 8830 9
1 8831 11
1 8832 2
1 8833 28
1 8834 2
1 8835 34
1 8836 48
1 8837 26
1 8838 14
1 8839 8
1 8840 5
1 8841 5
1 8842 23
1 8843 34
1 8844 3
1 8845 4
1 8846 13
1 8847 5
1 8848 6
1 8849 4
1 8850 24
1 8852 4
1 8853 1
1 8854 5
1 8855 3
1 8856 17
1 8857 21
1 8858 20
1 8859 5
1 8860 35
1 8861 5
1 8862 5
1 8863 1
1 8864 10
1 8865 9
1 8866 6
1 8867 2
1 8868 11
1 8869 152
1 8870 31
1 8871 11
1 8872 28
1 8873 14
1 8874 3
1 8875 28
1 8876 6
1 8877 2
1 8878 1
1 8879 4
1 8880 3
1 8881 5
1 8882 22
1 8883 2
1 8884 37
1 8885 3
1 8886 20
1 8887 1
1 8888 26
1 8889 1
1 8890 5
1 8891 14
1 8892 829
1 8893 2
1 8894 16
1 8895 3
1 8896 4
1 8897 3
1 8898 4
1 8899 46
1 8900 4
1 8901 6
1 8902 18
1 8903 12
1 8904 2
1 8905 39
1 8908 18
1 8909 3
1 8910 19
1 8911 1
1 8912 3
1 8913 32
1 8914 1
1 8915 1
1 8916 1
1 8917 6
1 8918 12
1 8920 10
1 8921 7
1 8922 4
1 8923 15
1 8924 1
1 8925 3
1 8926 4
1 8927 2
1 8928 3
1 8929 3
1 8930 1
1 8931 3
1 8932 1
1 8933 3
1 8934 5
1 8935 4
1 8936 2
1 8937 2
1 8938 22
1 8939 42
1 8940 2
1 8941 9
1 8942 61
1 8943 16
1 8945 2
1 8946 41
1 8947 4
1 8948 5
1 8949 3
1 8950 6
1 8951 4
1 8952 2
1 8953 5
1 8954 1
1 8955 38
1 8956 344
1 8957 5
1 8958 8
1 8959 13
1 8960 3
1 8961 47
1 8962 80
1 8963 35
1 8964 20
1 8965 34
1 8966 21
1 8967 1
1 8968 2
1 8969 6
1 8970 4
1 8971 25
1 8972 50
1 8973 5
1 8974 19
1 8975 53
1 8976 26
1 8977 2
1 8978 5
1 8980 1024
1 8981 2
1 8982 3
1 8983 42
1 8985 1
1 8986 12
1 8987 1
1 8989 20
1 8990 10
1 8991 4
1 8992 971
1 8993 3
1 8994 10
1 8995 7
1 8996 2
1 8997 1
1 8998 2
1 8999 233
1 9000 5
1 9001 32
1 9002 6
1 9003 4
1 9004 28
1 9005 1
1 9006 2
1 9007 11
1 9008 21
1 9009 53
1 9010 17
1 9011 6
1 9012 4
1 9013 22
1 9014 6
1 9015 7
1 9016 24
1 9017 5
1 9018 3
1 9019 16
1 9020 25
1 9022 31
1 9023 16
1 9024 3
1 9025 3
1 9026 2
1 9027 10
1 9028 6
1 9029 3
1 9030 16
1 9032 3
1 9034 8
1 9035 5
1 9036 3
1 9037 47
1 9038 2
1 9039 9
1 9040 6
1 9041 16
1 9042 1
1 9043 5
1 9044 5
1 9045 1
1 9046 7
1 9047 7
1 9048 2
1 9049 1
1 9050 26
1 9051 6
1 9052 3
1 9053 1
1 9054 22
1 9055 3
1 9056 2
1 9057 8
1 9058 29
1 9059 2
1 9060 33
1 9061 2
1 9062 3
1 9063 17
1 9064 44
1 9065 13
1 9066 3
1 9067 11
1 9068 14
1 9069 4
1 9070 24
1 9071 5
1 9072 6
1 9073 14
1 9074 38
1 9075 2
1 9076 3
1 9077 8
1 9078 6
1 9079 9
1 9080 1
1 9081 23
1 9082 3
1 9083 6
1 9084 20
1 9085 108
1 9086 482
1 9087 209
1 9088 2
1 9089 981
1 9090 47
1 9091 34
1 9092 4
1 9093 3
1 9094 36
1 9095 37
1 9096 4
1 9097 4
1 9098 36
1 9099 15
1 9100 63
1 9101 5
1 9102 19
1 9103 21
1 9104 14
1 9105 16
1 9106 1
1 9107 23
1 9108 5
1 9109 17
1 9110 45
1 9111 5
1 9112 73
1 9113 3
1 9114 3
1 9115 1
1 9116 30
1 9117 3
1 9118 6
1 9119 40
1 9120 49
1 9121 30
1 9122 8
1 9123 11
1 9124 2
1 9125 4
1 9126 4
1 9127 5
1 9128 2
1 9129 14
1 9130 9
1 9131 18
1 9132 8
1 9133 2
1 9134 20
1 9135 6
1 9136 22
1 9137 5
1 9138 22
1 9139 1
1 9140 26
1 9141 1
1 9142 22
1 9143 1
1 9144 5
1 9145 2
1 9146 25
1 9147 2
1 9148 8
1 9150 25
1 9151 4
1 9152 47
1 9153 29
1 9154 19
1 9155 2
1 9156 5
1 9157 20
1 9158 24
1 9159 26
1 9160 5
1 9161 17
1 9162 22
1 9163 4
1 9164 47
1 9165 2
1 9166 7
1 9167 1
1 9168 7
1 9169 1
1 9170 3
1 9171 2
1 9172 28
1 9173 7
1 9174 50
1 9175 1
1 9176 1
1 9177 2
1 9178 7
1 9179 603
1 9180 28
1 9181 13
1 9182 32
1 9183 1
1 9184 719
1 9185 4
1 9187 8
1 9188 13
1 9189 5
1 9190 2
1 9191 26
1 9192 29
1 9193 20
1 9194 973
1 9195 2
1 9196 10
1 9197 3
1 9198 3
1 9199 4
1 9200 2
1 9201 19
1 9202 3
1 9203 16
1 9204 30
1 9205 4
1 9206 3
1 9207 4
1 9209 5
1 9211 11
1 9212 21
1 9213 20
1 9214 10
1 9215 4
1 9216 5
1 9217 2
1 9218 1
1 9219 3
1 9220 1
1 9222 24
1 9223 13
1 9224 47
1 9225 7
1 9226 28
1 9227 3
1 9228 3
1 9229 22
1 9230 15
1 9231 19
1 9232 6
1 9233 1
1 9234 4
1 9235 4
1 9236 861
1 9237 19
1 9238 2
1 9239 49
1 9240 4
1 9241 1
1 9242 48
1 9243 3
1 9244 26
1 9245 4
1 9246 1
1 9247 6
1 9248 5
1 9249 1
1 9250 3
1 9251 3
1 9252 35
1 9253 1
1 9254 46
1 9255 245
1 9256 1
1 9257 2
1 9259 15
1 9260 3
1 9261 21
1 9262 5
1 9263 1
1 9264 7
1 9265 25
1 9266 13
1 9267 4
1 9268 29
1 9269 3
1 9270 3
1 9271 23
1 9272 4
1 9273 2
1 9274 29
1 9275 2
1 9276 803
1 9277 38
1 9278 36
1 9279 7
1 9280 13
1 9281 3
1 9282 5
1 9283 3
1 9284 1
1 9285 5
1 9286 14
1 9287 6
1 9288 16
1 9289 42
1 9290 2
1 9291 12
1 9292 4
1 9293 672
1 9294 2
1 9295 20
1 9296 6
1 9297 1
1 9298 4
1 9299 2
1 9300 19
1 9301 42
1 9302 3
1 9303 21
1 9304 14
1 9305 15
1 9306 7
1 9307 4
1 9308 4
1 9309 14
1 9310 21
1 9311 21
1 9312 41
1 9313 20
1 9314 35
1 9315 4
1 9316 23
1 9317 23
1 9318 29
1 9319 3
1 9320 35
1 9321 55
1 9322 6
1 9323 33
1 9324 29
1 9325 47
1 9326 41
1 9327 11
1 9328 12
1 9329 4
1 9330 843
1 9331 1
1 9332 1
1 9333 4
1 9334 5
1 9335 5
1 9336 5
1 9337 10
1 9338 13
1 9339 10
1 9340 12
1 9341 18
1 9342 5
1 9343 3
1 9344 6
1 9345 11
1 9346 3
1 9347 65
1 9348 33
1 9349 19
1 9350 4
1 9351 4
1 9352 35
1 9353 26
1 9354 59
1 9355 6
1 9356 1
1 9357 2
1 9358 20
1 9359 1
1 9360 3
1 9361 1
1 9362 1
1 9363 34
1 9364 17
1 9365 1
1 9367 6
1 9368 40
1 9369 4
1 9370 807
1 9371 2
1 9372 1
1 9373 7
1 9374 715
1 9375 3
1 9376 49
1 9377 2
1 9378 4
1 9379 49
1 9380 47
1 9381 3
1 9382 2
1 9383 4
1 9384 19
1 9385 5
1 9386 19
1 9387 2
1 9388 3
1 9389 43
1 9390 3
1 9391 22
1 9392 3
1 9393 1
1 9394 1
1 9395 31
1 9396 23
1 9397 12
1 9398 2
1 9399 14
1 9400 25
1 9401 15
1 9402 8
1 9404 10
1 9405 13
1 9406 11
1 9407 1
1 9408 5
1 9409 23
1 9410 3
1 9411 24
1 9412 2
1 9413 39
1 9414 25
1 9415 3
1 9416 4
1 9417 6
1 9418 2
1 9420 38
1 9421 13
1 9422 2
1 9423 11
1 9424 3
1 9425 4
1 9426 21
1 9427 23
1 9428 3
1 9429 6
1 9430 41
1 9431 5
1 9432 15
1 9433 3
1 9434 1
1 9435 12
1 9436 14
1 9437 68
1 9438 10
1 9439 1
1 9440 19
1 9441 5
1 9442 5
1 9443 5
1 9444 8
1 9445 23
1 9446 22
1 9447 17
1 9448 16
1 9449 10
1 9451 4
1 9452 32
1 9453 1
1 9454 30
1 9455 7
1 9456 136
1 9457 22
1 9458 17
1 9459 3
1 9460 10
1 9462 4
1 9463 1
1 9464 16
1 9466 1222
1 9467 18
1 9468 12
1 9469 6
1 9470 4
1 9471 9
1 9472 1
1 9473 869
1 9475 3
1 9476 25
1 9477 1
1 9478 12
1 9479 2
1 9480 1
1 9481 12
1 9482 4
1 9483 1154
1 9484 2
1 9485 4
1 9486 33
1 9487 66
1 9488 1
1 9489 8
1 9490 23
1 9491 1
1 9492 13
1 9493 8
1 9495 3
1 9496 1
1 9497 7
1 9498 5
1 9499 32
1 9500 3
1 9501 1
1 9502 2
1 9503 1
1 9504 16
1 9505 3
1 9506 27
1 9507 43
1 9508 9
1 9509 27
1 9510 15
1 9511 17
1 9512 6
1 9513 4
1 9514 13
1 9515 1
1 9516 4
1 9517 11
1 9518 2
1 9519 1
1 9520 5
1 9521 18
1 9522 2
1 9523 17
1 9524 23
1 9525 3
1 9526 15
1 9527 16
1 9528 5
1 9529 793
1 9530 2
1 9531 23
1 9532 2
1 9533 2
1 9534 6
1 9535 21
1 9537 3
1 9538 51
1 9539 2
1 9540 11
1 9541 5
1 9542 69
1 9543 454
1 9544 16
1 9545 4
1 9546 14
1 9547 18
1 9548 3
1 9549 4
1 9550 4
1 9551 5
1 9552 2
1 9553 2
1 9554 3
1 9555 28
1 9556 6
1 9557 26
1 9558 6
1 9559 31
1 9560 2
1 9561 1
1 9562 7
1 9563 4
1 9564 8
1 9565 32
1 9566 48
1 9567 25
1 9568 3
1 9569 1
1 9570 1
1 9571 6
1 9572 584
1 9573 2
1 9574 3
1 9576 24
1 9577 3
1 9578 768
1 9579 2
1 9580 9
1 9581 10
1 9582 2
1 9583 4
1 9584 10
1 9585 109
1 9586 28
1 9587 1
1 9588 1
1 9589 45
1 9591 17
1 9592 2
1 9593 5
1 9594 24
1 9595 5
1 9596 14
1 9597 6
1 9598 51
1 9599 31
1 9600 17
1 9601 19
1 9602 20
1 9603 4
1 9604 3
1 9605 44
1 9606 1
1 9607 36
1 9608 5
1 9609 11
1 9610 4
1 9611 12
1 9612 9
1 9613 4
1 9614 4
1 9615 25
1 9616 1
1 9617 12
1 9618 15
1 9619 4
1 9620 4
1 9621 27
1 9622 3
1 9623 3
1 9624 1
1 9625 27
1 9626 3
1 9627 2
1 9628 19
1 9629 6
1 9630 4
1 9631 17
1 9632 48
1 9633 1
1 9634 61
1 9635 10
1 9636 5
1 9637 2
1 9638 5
1 9639 26
1 9640 5
1 9641 9
1 9642 27
1 9643 7
1 9644 2
1 9645 33
1 9646 6
1 9647 1
1 9648 27
1 9649 5
1 9650 3
1 9651 7
1 9652 46
1 9653 6
1 9655 8
1 9656 1
1 9657 2
1 9658 13
1 9659 7
1 9660 8
1 9661 5
1 9662 3
1 9664 8
1 9665 31
1 9666 3
1 9667 3
1 9668 27
1 9669 5
1 9670 6
1 9671 41
1 9672 6
1 9673 4
1 9674 2
1 9675 5
1 9676 2
1 9677 1
1 9678 3
1 9679 3
1 9680 49
1 9681 35
1 9682 3
1 9683 1
1 9684 3
1 9685 12
1 9686 6
1 9687 14
1 9688 16
1 9689 22
1 9690 35
1 9691 12
1 9692 22
1 9693 11
1 9694 4
1 9695 1
1 9696 2
1 9697 3
1 9698 13
1 9699 25
1 9700 9
1 9701 23
1 9702 19
1 9703 17
1 9704 52
1 9705 10
1 9706 20
1 9707 8
1 9708 2
1 9709 3
1 9710 6
1 9711 13
1 9712 1
1 9713 3
1 9714 1
1 9715 4
1 9716 36
1 9717 3
1 9718 6
1 9719 47
1 9720 3
1 9721 5
1 9722 15
1 9723 19
1 9724 2
1 9725 4
1 9726 6
1 9727 3
1 9728 12
1 9729 4
1 9730 24
1 9731 4
1 9732 4
1 9733 24
1 9734 1
1 9735 5
1 9736 68
1 9737 3
1 9738 14
1 9739 2
1 9740 15
1 9741 5
1 9742 3
1 9743 23
1 9744 3
1 9745 18
1 9746 3
1 9747 18
1 9748 4
1 9749 28
1 9750 2
1 9753 13
1 9754 10
1 9755 23
1 9756 3
1 9757 4
1 9758 4
1 9759 21
1 9760 6
1 9761 22
1 9762 4
1 9763 3
1 9764 4
1 9766 6
1 9767 379
1 9768 51
1 9769 7
1 9770 7
1 9771 5
1 9772 34
1 9773 2
1 9775 14
1 9776 5
1 9777 28
1 9778 4
1 9779 4
1 9780 9
1 9781 20
1 9782 17
1 9783 56
1 9784 24
1 9785 16
1 9786 68
1 9787 2
1 9788 29
1 9789 6
1 9790 3
1 9792 2
1 9793 22
1 9794 17
1 9795 34
1 9796 1
1 9797 5
1 9798 5
1 9800 22
1 9801 2
1 9802 785
1 9803 5
1 9804 36
1 9805 16
1 9806 41
1 9807 5
1 9808 42
1 9809 9
1 9810 4
1 9811 43
1 9813 36
1 9814 3
1 9815 10
1 9816 819
1 9817 57
1 9818 5
1 9819 24
1 9820 6
1 9821 15
1 9822 3
1 9823 5
1 9824 50
1 9825 4
1 9826 15
1 9827 15
1 9828 3
1 9829 8
1 9830 75
1 9831 1
1 9832 6
1 9833 32
1 9834 5
1 9835 917
1 9836 1
1 9837 4
1 9838 41
1 9839 22
1 9840 29
1 9841 37
1 9843 12
1 9844 22
1 9845 34
1 9846 1
1 9847 6
1 9848 12
1 9849 22
1 9850 5
1 9851 4
1 9852 12
1 9853 10
1 9854 3
1 9855 9
1 9856 8
1 9857 1
1 9858 13
1 9859 3
1 9860 62
1 9861 82
1 9862 1
1 9863 13
1 9864 25
1 9865 5
1 9866 3
1 9867 1
1 9868 2
1 9869 18
1 9870 13
1 9871 4
1 9872 27
1 9873 21
1 9874 2
1 9875 6
1 9876 13
1 9877 2
1 9878 1
1 9879 3
1 9880 4
1 9881 2
1 9882 7
1 9883 72
1 9884 13
1 9885 38
1 9886 3
1 9887 158
1 9888 9
1 9890 2
1 9892 56
1 9893 4
1 9894 10
1 9895 39
1 9896 2
1 9897 8
1 9898 19
1 9899 1
1 9900 64
1 9901 26
1 9902 32
1 9903 2
1 9905 26
1 9906 3
1 9907 3
1 9908 81
1 9909 2
1 9910 2
1 9911 2
1 9912 50
1 9913 1
1 9914 10
1 9915 21
1 9916 5
1 9917 37
1 9918 6
1 9919 2
1 9920 32
1 9921 1
1 9922 18
1 9923 3
1 9924 5
1 9925 4
1 9926 4
1 9927 30
1 9928 3
1 9929 3
1 9930 30
1 9931 12
1 9932 2
1 9934 3
1 9935 15
1 9936 4
1 9937 3
1 9938 3
1 9939 28
1 9940 6
1 9941 2
1 9942 23
1 9943 6
1 9944 9
1 9945 3
1 9946 2
1 9947 19
1 9948 3
1 9949 8
1 9950 78
1 9951 12
1 9952 7
1 9953 1
1 9954 7
1 9955 15
1 9956 53
1 9957 34
1 9958 40
1 9959 11
1 9960 7
1 9961 26
1 9962 12
1 9963 1
1 9964 2
1 9965 2
1 9966 2
1 9967 3
1 9968 1
1 9969 2
1 9970 23
1 9971 8
1 9972 3
1 9973 2
1 9974 2
1 9975 341
1 9976 55
1 9978 9
1 9979 29
1 9980 15
1 9981 3
1 9982 24
1 9984 21
1 9985 20
1 9986 14
1 9987 5
1 9988 18
1 9989 2
1 9990 16
1 9991 381
1 9992 21
1 9993 22
1 9995 16
1 9996 3
1 9997 24
1 9998 8
1 10000 14
1 10001 24
1 10002 35
1 10003 19
1 10004 63
1 10005 4
1 10006 12
1 10007 3
1 10008 2
1 10009 4
1 10010 4
1 10013 9
1 10014 8
1 10015 23
1 10016 6
1 10017 22
1 10018 8
1 10019 28
1 10020 34
1 10021 5
1 10022 800
1 10023 3
1 10024 11
1 10025 5
1 10026 4
1 10027 15
1 10028 7
1 10029 24
1 10030 627
1 10031 3
1 10032 6
1 10033 6
1 10034 1
1 10035 1
1 10036 1
1 10037 2
1 10038 35
1 10039 1
1 10040 1
1 10041 56
1 10042 36
1 10043 60
1 10044 2
1 10045 12
1 10046 22
1 10047 32
1 10048 5
1 10049 1
1 10050 64
1 10051 6
1 10052 3
1 10053 3
1 10054 31
1 10055 15
1 10056 971
1 10057 20
1 10058 36
1 10059 1
1 10060 1
1 10061 4
1 10062 117
1 10063 10
1 10064 2
1 10065 3
1 10066 1
1 10068 3
1 10069 45
1 10070 548
1 10071 2
1 10072 23
1 10073 2
1 10074 247
1 10075 5
1 10076 13
1 10077 16
1 10078 1
1 10079 5
1 10080 2
1 10081 3
1 10082 2
1 10083 37
1 10084 989
1 10085 2
1 10086 3
1 10087 31
1 10088 3
1 10089 57
1 10090 1
1 10091 4
1 10092 3
1 10093 625
1 10094 1
1 10095 2
1 10096 72
1 10097 1
1 10098 13
1 10099 1
1 10100 3
1 10101 21
1 10102 20
1 10103 2
1 10104 3
1 10105 2
1 10106 7
1 10107 4
1 10108 8
1 10110 11
1 10111 10
1 10112 2
1 10113 8
1 10114 29
1 10115 3
1 10116 238
1 10117 7
1 10118 2
1 10119 3
1 10120 21
1 10121 8
1 10122 23
1 10123 2
1 10124 5
1 10125 4
1 10126 19
1 10127 3
1 10128 3
1 10129 2
1 10131 3
1 10132 30
1 10133 3
1 10134 3
1 10135 11
1 10136 2
1 10137 5
1 10138 3
1 10139 5
1 10140 2
1 10141 34
1 10142 3
1 10143 22
1 10144 26
1 10146 2
1 10147 3
1 10148 4
1 10150 36
1 10151 2
1 10152 4
1 10153 30
1 10154 38
1 10155 2
1 10156 5
1 10157 4
1 10158 25
1 10160 28
1 10161 8
1 10162 2
1 10163 2
1 10164 15
1 10165 5
1 10166 11
1 10167 19
1 10169 2
1 10170 27
1 10171 2
1 10172 3
1 10173 5
1 10174 3
1 10175 14
1 10176 35
1 10177 12
1 10178 2
1 10179 4
1 10180 4
1 10181 10
1 10182 7
1 10183 2
1 10184 3
1 10185 4
1 10186 4
1 10187 14
1 10188 21
1 10189 3
1 10190 19
1 10191 49
1 10192 4
1 10193 28
1 10194 38
1 10195 1
1 10196 20
1 10197 3
1 10198 5
1 10199 28
1 10200 583
1 10201 4
1 10202 4
1 10203 9
1 10205 5
1 10206 26
1 10207 7
1 10208 1
1 10209 3
1 10210 2
1 10211 25
1 10212 20
1 10213 9
1 10214 3
1 10215 1
1 10216 2
1 10217 1
1 10218 3
1 10219 17
1 10220 4
1 10221 2
1 10222 4
1 10223 21
1 10224 4
1 10225 4
1 10226 2
1 10227 3
1 10228 1
1 10229 3
1 10230 3
1 10231 7
1 10232 2
1 10233 4
1 10234 23
1 10235 10
1 10236 6
1 10237 9
1 10238 15
1 10239 3
1 10240 16
1 10242 12
1 10243 404
1 10244 3
1 10245 34
1 10246 12
1 10247 6
1 10248 37
1 10249 3
1 10250 2
1 10251 27
1 10252 18
1 10253 19
1 10254 8
1 10255 329
1 10256 5
1 10257 3
1 10258 5
1 10259 3
1 10260 3
1 10261 5
1 10262 16
1 10263 126
1 10264 808
1 10265 6
1 10266 5
1 10267 2
1 10268 3
1 10269 522
1 10270 17
1 10271 30
1 10272 1022
1 10273 12
1 10274 1
1 10275 7
1 10276 17
1 10277 2
1 10278 1
1 10279 6
1 10280 8
1 10282 5
1 10283 58
1 10284 48
1 10285 5
1 10286 2
1 10287 10
1 10288 3
1 10289 3
1 10290 3
1 10291 6
1 10292 4
1 10293 16
1 10294 17
1 10295 27
1 10296 4
1 10297 42
1 10298 29
1 10299 8
1 10300 2
1 10301 5
1 10302 4
1 10303 6
1 10305 21
1 10306 5
1 10307 21
1 10308 3
1 10309 4
1 10311 20
1 10312 9
1 10313 2
1 10314 3
1 10315 24
1 10316 4
1 10317 1
1 10318 3
1 10319 2
1 10321 21
1 10322 6
1 10323 3
1 10324 5
1 10325 37
1 10326 4
1 10327 11
1 10328 540
1 10329 46
1 10330 15
1 10331 1
1 10332 21
1 10333 6
1 10334 21
1 10335 2
1 10336 26
1 10337 1
1 10338 1
1 10339 4
1 10340 1
1 10341 2
1 10342 1
1 10343 2
1 10344 15
1 10345 5
1 10346 3
1 10347 16
1 10348 4
1 10349 13
1 10350 146
1 10351 15
1 10352 3
1 10353 15
1 10354 8
1 10355 13
1 10356 2
1 10357 9
1 10358 1
1 10359 1
1 10360 3
1 10362 4
1 10363 19
1 10364 6
1 10365 1
1 10366 11
1 10367 4
1 10368 3
1 10369 3
1 10370 8
1 10371 3
1 10372 11
1 10373 1
1 10374 9
1 10375 18
1 10376 7
1 10377 2
1 10378 1
1 10380 11
1 10381 15
1 10382 34
1 10383 2
1 10384 16
1 10385 4
1 10386 6
1 10387 27
1 10388 1
1 10389 1
1 10390 21
1 10391 10
1 10392 17
1 10393 6
1 10394 9
1 10395 14
1 10396 4
1 10397 41
1 10398 15
1 10399 5
1 10400 3
1 10401 5
1 10402 1
1 10403 1
1 10404 461
1 10405 5
1 10406 5
1 10407 474
1 10408 13
1 10409 29
1 10410 4
1 10411 131
1 10412 4
1 10413 6
1 10414 3
1 10415 23
1 10416 2
1 10417 32
1 10418 4
1 10419 23
1 10420 16
1 10421 6
1 10422 10
1 10423 9
1 10424 23
1 10425 31
1 10426 6
1 10427 4
1 10428 24
1 10429 30
1 10430 2
1 10431 2
1 10432 4
1 10433 20
1 10434 2
1 10435 4
1 10436 18
1 10437 31
1 10438 18
1 10439 16
1 10440 3
1 10441 1
1 10442 2
1 10443 14
1 10444 3
1 10445 4
1 10446 5
1 10447 11
1 10448 4
1 10449 2
1 10450 17
1 10451 6
1 10452 25
1 10453 3
1 10454 18
1 10455 4
1 10456 2
1 10457 2
1 10458 9
1 10459 31
1 10460 3
1 10461 11
1 10462 2
1 10463 2
1 10464 2
1 10465 17
1 10466 5
1 10467 4
1 10468 22
1 10469 24
1 10470 5
1 10471 36
1 10472 3
1 10473 6
1 10474 15
1 10475 1
1 10476 4
1 10477 39
1 10478 5
1 10479 45
1 10480 24
1 10481 23
1 10482 38
1 10483 47
1 10484 30
1 10485 13
1 10486 22
1 10487 13
1 10488 4
1 10489 30
1 10490 2
1 10491 3
1 10492 32
1 10493 1
1 10494 4
1 10495 5
1 10496 5
1 10497 16
1 10498 6
1 10499 4
1 10500 12
1 10501 2
1 10502 347
1 10503 3
1 10504 3
1 10505 14
1 10506 23
1 10507 13
1 10508 2
1 10509 5
1 10510 3
1 10511 6
1 10512 4
1 10513 506
1 10514 2
1 10515 4
1 10516 4
1 10517 1
1 10518 4
1 10519 5
1 10520 24
1 10521 30
1 10522 3
1 10523 13
1 10524 18
1 10525 626
1 10526 2
1 10527 6
1 10528 10
1 10530 5
1 10531 25
1 10532 29
1 10533 5
1 10535 8
1 10536 3
1 10537 1
1 10538 4
1 10539 4
1 10540 2
1 10541 2
1 10542 1
1 10543 2
1 10545 8
1 10546 1
1 10547 645
1 10548 38
1 10549 12
1 10550 1
1 10551 6
1 10552 21
1 10553 19
1 10554 37
1 10555 12
1 10556 32
1 10557 23
1 10558 2
1 10559 1
1 10560 1
1 10561 31
1 10562 11
1 10563 24
1 10564 64
1 10565 3
1 10566 7
1 10567 35
1 10568 2
1 10569 5
1 10570 5
1 10571 20
1 10572 26
1 10573 5
1 10574 1
1 10575 6
1 10576 7
1 10577 2
1 10578 1
1 10579 33
1 10580 28
1 10581 2
1 10582 19
1 10583 1
1 10584 16
1 10585 9
1 10586 2
1 10587 21
1 10588 36
1 10589 2
1 10590 7
1 10591 6
1 10592 24
1 10593 5
1 10594 2
1 10595 25
1 10596 26
1 10597 3
1 10598 3
1 10599 2
1 10600 3
1 10601 13
1 10602 4
1 10603 44
1 10604 22
1 10605 130
1 10606 45
1 10607 17
1 10608 1
1 10609 15
1 10610 3
1 10611 1
1 10612 5
1 10613 16
1 10614 5
1 10615 2
1 10616 5
1 10617 2
1 10619 31
1 10621 20
1 10622 5
1 10623 3
1 10624 10
1 10625 5
1 10626 1
1 10627 11
1 10628 2
1 10629 1
1 10630 2
1 10631 61
1 10632 4
1 10633 155
1 10634 29
1 10635 11
1 10636 5
1 10637 507
1 10638 11
1 10639 25
1 10640 22
1 10641 4
1 10642 6
1 10643 3
1 10644 14
1 10645 15
1 10646 4
1 10647 2
1 10648 14
1 10649 3
1 10650 14
1 10651 14
1 10652 4
1 10653 3
1 10654 3
1 10655 21
1 10656 4
1 10657 41
1 10658 4
1 10659 1208
1 10660 4
1 10661 12
1 10662 14
1 10663 24
1 10664 11
1 10665 25
1 10666 3
1 10667 20
1 10668 1
1 10669 10
1 10670 2
1 10671 4
1 10672 3
1 10673 5
1 10674 1
1 10675 1151
1 10676 31
1 10677 11
1 10678 13
1 10679 2
1 10680 284
1 10681 3
1 10682 5
1 10683 7
1 10684 27
1 10685 1
1 10686 7
1 10687 101
1 10688 1
1 10689 4
1 10690 3
1 10691 3
1 10692 12
1 10693 3
1 10694 22
1 10695 8
1 10696 18
1 10697 5
1 10698 27
1 10699 56
1 10700 72
1 10701 21
1 10702 7
1 10704 4
1 10705 8
1 10706 4
1 10707 12
1 10708 44
1 10709 2
1 10711 19
1 10712 12
1 10713 1
1 10714 23
1 10715 42
1 10716 2
1 10717 193
1 10718 2
1 10719 24
1 10720 3
1 10721 1090
1 10722 44
1 10723 17
1 10724 3
1 10725 1251
1 10726 1190
1 10727 1
1 10728 23
1 10729 7
1 10730 3
1 10732 14
1 10733 2
1 10734 3
1 10735 2
1 10736 2
1 10737 6
1 10738 27
1 10739 11
1 10740 13
1 10741 3
1 10742 4
1 10743 31
1 10744 23
1 10745 2
1 10746 38
1 10747 33
1 10748 15
1 10749 3
1 10750 808
1 10751 26
1 10752 6
1 10753 3
1 10754 5
1 10755 6
1 10756 14
1 10757 7
1 10758 2
1 10759 16
1 10760 46
1 10761 29
1 10763 28
1 10764 1043
1 10765 11
1 10767 41
1 10768 3
1 10769 15
1 10770 33
1 10771 73
1 10772 5
1 10773 15
1 10774 23
1 10775 3
1 10776 8
1 10777 3
1 10778 4
1 10779 1223
1 10780 36
1 10781 2
1 10782 33
1 10783 4
1 10784 27
1 10785 9
1 10787 35
1 10788 4
1 10789 16
1 10790 24
1 10791 29
1 10792 4
1 10793 5
1 10794 33
1 10795 1
1 10796 26
1 10797 1
1 10798 2
1 10799 1
1 10800 9
1 10801 12
1 10802 24
1 10803 4
1 10804 16
1 10805 45
1 10806 30
1 10807 2
1 10808 89
1 10809 6
1 10810 5
1 10812 4
1 10813 2
1 10814 2
1 10815 3
1 10816 2
1 10817 5
1 10818 10
1 10819 69
1 10820 9
1 10821 4
1 10822 27
1 10823 9
1 10824 44
1 10825 45
1 10826 2
1 10827 6
1 10828 1
1 10829 977
1 10830 15
1 10831 17
1 10832 1
1 10833 18
1 10834 3
1 10835 43
1 10836 11
1 10837 19
1 10838 13
1 10839 40
1 10841 9
1 10842 24
1 10843 54
1 10844 3
1 10845 6
1 10846 3
1 10847 17
1 10848 13
1 10849 3
1 10850 9
1 10851 4
1 10852 7
1 10853 9
1 10855 27
1 10856 5
1 10857 22
1 10858 3
1 10859 38
1 10860 31
1 10861 11
1 10862 5
1 10863 934
1 10864 21
1 10865 11
1 10866 19
1 10867 13
1 10868 4
1 10869 29
1 10870 18
1 10871 17
1 10872 2
1 10873 14
1 10874 1
1 10875 2
1 10876 2
1 10877 1088
1 10878 29
1 10879 1
1 10880 21
1 10881 14
1 10882 7
1 10883 14
1 10884 5
1 10885 15
1 10886 6
1 10887 5
1 10889 4
1 10890 2
1 10891 2
1 10892 111
1 10893 2
1 10894 7
1 10895 32
1 10896 39
1 10897 6
1 10898 19
1 10899 32
1 10900 11
1 10901 8
1 10902 28
1 10903 1
1 10904 4
1 10905 6
1 10906 3
1 10907 1
1 10909 2
1 10911 27
1 10912 4
1 10913 6
1 10914 7
1 10915 63
1 10916 16
1 10917 2
1 10918 2
1 10919 2
1 10920 27
1 10921 6
1 10922 29
1 10923 49
1 10924 24
1 10926 2
1 10927 3
1 10928 12
1 10929 26
1 10930 61
1 10931 10
1 10932 7
1 10933 3
1 10934 1
1 10935 5
1 10936 1
1 10937 8
1 10938 53
1 10939 7
1 10940 3
1 10941 11
1 10942 1
1 10943 9
1 10944 6
1 10946 20
1 10947 2
1 10948 20
1 10949 3
1 10950 32
1 10951 1
1 10953 2
1 10954 2
1 10955 4
1 10956 55
1 10957 10
1 10958 7
1 10959 6
1 10960 1
1 10961 4
1 10962 1
1 10963 4
1 10964 3
1 10965 38
1 10966 23
1 10967 26
1 10968 4
1 10969 13
1 10970 6
1 10971 26
1 10972 4
1 10973 11
1 10974 28
1 10975 5
1 10976 15
1 10977 34
1 10978 1
1 10979 26
1 10980 4
1 10981 2
1 10982 578
1 10983 13
1 10984 43
1 10985 2
1 10986 38
1 10987 36
1 10988 1
1 10989 19
1 10990 18
1 10991 10
1 10992 2
1 10993 13
1 10994 3
1 10995 7
1 10996 19
1 10997 9
1 10998 2
1 10999 2
1 11000 3
1 11001 14
1 11002 3
1 11003 10
1 11004 15
1 11005 3
1 11006 3
1 11007 3
1 11008 5
1 11009 32
1 11010 4
1 11011 3
1 11012 4
1 11013 9
1 11014 52
1 11015 14
1 11016 3
1 11017 62
1 11018 2
1 11019 133
1 11020 25
1 11021 55
1 11022 30
1 11023 5
1 11024 1
1 11025 33
1 11026 3
1 11027 19
1 11028 2
1 11029 1016
1 11030 5
1 11031 3
1 11032 16
1 11033 3
1 11034 20
1 11035 10
1 11036 30
1 11037 2
1 11039 27
1 11040 46
1 11041 20
1 11042 25
1 11043 5
1 11044 11
1 11045 14
1 11046 14
1 11047 20
1 11048 19
1 11049 6
1 11050 5
1 11051 4
1 11052 2
1 11053 36
1 11054 3
1 11055 14
1 11056 2
1 11057 4
1 11058 31
1 11059 42
1 11060 8
1 11061 8
1 11062 31
1 11063 15
1 11064 596
1 11065 3
1 11066 4
1 11067 13
1 11068 28
1 11069 4
1 11070 5
1 11071 35
1 11072 7
1 11073 39
1 11074 5
1 11075 21
1 11076 20
1 11077 1
1 11078 7
1 11079 4
1 11080 3
1 11081 4
1 11082 5
1 11083 19
1 11084 10
1 11085 2
1 11086 2
1 11087 17
1 11088 3
1 11089 3
1 11090 52
1 11091 23
1 11092 38
1 11093 1
1 11094 18
1 11095 1
1 11096 2
1 11097 27
1 11098 4
1 11099 7
1 11100 16
1 11101 11
1 11102 5
1 11103 37
1 11104 6
1 11105 16
1 11106 13
1 11107 10
1 11108 1
1 11109 1
1 11110 16
1 11111 39
1 11112 43
1 11113 22
1 11114 4
1 11115 28
1 11116 32
1 11117 26
1 11118 10
1 11119 1
1 11120 1175
1 11121 4
1 11123 40
1 11124 5
1 11125 5
1 11126 7
1 11127 3
1 11128 14
1 11129 16
1 11130 5
1 11131 64
1 11132 6
1 11133 9
1 11134 5
1 11135 16
1 11136 30
1 11137 4
1 11138 3
1 11139 2
1 11140 22
1 11141 12
1 11142 13
1 11143 7
1 11144 3
1 11145 3
1 11146 2
1 11147 4
1 11148 41
1 11149 52
1 11150 74
1 11151 33
1 11152 1
1 11153 12
1 11154 4
1 11155 2
1 11156 1134
1 11157 2
1 11158 4
1 11159 21
1 11160 10
1 11161 79
1 11162 2
1 11163 6
1 11164 25
1 11165 3
1 11166 25
1 11167 10
1 11168 20
1 11169 3
1 11170 6
1 11171 20
1 11172 44
1 11173 7
1 11174 3
1 11175 19
1 11176 7
1 11177 35
1 11178 42
1 11179 65
1 11180 7
1 11181 32
1 11182 2
1 11183 4
1 11184 3
1 11185 2
1 11186 1
1 11187 14
1 11188 24
1 11189 3
1 11190 23
1 11191 156
1 11193 1
1 11194 13
1 11195 1
1 11196 1
1 11197 12
1 11198 30
1 11199 6
1 11200 11
1 11201 3
1 11202 2
1 11203 432
1 11204 20
1 11205 4
1 11206 44
1 11207 30
1 11208 45
1 11209 4
1 11210 1
1 11211 6
1 11212 5
1 11213 1
1 11214 36
1 11215 6
1 11216 7
1 11217 14
1 11218 2
1 11219 22
1 11220 1
1 11221 5
1 11222 17
1 11223 914
1 11224 53
1 11225 5
1 11226 7
1 11227 15
1 11228 2
1 11229 3
1 11230 10
1 11231 18
1 11232 16
1 11233 1
1 11234 2
1 11235 2
1 11236 2
1 11237 70
1 11238 33
1 11239 1
1 11240 35
1 11242 4
1 11243 15
1 11244 5
1 11245 11
1 11246 3
1 11247 5
1 11248 1
1 11249 4
1 11250 4
1 11251 1
1 11252 1213
1 11254 17
1 11255 147
1 11256 14
1 11257 4
1 11258 2
1 11259 8
1 11261 11
1 11262 15
1 11263 24
1 11264 4
1 11265 15
1 11266 31
1 11267 63
1 11268 16
1 11269 59
1 11270 5
1 11271 5
1 11272 1
1 11273 8
1 11274 3
1 11275 3
1 11276 44
1 11277 2
1 11278 4
1 11279 8
1 11280 2
1 11281 6
1 11282 7
1 11283 2
1 11284 45
1 11285 31
1 11286 1
1 11287 2
1 11288 29
1 11289 10
1 11290 5
1 11291 17
1 11292 3
1 11293 123
1 11294 177
1 11295 3
1 11296 5
1 11298 5
1 11299 52
1 11300 10
1 11301 35
1 11302 2
1 11303 2
1 11304 62
1 11305 14
1 11306 15
1 11307 8
1 11308 1
1 11309 45
1 11310 5
1 11311 6
1 11312 112
1 11313 3
1 11314 11
1 11315 4
1 11316 1
1 11317 5
1 11318 1
1 11319 31
1 11320 36
1 11321 3
1 11322 2
1 11323 56
1 11324 3
1 11325 14
1 11326 3
1 11327 19
1 11328 49
1 11329 38
1 11330 26
1 11331 1
1 11332 1
1 11333 3
1 11334 17
1 11335 35
1 11336 27
1 11337 5
1 11338 1
1 11339 3
1 11340 34
1 11341 11
1 11342 1
1 11343 7
1 11344 8
1 11345 22
1 11346 4
1 11347 2
1 11348 16
1 11349 56
1 11350 51
1 11351 3
1 11352 2
1 11353 8
1 11354 21
1 11356 47
1 11357 1
1 11358 2
1 11359 4
1 11360 17
1 11361 3
1 11362 189
1 11363 2
1 11364 31
1 11365 4
1 11366 19
1 11367 1
1 11368 7
1 11369 7
1 11370 12
1 11371 2
1 11372 3
1 11373 25
1 11374 34
1 11375 28
1 11376 2
1 11377 21
1 11378 13
1 11379 12
1 11380 3
1 11381 19
1 11382 16
1 11383 3
1 11384 1
1 11385 7
1 11386 9
1 11387 23
1 11388 27
1 11389 15
1 11390 15
1 11391 24
1 11392 43
1 11393 980
1 11394 4
1 11395 3
1 11396 2
1 11397 7
1 11398 788
1 11400 15
1 11401 40
1 11402 25
1 11403 19
1 11404 18
1 11405 5
1 11406 2
1 11407 11
1 11408 35
1 11409 3
1 11410 3
1 11411 60
1 11412 4
1 11413 7
1 11414 24
1 11415 1
1 11416 7
1 11417 4
1 11418 39
1 11419 1
1 11420 2
1 11421 6
1 11422 27
1 11423 5
1 11424 1
1 11425 2
1 11426 2
1 11427 16
1 11428 4
1 11429 5
1 11430 9
1 11431 4
1 11432 2
1 11433 4
1 11434 9
1 11435 3
1 11436 19
1 11437 22
1 11438 9
1 11439 1
1 11440 1
1 11441 1
1 11442 20
1 11443 3
1 11444 22
1 11445 3
1 11446 1
1 11447 2
1 11448 2
1 11449 27
1 11450 4
1 11451 12
1 11452 9
1 11453 24
1 11454 82
1 11456 8
1 11457 4
1 11458 10
1 11459 24
1 11460 3
1 11461 3
1 11462 45
1 11463 58
1 11464 11
1 11465 2
1 11466 1
1 11467 1
1 11468 1
1 11469 48
1 11470 1
1 11471 3
1 11472 1
1 11473 3
1 11474 23
1 11475 2
1 11476 3
1 11477 1
1 11478 4
1 11479 1
1 11480 51
1 11481 5
1 11482 4
1 11483 4
1 11484 1
1 11485 1
1 11486 10
1 11487 4
1 11488 14
1 11489 16
1 11490 1
1 11491 21
1 11492 1
1 11493 4
1 11494 2
1 11495 4
1 11496 25
1 11497 8
1 11498 4
1 11499 22
1 11500 50
1 11501 13
1 11502 25
1 11503 20
1 11504 2
1 11505 36
1 11506 35
1 11507 43
1 11508 3
1 11509 2
1 11510 20
1 11511 34
1 11512 20
1 11513 6
1 11514 22
1 11515 3
1 11516 4
1 11517 24
1 11518 11
1 11519 30
1 11520 12
1 11521 9
1 11522 6
1 11523 3
1 11524 3
1 11525 15
1 11526 1
1 11527 14
1 11528 16
1 11529 11
1 11530 49
1 11531 15
1 11532 4
1 11533 15
1 11534 20
1 11535 4
1 11536 7
1 11537 8
1 11538 31
1 11539 24
1 11540 7
1 11542 908
1 11543 1
1 11544 4
1 11546 5
1 11547 4
1 11548 16
1 11549 11
1 11550 10
1 11551 30
1 11552 15
1 11553 4
1 11554 26
1 11555 22
1 11556 68
1 11557 4
1 11558 26
1 11559 17
1 11560 6
1 11561 1
1 11562 24
1 11563 2
1 11564 875
1 11565 26
1 11566 3
1 11567 4
1 11568 20
1 11569 4
1 11570 9
1 11572 8
1 11573 13
1 11574 16
1 11575 2
1 11576 2
1 11577 27
1 11578 3
1 11579 12
1 11580 15
1 11581 7
1 11582 2
1 11583 4
1 11584 15
1 11585 3
1 11586 2
1 11587 1
1 11588 21
1 11589 2
1 11590 6
1 11591 3
1 11592 3
1 11593 24
1 11594 13
1 11595 2
1 11596 2
1 11597 3
1 11598 306
1 11599 2
1 11600 13
1 11601 36
1 11602 1
1 11603 7
1 11604 5
1 11605 38
1 11606 3
1 11607 4
1 11608 52
1 11609 9
1 11610 17
1 11611 5
1 11612 3
1 11613 21
1 11614 2
1 11615 1
1 11616 3
1 11617 339
1 11618 2
1 11619 22
1 11620 5
1 11621 2
1 11622 7
1 11623 2
1 11624 12
1 11625 2
1 11626 29
1 11627 3
1 11628 13
1 11629 20
1 11630 3
1 11631 49
1 11632 24
1 11633 167
1 11634 45
1 11635 3
1 11636 466
1 11637 3
1 11638 12
1 11639 51
1 11641 3
1 11642 3
1 11643 1
1 11644 13
1 11645 23
1 11646 16
1 11647 2
1 11648 27
1 11649 10
1 11650 5
1 11651 4
1 11652 2
1 11653 4
1 11654 4
1 11655 3
1 11656 5
1 11657 4
1 11658 8
1 11659 3
1 11660 6
1 11661 2
1 11662 6
1 11663 20
1 11664 27
1 11665 21
1 11666 3
1 11667 107
1 11668 22
1 11669 37
1 11670 33
1 11671 5
1 11672 44
1 11673 2
1 11674 71
1 11675 3
1 11676 33
1 11677 27
1 11678 5
1 11681 40
1 11682 6
1 11683 8
1 11684 4
1 11685 5
1 11686 2
1 11687 17
1 11688 2
1 11689 7
1 11690 5
1 11691 2
1 11692 1
1 11693 2
1 11694 2
1 11695 2
1 11696 47
1 11697 2
1 11698 7
1 11699 4
1 11700 24
1 11701 3
1 11703 10
1 11704 8
1 11705 2
1 11706 6
1 11707 5
1 11708 2
1 11709 3
1 11710 14
1 11711 27
1 11712 53
1 11713 7
1 11714 4
1 11715 6
1 11716 2
1 11717 6
1 11718 2
1 11719 4
1 11720 18
1 11721 49
1 11722 5
1 11723 12
1 11724 11
1 11725 8
1 11726 6
1 11727 4
1 11728 5
1 11729 586
1 11730 1
1 11731 3
1 11732 2
1 11733 40
1 11734 15
1 11735 6
1 11736 2
1 11737 1
1 11738 231
1 11739 35
1 11740 3
1 11741 14
1 11742 2
1 11743 3
1 11744 2
1 11746 1
1 11747 18
1 11748 28
1 11749 9
1 11750 5
1 11751 3
1 11752 3
1 11753 4
1 11754 3
1 11755 20
1 11756 19
1 11757 6
1 11758 2
1 11759 5
1 11761 27
1 11762 6
1 11763 4
1 11764 2
1 11765 2
1 11766 8
1 11767 6
1 11768 3
1 11769 5
1 11770 16
1 11771 17
1 11772 6
1 11774 49
1 11775 2
1 11776 4
1 11777 11
1 11778 2
1 11779 28
1 11780 75
1 11781 2
1 11782 5
1 11784 12
1 11785 46
1 11786 25
1 11787 3
1 11788 29
1 11789 3
1 11790 22
1 11791 35
1 11792 2
1 11793 6
1 11794 3
1 11795 16
1 11796 1
1 11797 3
1 11798 2
1 11799 5
1 11800 46
1 11801 1
1 11802 3
1 11803 2
1 11804 2
1 11805 1
1 11806 2
1 11807 1
1 11808 48
1 11809 2
1 11810 2
1 11811 3
1 11812 20
1 11813 8
1 11814 3
1 11815 14
1 11816 21
1 11817 13
1 11818 3
1 11819 1
1 11820 13
1 11821 12
1 11822 39
1 11823 3
1 11824 2
1 11825 41
1 11826 13
1 11827 4
1 11828 35
1 11829 12
1 11830 24
1 11831 1
1 11832 5
1 11833 26
1 11834 28
1 11835 1
1 11836 7
1 11837 941
1 11838 3
1 11839 31
1 11840 49
1 11841 20
1 11842 5
1 11843 3
1 11844 4
1 11845 11
1 11846 1
1 11847 5
1 11848 9
1 11849 3
1 11851 23
1 11852 3
1 11853 23
1 11854 2
1 11855 2
1 11856 20
1 11857 216
1 11858 38
1 11860 4
1 11861 4
1 11862 1
1 11863 5
1 11864 3
1 11866 4
1 11867 7
1 11868 5
1 11869 1
1 11870 2
1 11871 4
1 11872 18
1 11873 17
1 11874 2
1 11875 2
1 11876 24
1 11877 2
1 11878 5
1 11879 2
1 11880 30
1 11881 19
1 11882 60
1 11883 13
1 11884 3
1 11885 3
1 11886 33
1 11887 4
1 11888 20
1 11889 4
1 11890 1
1 11891 167
1 11892 4
1 11893 1
1 11894 3
1 11895 12
1 11896 7
1 11897 11
1 11898 4
1 11899 26
1 11900 19
1 11901 17
1 11902 22
1 11903 410
1 11904 12
1 11905 1052
1 11906 4
1 11907 2
1 11908 4
1 11909 2
1 11910 4
1 11911 2
1 11912 43
1 11913 41
1 11914 11
1 11915 3
1 11916 36
1 11917 2
1 11918 24
1 11919 4
1 11920 5
1 11921 40
1 11922 1
1 11923 20
1 11924 2
1 11925 2
1 11926 3
1 11927 3
1 11928 1
1 11929 17
1 11930 3
1 11931 298
1 11932 7
1 11933 8
1 11934 1
1 11935 33
1 11936 32
1 11938 63
1 11939 6
1 11940 6
1 11941 1
1 11942 2
1 11943 16
1 11944 7
1 11945 1
1 11946 20
1 11947 35
1 11948 2
1 11949 5
1 11950 3
1 11951 2
1 11952 2
1 11953 9
1 11954 3
1 11955 1
1 11956 19
1 11957 5
1 11958 1
1 11959 32
1 11960 3
1 11961 9
1 11962 47
1 11963 2
1 11964 2
1 11965 55
1 11966 58
1 11967 26
1 11968 47
1 11969 3
1 11970 17
1 11971 623
1 11972 4
1 11973 52
1 11974 2
1 11975 6
1 11976 10
1 11977 14
1 11978 1
1 11979 3
1 11980 5
1 11981 676
1 11982 9
1 11983 32
1 11984 4
1 11985 9
1 11986 15
1 11987 5
1 11988 40
1 11989 24
1 11990 16
1 11991 5
1 11992 24
1 11993 14
1 11994 9
1 11995 14
1 11996 83
1 11997 5
1 11998 7
1 11999 29
1 12000 4
1 12001 21
1 12002 31
1 12003 9
1 12004 4
1 12005 1
1 12006 1
1 12007 9
1 12008 34
1 12009 1
1 12010 5
1 12011 63
1 12012 1
1 12013 4
1 12014 1
1 12015 3
1 12016 3
1 12017 3
1 12018 2
1 12019 1
1 12020 2
1 12021 9
1 12022 1
1 12023 4
1 12025 47
1 12026 4
1 12027 29
1 12028 3
1 12029 25
1 12030 7
1 12031 4
1 12032 3
1 12033 18
1 12034 1119
1 12035 14
1 12036 26
1 12037 4
1 12038 25
1 12039 23
1 12040 10
1 12041 21
1 12042 2
1 12043 25
1 12044 1
1 12045 13
1 12046 3
1 12047 13
1 12048 15
1 12049 3
1 12050 15
1 12051 1
1 12052 5
1 12053 9
1 12054 2
1 12055 13
1 12056 3
1 12057 1
1 12059 4
1 12060 1
1 12061 3
1 12062 13
1 12063 14
1 12064 3
1 12066 1
1 12067 1159
1 12068 2
1 12069 2
1 12070 4
1 12071 36
1 12072 4
1 12073 3
1 12074 34
1 12075 6
1 12076 22
1 12077 5
1 12078 2
1 12079 5
1 12080 8
1 12081 3
1 12082 1
1 12083 7
1 12084 1
1 12085 4
1 12086 6
1 12087 3
1 12088 51
1 12089 95
1 12090 3
1 12091 17
1 12092 23
1 12093 3
1 12094 5
1 12095 4
1 12096 5
1 12097 3
1 12098 3
1 12099 24
1 12100 2
1 12101 12
1 12102 10
1 12103 33
1 12104 2
1 12105 13
1 12106 18
1 12107 2
1 12108 4
1 12109 19
1 12110 1
1 12111 4
1 12112 1
1 12113 3
1 12114 4
1 12115 5
1 12116 39
1 12117 6
1 12118 3
1 12119 14
1 12120 6
1 12121 685
1 12122 3
1 12123 7
1 12124 23
1 12125 5
1 12126 4
1 12127 4
1 12128 21
1 12129 69
1 12130 1
1 12131 11
1 12132 2
1 12133 31
1 12134 18
1 12135 3
1 12136 32
1 12137 18
1 12138 4
1 12139 32
1 12140 4
1 12141 4
1 12142 4
1 12143 61
1 12144 41
1 12145 3
1 12146 7
1 12147 10
1 12148 15
1 12149 3
1 12150 33
1 12151 1
1 12152 3
1 12153 5
1 12154 5
1 12155 4
1 12156 35
1 12157 26
1 12158 21
1 12159 26
1 12160 26
1 12161 3
1 12162 44
1 12163 18
1 12164 48
1 12165 4
1 12166 965
1 12167 20
1 12168 5
1 12169 2
1 12170 17
1 12171 34
1 12172 3
1 12173 19
1 12174 21
1 12175 16
1 12176 53
1 12177 25
1 12179 9
1 12180 182
1 12181 6
1 12182 27
1 12183 12
1 12184 2
1 12185 1
1 12186 1
1 12187 44
1 12188 2
1 12189 7
1 12190 19
1 12191 3
1 12192 73
1 12193 1
1 12194 14
1 12195 28
1 12196 1137
1 12197 958
1 12198 52
1 12199 2
1 12200 11
1 12201 3
1 12202 43
1 12203 2
1 12204 26
1 12205 10
1 12207 1
1 12208 10
1 12209 5
1 12210 4
1 12211 68
1 12212 6
1 12213 4
1 12214 10
1 12215 6
1 12216 13
1 12217 32
1 12218 2
1 12219 3
1 12220 11
1 12221 42
1 12222 7
1 12224 10
1 12225 4
1 12226 23
1 12227 7
1 12228 2
1 12229 2
1 12230 6
1 12231 3
1 12232 328
1 12233 54
1 12234 7
1 12235 14
1 12236 14
1 12237 26
1 12238 2
1 12239 3
1 12240 24
1 12241 47
1 12242 33
1 12243 5
1 12244 4
1 12245 1404
1 12246 27
1 12247 57
1 12248 3
1 12249 1
1 12250 3
1 12251 16
1 12252 6
1 12253 60
1 12254 2
1 12255 24
1 12256 20
1 12257 8
1 12258 4
1 12259 3
1 12260 22
1 12261 5
1 12262 7
1 12263 6
1 12264 19
1 12265 8
1 12266 5
1 12267 1
1 12268 2
1 12269 3
1 12270 29
1 12271 2
1 12272 77
1 12273 3
1 12274 3
1 12275 3
1 12276 4
1 12277 1090
1 12278 5
1 12279 12
1 12280 2
1 12281 4
1 12282 3
1 12283 18
1 12284 2
1 12285 2
1 12286 3
1 12287 3
1 12288 2
1 12289 23
1 12290 9
1 12291 4
1 12292 35
1 12293 37
1 12295 205
1 12296 3
1 12297 3
1 12298 3
1 12299 1
1 12300 12
1 12301 3
1 12302 4
1 12303 35
1 12304 2
1 12305 37
1 12306 33
1 12307 4
1 12309 5
1 12310 9
1 12311 78
1 12312 9
1 12313 3
1 12314 18
1 12315 11
1 12316 16
1 12317 39
1 12318 5
1 12319 4
1 12320 29
1 12321 10
1 12322 45
1 12323 25
1 12324 30
1 12325 3
1 12326 7
1 12327 55
1 12328 9
1 12329 6
1 12330 4
1 12331 22
1 12332 2
1 12333 38
1 12334 99
1 12335 1
1 12336 10
1 12337 2
1 12338 3
1 12339 12
1 12340 4
1 12341 3
1 12342 7
1 12343 5
1 12344 21
1 12346 3
1 12347 17
1 12348 2
1 12349 54
1 12350 3
1 12351 32
1 12352 1
1 12353 1
1 12354 4
1 12355 3
1 12356 5
1 12357 21
1 12358 1
1 12360 1
1 12361 2
1 12362 4
1 12363 39
1 12364 7
1 12365 3
1 12366 5
1 12368 2
1 12369 1
1 12370 16
1 12371 5
1 12372 5
1 12373 681
1 12374 5
1 12375 4
1 12376 4
1 12377 14
1 12378 10
1 12379 22
1 12380 28
1 12381 11
1 12382 9
1 12383 4
1 12384 12
1 12385 7
1 12386 2
1 12387 5
1 12388 1
1 12389 21
1 12390 12
1 12391 26
1 12392 3
1 12393 39
1 12394 71
1 12395 2
1 12396 945
1 12397 13
1 12398 19
1 12399 2
1 12400 6
1 12401 20
1 12402 48
1 12403 2
1 12404 3
1 12405 30
1 12406 1
1 12407 27
1 12408 2
1 12409 15
1 12410 20
1 12411 1
1 12412 10
1 12413 4
1 12414 10
1 12415 19
1 12416 7
1 12417 26
1 12418 8
1 12419 3
1 12420 2
1 12421 29
1 12422 3
1 12423 3
1 12424 3
1 12425 1
1 12426 20
1 12428 26
1 12429 2
1 12430 2
1 12431 14
1 12432 5
1 12433 6
1 12434 12
1 12435 3
1 12436 3
1 12437 9
1 12438 15
1 12440 7
1 12441 4
1 12442 1
1 12443 6
1 12444 19
1 12445 1
1 12447 4
1 12448 2
1 12449 3
1 12450 36
1 12451 23
1 12452 120
1 12453 3
1 12454 11
1 12455 23
1 12456 15
1 12457 7
1 12458 2
1 12459 3
1 12460 66
1 12461 3
1 12462 9
1 12463 9
1 12464 6
1 12465 2
1 12466 14
1 12467 1
1 12468 9
1 12469 2
1 12470 4
1 12471 2
1 12472 4
1 12473 2
1 12474 4
1 12475 8
1 12476 1
1 12477 5
1 12478 5
1 12479 4
1 12480 15
1 12481 25
1 12482 6
1 12483 4
1 12484 10
1 12485 13
1 12486 2
1 12487 1
1 12488 11
1 12489 1
1 12490 2
1 12491 26
1 12492 11
1 12493 3
1 12494 10
1 12495 28
1 12496 4
1 12497 3
1 12498 3
1 12499 4
1 12500 3
1 12501 21
1 12502 3
1 12503 7
1 12504 5
1 12505 4
1 12506 61
1 12507 16
1 12508 12
1 12509 4
1 12510 46
1 12511 11
1 12512 24
1 12513 8
1 12514 2
1 12515 1
1 12516 38
1 12517 2
1 12518 6
1 12519 17
1 12520 3
1 12521 60
1 12522 3
1 12523 18
1 12524 9
1 12525 317
1 12526 1
1 12527 14
1 12528 2
1 12529 28
1 12530 21
1 12531 31
1 12532 61
1 12533 3
1 12534 5
1 12535 2
1 12536 7
1 12537 4
1 12538 3
1 12539 3
1 12540 5
1 12541 10
1 12542 52
1 12543 11
1 12544 16
1 12545 8
1 12546 16
1 12547 9
1 12548 34
1 12549 321
1 12550 5
1 12551 21
1 12552 8
1 12553 5
1 12554 4
1 12555 50
1 12556 26
1 12557 2
1 12558 12
1 12559 25
1 12560 15
1 12561 3
1 12562 6
1 12563 1
1 12564 15
1 12565 8
1 12566 4
1 12568 7
1 12569 3
1 12570 2
1 12571 1
1 12572 2
1 12573 2
1 12574 4
1 12575 86
1 12576 90
1 12577 6
1 12578 5
1 12579 2
1 12580 13
1 12581 340
1 12582 43
1 12583 9
1 12584 46
1 12586 3
1 12587 99
1 12588 9
1 12589 17
1 12590 7
1 12591 4
1 12592 5
1 12593 18
1 12594 4
1 12595 24
1 12596 306
1 12597 2
1 12598 15
1 12599 22
1 12600 6
1 12601 46
1 12602 10
1 12603 3
1 12604 2
1 12605 1
1 12606 6
1 12607 1
1 12608 3
1 12609 5
1 12610 1
1 12611 12
1 12612 3
1 12613 18
1 12614 15
1 12615 29
1 12616 47
1 12617 4
1 12618 12
1 12619 2
1 12620 2
1 12621 9
1 12622 2
1 12623 27
1 12624 1
1 12625 4
1 12626 35
1 12627 5
1 12628 2
1 12629 1
1 12631 15
1 12632 2
1 12633 2
1 12634 16
1 12635 12
1 12636 7
1 12637 36
1 12638 26
1 12639 4
1 12640 4
1 12641 6
1 12642 50
1 12643 2
1 12644 29
1 12645 2
1 12646 3
1 12647 27
1 12648 52
1 12649 16
1 12650 4
1 12651 3
1 12652 15
1 12653 4
1 12654 57
1 12657 18
1 12658 18
1 12659 83
1 12660 4
1 12661 37
1 12662 12
1 12664 5
1 12665 10
1 12666 87
1 12667 1
1 12668 2
1 12669 7
1 12670 495
1 12671 2
1 12672 4
1 12673 17
1 12674 19
1 12675 3
1 12676 1
1 12677 2
1 12678 4
1 12679 1
1 12680 1
1 12681 4
1 12682 3
1 12683 1
1 12684 18
1 12685 11
1 12686 5
1 12687 1
1 12688 30
1 12689 1
1 12690 13
1 12691 36
1 12692 2
1 12693 7
1 12694 8
1 12695 13
1 12696 15
1 12697 4
1 12698 6
1 12699 20
1 12700 4
1 12701 16
1 12702 32
1 12703 11
1 12704 11
1 12705 3
1 12706 6
1 12707 11
1 12708 4
1 12709 7
1 12710 55
1 12711 15
1 12712 29
1 12713 5
1 12714 17
1 12715 5
1 12716 1
1 12717 1
1 12718 5
1 12719 3
1 12720 2
1 12721 2
1 12722 3
1 12723 2
1 12724 1
1 12725 6
1 12726 18
1 12727 3
1 12728 2
1 12729 23
1 12730 29
1 12731 11
1 12732 21
1 12733 7
1 12734 3
1 12736 25
1 12737 30
1 12738 4
1 12739 3
1 12740 8
1 12741 940
1 12742 16
1 12743 14
1 12744 4
1 12745 2
1 12746 16
1 12747 15
1 12749 8
1 12750 6
1 12751 1
1 12752 10
1 12753 3
1 12754 5
1 12755 28
1 12756 2
1 12757 2
1 12758 3
1 12759 22
1 12760 49
1 12761 26
1 12762 5
1 12763 3
1 12764 1
1 12765 2
1 12766 4
1 12767 7
1 12768 5
1 12769 6
1 12770 18
1 12771 22
1 12772 1
1 12773 31
1 12774 39
1 12775 30
1 12776 3
1 12777 16
1 12778 6
1 12779 2
1 12780 26
1 12781 1160
1 12783 46
1 12784 4
1 12785 15
1 12786 1
1 12787 11
1 12788 3
1 12789 3
1 12790 27
1 12791 2
1 12792 7
1 12793 6
1 12794 1
1 12795 4
1 12796 4
1 12797 17
1 12798 2
1 12799 2
1 12800 18
1 12801 5
1 12802 42
1 12803 10
1 12804 24
1 12805 15
1 12806 4
1 12807 4
1 12808 147
1 12809 12
1 12810 3
1 12811 41
1 12812 2
1 12813 3
1 12814 36
1 12815 12
1 12816 5
1 12817 6
1 12818 2
1 12819 262
1 12820 1
1 12821 34
1 12822 58
1 12823 14
1 12824 2
1 12825 3
1 12826 9
1 12827 23
1 12828 40
1 12829 6
1 12830 804
1 12831 36
1 12832 28
1 12833 3
1 12834 4
1 12835 5
1 12836 84
1 12837 14
1 12838 18
1 12840 4
1 12841 3
1 12842 1
1 12843 2
1 12844 1
1 12845 1
1 12846 2
1 12847 11
1 12848 21
1 12849 10
1 12850 14
1 12851 6
1 12852 16
1 12853 2
1 12854 4
1 12855 3
1 12856 2
1 12857 1
1 12858 47
1 12859 7
1 12860 4
1 12861 1
1 12862 22
1 12863 17
1 12864 69
1 12865 3
1 12866 11
1 12867 3
1 12868 1
1 12869 20
1 12870 6
1 12871 6
1 12872 32
1 12873 5
1 12874 15
1 12875 13
1 12876 26
1 12877 21
1 12878 33
1 12879 6
1 12880 2
1 12881 47
1 12882 63
1 12883 31
1 12884 22
1 12885 15
1 12886 2
1 12887 10
1 12888 28
1 12889 42
1 12890 7
1 12891 5
1 12892 2
1 12893 4
1 12894 16
1 12895 2
1 12896 10
1 12897 5
1 12898 2
1 12899 1
1 12900 51
1 12901 4
1 12902 21
1 12903 2
1 12904 10
1 12905 224
1 12906 26
1 12907 6
1 12908 13
1 12909 16
1 12910 37
1 12911 11
1 12912 12
1 12913 16
1 12914 6
1 12915 3
1 12916 38
1 12917 341
1 12918 4
1 12919 22
1 12920 5
1 12921 12
1 12922 4
1 12923 3
1 12924 5
1 12925 11
1 12926 17
1 12927 6
1 12928 36
1 12929 10
1 12931 4
1 12932 29
1 12933 14
1 12934 2
1 12935 20
1 12936 4
1 12937 4
1 12938 29
1 12939 3
1 12940 17
1 12941 12
1 12942 10
1 12943 45
1 12944 1
1 12945 3
1 12946 3
1 12947 7
1 12948 2
1 12949 1
1 12950 59
1 12951 1
1 12952 52
1 12953 6
1 12954 3
1 12955 2
1 12956 131
1 12957 1
1 12958 2
1 12959 2
1 12960 97
1 12961 14
1 12962 42
1 12963 1
1 12964 18
1 12965 16
1 12966 5
1 12967 2
1 12968 5
1 12969 1
1 12970 2
1 12971 21
1 12972 43
1 12973 74
1 12974 9
1 12975 29
1 12976 30
1 12977 8
1 12978 4
1 12979 6
1 12980 13
1 12981 5
1 12982 16
1 12983 44
1 12984 6
1 12985 15
1 12986 2
1 12987 2
1 12988 3
1 12989 25
1 12990 26
1 12991 4
1 12992 7
1 12993 15
1 12994 2
1 12995 10
1 12996 13
1 12997 9
1 12999 80
1 13000 2
1 13001 26
1 13002 6
1 13003 1
1 13004 19
1 13005 844
1 13006 2
1 13007 5
1 13008 4
1 13009 3
1 13010 2
1 13011 30
1 13012 32
1 13013 73
1 13014 11
1 13016 20
1 13017 6
1 13018 2
1 13019 1
1 13020 29
1 13021 5
1 13022 34
1 13023 19
1 13024 6
1 13025 9
1 13026 4
1 13027 4
1 13028 19
1 13029 27
1 13030 5
1 13031 11
1 13032 31
1 13033 35
1 13034 3
1 13035 15
1 13036 29
1 13037 13
1 13038 1
1 13039 2
1 13040 5
1 13041 12
1 13042 2
1 13043 10
1 13044 5
1 13045 73
1 13046 2
1 13048 55
1 13049 26
1 13050 1
1 13051 66
1 13052 3
1 13053 25
1 13054 64
1 13055 3
1 13056 7
1 13057 3
1 13058 5
1 13059 24
1 13060 2
1 13061 12
1 13062 10
1 13063 6
1 13064 3
1 13065 34
1 13066 7
1 13067 4
1 13068 3
1 13069 4
1 13070 2
1 13071 3
1 13072 7
1 13073 2
1 13074 18
1 13075 5
1 13076 6
1 13077 35
1 13078 5
1 13079 25
1 13080 1
1 13081 6
1 13082 3
1 13083 458
1 13084 6
1 13085 18
1 13086 1
1 13087 4
1 13088 8
1 13089 4
1 13090 4
1 13091 2
1 13092 5
1 13093 21
1 13094 17
1 13095 2
1 13096 1
1 13097 6
1 13098 1
1 13099 6
1 13100 15
1 13101 8
1 13102 2
1 13103 11
1 13104 56
1 13105 14
1 13106 3
1 13107 5
1 13108 4
1 13109 2
1 13110 30
1 13111 4
1 13112 4
1 13113 4
1 13114 13
1 13115 25
1 13116 1
1 13117 4
1 13118 33
1 13119 13
1 13120 1220
1 13121 5
1 13122 3
1 13123 4
1 13124 4
1 13125 18
1 13126 3
1 13127 5
1 13128 12
1 13129 1049
1 13131 4
1 13132 4
1 13133 2
1 13134 6
1 13135 22
1 13136 4
1 13137 2
1 13138 4
1 13139 6
1 13140 2
1 13141 4
1 13142 16
1 13143 24
1 13145 43
1 13146 33
1 13147 4
1 13148 4
1 13149 25
1 13150 2
1 13151 12
1 13152 2
1 13153 18
1 13154 4
1 13155 6
1 13156 7
1 13157 3
1 13158 565
1 13159 3
1 13160 24
1 13161 15
1 13162 1
1 13163 7
1 13164 21
1 13165 3
1 13166 7
1 13167 25
1 13168 27
1 13169 32
1 13170 2
1 13171 4
1 13172 650
1 13173 11
1 13174 22
1 13175 19
1 13176 23
1 13177 16
1 13179 35
1 13180 27
1 13181 6
1 13182 4
1 13183 3
1 13184 5
1 13185 17
1 13186 55
1 13187 1
1 13188 24
1 13189 60
1 13190 15
1 13191 3
1 13192 1
1 13193 2
1 13194 9
1 13195 11
1 13196 26
1 13197 16
1 13198 3
1 13199 1
1 13200 22
1 13201 13
1 13203 4
1 13204 3
1 13205 14
1 13206 1
1 13207 46
1 13208 42
1 13209 3
1 13210 5
1 13211 39
1 13212 2
1 13213 3
1 13214 9
1 13215 1
1 13217 9
1 13218 27
1 13219 2
1 13220 4
1 13221 67
1 13222 4
1 13223 22
1 13224 26
1 13225 5
1 13226 3
1 13227 2
1 13228 2
1 13230 1182
1 13231 9
1 13232 4
1 13233 10
1 13234 2
1 13235 17
1 13236 19
1 13238 3
1 13239 2
1 13240 483
1 13241 3
1 13242 37
1 13243 13
1 13244 17
1 13245 2
1 13246 22
1 13247 3
1 13248 38
1 13249 4
1 13250 3
1 13251 2
1 13252 2
1 13253 3
1 13254 43
1 13255 3
1 13256 21
1 13257 1
1 13258 11
1 13259 23
1 13260 20
1 13261 21
1 13262 5
1 13263 4
1 13264 4
1 13265 11
1 13266 2
1 13267 55
1 13268 2
1 13269 25
1 13270 4
1 13271 1
1 13272 16
1 13273 3
1 13274 6
1 13275 16
1 13276 1
1 13277 9
1 13278 41
1 13279 33
1 13280 17
1 13281 1
1 13282 7
1 13283 3
1 13284 12
1 13285 38
1 13286 2
1 13287 1
1 13288 6
1 13289 4
1 13290 1
1 13291 25
1 13292 17
1 13293 7
1 13294 6
1 13295 2
1 13296 115
1 13297 6
1 13298 10
1 13299 1
1 13300 11
1 13301 17
1 13302 4
1 13303 6
1 13304 5
1 13305 1
1 13306 1
1 13307 32
1 13308 4
1 13309 2
1 13310 3
1 13311 10
1 13312 27
1 13313 3
1 13314 24
1 13315 1
1 13316 2
1 13317 20
1 13318 5
1 13319 4
1 13320 2
1 13321 4
1 13322 31
1 13323 37
1 13324 2
1 13325 3
1 13326 7
1 13327 4
1 13328 3
1 13329 5
1 13330 6
1 13331 4
1 13332 18
1 13333 8
1 13334 15
1 13335 3
1 13336 7
1 13337 49
1 13338 4
1 13339 30
1 13340 8
1 13341 1
1 13342 611
1 13343 1
1 13344 2
1 13345 1
1 13346 6
1 13347 2
1 13348 4
1 13349 45
1 13350 5
1 13351 16
1 13353 4
1 13354 1
1 13355 3
1 13356 7
1 13357 30
1 13358 17
1 13359 2
1 13360 4
1 13361 9
1 13362 52
1 13363 7
1 13364 40
1 13365 29
1 13366 36
1 13367 3
1 13368 76
1 13369 1
1 13370 8
1 13371 6
1 13373 3
1 13374 1176
1 13375 1
1 13376 3
1 13377 17
1 13378 2
1 13379 1
1 13380 2
1 13381 18
1 13382 20
1 13383 17
1 13384 126
1 13385 4
1 13386 7
1 13387 4
1 13388 5
1 13389 11
1 13391 10
1 13392 600
1 13393 3
1 13394 14
1 13395 3
1 13396 1
1 13397 943
1 13398 13
1 13399 2
1 13400 1
1 13401 2
1 13402 2
1 13403 15
1 13404 7
1 13405 933
1 13406 5
1 13407 2
1 13408 3
1 13409 3
1 13410 32
1 13411 5
1 13412 21
1 13413 2
1 13414 4
1 13415 18
1 13416 4
1 13417 4
1 13418 1088
1 13419 4
1 13420 34
1 13421 5
1 13422 3
1 13423 5
1 13424 2
1 13425 2
1 13426 8
1 13427 18
1 13428 24
1 13429 6
1 13430 3
1 13431 29
1 13432 22
1 13433 26
1 13434 3
1 13435 3
1 13436 33
1 13437 4
1 13438 2
1 13439 18
1 13440 1
1 13441 1232
1 13442 1
1 13443 38
1 13444 12
1 13445 29
1 13446 1
1 13447 97
1 13448 3
1 13449 4
1 13450 20
1 13451 2
1 13452 2
1 13453 29
1 13454 2
1 13455 5
1 13456 4
1 13457 1
1 13458 12
1 13459 8
1 13460 6
1 13461 4
1 13462 20
1 13463 53
1 13464 3
1 13465 28
1 13466 335
1 13467 24
1 13468 3
1 13469 6
1 13470 2
1 13471 36
1 13472 5
1 13473 41
1 13474 1
1 13475 9
1 13476 16
1 13477 4
1 13478 16
1 13479 4
1 13480 40
1 13481 9
1 13482 11
1 13483 4
1 13484 2
1 13485 5
1 13486 1
1 13487 26
1 13488 717
1 13489 3
1 13490 1
1 13491 4
1 13492 33
1 13493 7
1 13494 11
1 13495 15
1 13496 2
1 13497 3
1 13498 31
1 13499 33
1 13500 41
1 13501 12
1 13502 5
1 13503 16
1 13504 890
1 13505 4
1 13506 1
1 13507 3
1 13508 3
1 13509 92
1 13510 5
1 13511 4
1 13512 1
1 13513 15
1 13514 14
1 13515 33
1 13516 5
1 13517 9
1 13518 3
1 13519 12
1 13520 63
1 13521 1
1 13522 5
1 13523 36
1 13524 22
1 13525 26
1 13526 23
1 13527 10
1 13529 22
1 13530 1
1 13531 21
1 13532 2
1 13533 6
1 13534 8
1 13535 1
1 13536 1
1 13537 2
1 13538 4
1 13539 11
1 13540 29
1 13541 37
1 13542 19
1 13543 19
1 13544 2
1 13545 2
1 13546 2
1 13547 5
1 13548 4
1 13549 8
1 13550 10
1 13551 16
1 13552 23
1 13553 50
1 13554 10
1 13555 13
1 13556 4
1 13557 162
1 13558 53
1 13559 22
1 13560 2
1 13561 22
1 13562 8
1 13563 8
1 13564 10
1 13565 4
1 13566 48
1 13567 3
1 13568 3
1 13569 1
1 13570 51
1 13571 40
1 13573 3
1 13574 36
1 13575 2
1 13576 15
1 13577 3
1 13578 20
1 13579 4
1 13580 5
1 13581 1074
1 13582 21
1 13583 18
1 13584 6
1 13585 15
1 13586 20
1 13587 1
1 13588 39
1 13589 8
1 13590 37
1 13591 37
1 13592 2
1 13593 4
1 13594 3
1 13595 3
1 13596 27
1 13597 17
1 13598 31
1 13599 3
1 13600 18
1 13601 2
1 13602 16
1 13603 3
1 13604 5
1 13605 23
1 13606 5
1 13607 3
1 13608 5
1 13609 5
1 13610 6
1 13612 779
1 13613 20
1 13614 44
1 13615 3
1 13617 5
1 13618 9
1 13619 6
1 13620 45
1 13621 2
1 13622 5
1 13623 5
1 13624 2
1 13625 5
1 13626 15
1 13627 5
1 13628 2
1 13629 1
1 13630 43
1 13631 3
1 13632 5
1 13633 9
1 13634 17
1 13635 16
1 13636 32
1 13637 7
1 13638 10
1 13639 3
1 13640 15
1 13641 18
1 13642 7
1 13643 29
1 13644 24
1 13645 5
1 13646 7
1 13647 30
1 13648 3
1 13649 9
1 13650 1
1 13651 6
1 13652 34
1 13653 1
1 13654 2
1 13656 24
1 13657 5
1 13658 19
1 13659 5
1 13660 16
1 13661 26
1 13662 2
1 13664 3
1 13665 7
1 13666 1
1 13667 4
1 13668 41
1 13669 2
1 13670 2
1 13671 8
1 13672 1
1 13673 13
1 13674 22
1 13675 3
1 13676 27
1 13677 11
1 13678 20
1 13679 38
1 13681 63
1 13682 4
1 13683 24
1 13684 6
1 13685 1
1 13686 12
1 13687 4
1 13688 9
1 13689 1
1 13690 18
1 13691 7
1 13692 2
1 13693 2
1 13694 2
1 13695 1
1 13696 2
1 13697 2
1 13698 9
1 13699 2
1 13700 43
1 13701 2
1 13702 8
1 13703 6
1 13704 3
1 13705 5
1 13706 3
1 13707 4
1 13708 1
1 13709 2
1 13710 33
1 13711 1
1 13712 23
1 13713 82
1 13714 4
1 13715 12
1 13716 5
1 13717 1
1 13718 17
1 13719 11
1 13720 3
1 13721 27
1 13722 1
1 13723 24
1 13724 4
1 13725 33
1 13726 3
1 13727 4
1 13728 33
1 13729 4
1 13730 6
1 13731 5
1 13732 9
1 13733 2
1 13734 17
1 13735 5
1 13736 6
1 13737 32
1 13738 3
1 13739 19
1 13740 14
1 13741 18
1 13742 3
1 13743 30
1 13744 3
1 13745 122
1 13746 6
1 13747 1
1 13748 2
1 13749 23
1 13750 10
1 13751 1
1 13752 7
1 13753 9
1 13754 6
1 13755 3
1 13756 2
1 13757 4
1 13758 9
1 13759 4
1 13760 2
1 13761 9
1 13762 35
1 13763 4
1 13764 2
1 13765 3
1 13766 2
1 13767 6
1 13768 4
1 13769 29
1 13770 3
1 13771 5
1 13772 4
1 13773 1
1 13774 8
1 13775 6
1 13776 2
1 13777 3
1 13778 5
1 13779 1
1 13780 30
1 13781 30
1 13782 6
1 13783 22
1 13784 21
1 13785 3
1 13786 1
1 13787 12
1 13788 2
1 13789 8
1 13790 4
1 13791 2
1 13792 6
1 13794 32
1 13795 5
1 13796 28
1 13797 11
1 13798 22
1 13799 3
1 13800 4
1 13801 19
1 13802 2
1 13803 9
1 13804 30
1 13805 2
1 13806 11
1 13807 31
1 13808 1
1 13809 2
1 13810 3
1 13811 50
1 13812 15
1 13813 72
1 13814 40
1 13815 32
1 13816 1
1 13817 4
1 13818 5
1 13819 2
1 13820 27
1 13821 4
1 13822 1
1 13823 3
1 13824 13
1 13825 2
1 13826 1
1 13827 1
1 13828 2
1 13829 42
1 13830 51
1 13831 5
1 13832 3
1 13833 16
1 13834 38
1 13835 12
1 13836 13
1 13837 3
1 13838 2
1 13839 6
1 13840 43
1 13841 6
1 13842 5
1 13843 18
1 13844 19
1 13845 2
1 13846 7
1 13847 1
1 13848 14
1 13849 20
1 13850 3
1 13851 6
1 13852 47
1 13853 45
1 13854 1
1 13855 2
1 13856 1
1 13857 22
1 13858 2
1 13859 5
1 13860 15
1 13861 2
1 13862 3
1 13863 2
1 13864 28
1 13865 12
1 13866 5
1 13867 23
1 13868 24
1 13869 5
1 13870 158
1 13871 663
1 13872 4
1 13873 5
1 13874 6
1 13875 36
1 13876 33
1 13877 58
1 13878 15
1 13879 16
1 13880 3
1 13881 14
1 13882 11
1 13883 23
1 13884 30
1 13885 1
1 13886 2
1 13887 12
1 13888 20
1 13889 1
1 13890 26
1 13891 18
1 13892 22
1 13893 3
1 13894 13
1 13895 2
1 13896 14
1 13898 2
1 13899 3
1 13900 3
1 13901 2
1 13902 11
1 13903 3
1 13904 4
1 13905 131
1 13906 31
1 13907 13
1 13908 2
1 13910 16
1 13911 3
1 13912 8
1 13913 13
1 13914 6
1 13915 2
1 13916 4
1 13917 5
1 13919 3
1 13920 4
1 13921 17
1 13922 20
1 13923 2
1 13924 1
1 13925 1
1 13926 3
1 13927 13
1 13928 4
1 13929 13
1 13930 4
1 13931 2
1 13932 32
1 13933 30
1 13934 2
1 13935 58
1 13936 2
1 13937 3
1 13938 5
1 13939 3
1 13941 10
1 13942 2
1 13943 3
1 13944 17
1 13945 2
1 13946 4
1 13947 10
1 13948 15
1 13950 14
1 13951 3
1 13952 8
1 13953 122
1 13954 5
1 13955 15
1 13956 6
1 13957 2
1 13958 8
1 13959 14
1 13960 3
1 13961 5
1 13962 38
1 13963 3
1 13964 5
1 13965 28
1 13966 2
1 13967 38
1 13968 19
1 13969 16
1 13970 5
1 13971 2
1 13972 17
1 13973 16
1 13975 1
1 13976 14
1 13977 11
1 13978 3
1 13979 13
1 13980 23
1 13981 4
1 13982 4
1 13983 41
1 13984 1
1 13985 3
1 13986 2
1 13987 3
1 13988 1
1 13989 34
1 13990 3
1 13991 5
1 13992 1
1 13993 5
1 13994 3
1 13995 13
1 13996 12
1 13998 25
1 13999 31
1 14000 8
1 14001 6
1 14002 8
1 14003 18
1 14004 33
1 14006 5
1 14007 26
1 14008 5
1 14009 2
1 14010 1
1 14011 5
1 14012 9
1 14013 1
1 14014 64
1 14015 25
1 14016 2
1 14017 5
1 14018 3
1 14019 2
1 14020 602
1 14021 2
1 14022 11
1 14023 1
1 14024 6
1 14025 5
1 14026 1
1 14027 2
1 14028 3
1 14029 40
1 14030 6
1 14031 2
1 14032 5
1 14033 3
1 14034 33
1 14035 38
1 14036 1
1 14037 4
1 14038 3
1 14039 2
1 14040 45
1 14041 1
1 14042 6
1 14043 3
1 14044 3
1 14045 7
1 14046 2
1 14047 22
1 14048 8
1 14050 3
1 14051 9
1 14052 5
1 14053 30
1 14054 8
1 14055 24
1 14056 32
1 14058 58
1 14059 2
1 14060 11
1 14061 3
1 14062 3
1 14063 7
1 14064 14
1 14065 3
1 14066 7
1 14067 24
1 14068 18
1 14069 14
1 14070 4
1 14071 7
1 14074 1
1 14075 19
1 14076 7
1 14078 3
1 14079 27
1 14080 21
1 14081 4
1 14082 3
1 14083 13
1 14084 2
1 14085 5
1 14086 7
1 14087 28
1 14088 3
1 14089 39
1 14090 13
1 14091 959
1 14092 28
1 14094 1
1 14095 2
1 14096 4
1 14097 14
1 14098 23
1 14099 5
1 14100 11
1 14101 6
1 14102 1
1 14103 1
1 14104 7
1 14105 17
1 14106 2
1 14107 6
1 14108 1
1 14109 11
1 14110 2
1 14111 3
1 14112 3
1 14113 18
1 14114 29
1 14115 15
1 14116 6
1 14117 34
1 14118 31
1 14119 15
1 14120 35
1 14121 24
1 14122 14
1 14123 3
1 14124 3
1 14125 31
1 14126 17
1 14127 2
1 14128 3
1 14129 2
1 14130 37
1 14131 31
1 14132 23
1 14133 5
1 14135 2
1 14136 2
1 14137 3
1 14138 2
1 14139 1
1 14140 2
1 14141 2
1 14142 73
1 14143 12
1 14144 32
1 14145 3
1 14147 2
1 14148 9
1 14149 1
1 14150 25
1 14151 6
1 14152 21
1 14153 6
1 14154 5
1 14155 32
1 14156 2
1 14157 593
1 14158 3
1 14159 1
1 14160 4
1 14161 23
1 14162 3
1 14163 4
1 14164 43
1 14165 9
1 14166 2
1 14167 5
1 14168 3
1 14169 29
1 14170 7
1 14171 32
1 14172 9
1 14173 31
1 14174 16
1 14175 21
1 14176 15
1 14177 8
1 14178 12
1 14179 143
1 14180 2
1 14181 22
1 14182 5
1 14183 66
1 14184 14
1 14185 36
1 14186 21
1 14187 5
1 14188 2
1 14189 2
1 14190 25
1 14192 2
1 14193 1
1 14194 23
1 14195 24
1 14196 9
1 14197 18
1 14198 1
1 14199 7
1 14201 1
1 14202 3
1 14203 36
1 14204 834
1 14205 7
1 14206 4
1 14208 15
1 14209 2
1 14211 1
1 14212 15
1 14213 1
1 14214 21
1 14215 5
1 14216 1
1 14217 2
1 14219 38
1 14220 31
1 14221 28
1 14222 1035
1 14223 3
1 14224 1
1 14225 8
1 14226 50
1 14227 6
1 14228 264
1 14229 1
1 14230 2
1 14231 66
1 14232 20
1 14233 567
1 14234 17
1 14235 17
1 14236 12
1 14237 13
1 14238 3
1 14239 9
1 14240 6
1 14241 6
1 14242 6
1 14243 3
1 14244 19
1 14245 4
1 14246 3
1 14247 1
1 14248 3
1 14249 6
1 14250 30
1 14251 1
1 14252 1
1 14253 4
1 14254 5
1 14255 2
1 14256 3
1 14257 3
1 14258 676
1 14259 8
1 14260 17
1 14261 4
1 14262 1
1 14263 1
1 14264 39
1 14265 886
1 14266 35
1 14267 11
1 14268 18
1 14269 13
1 14270 3
1 14271 9
1 14273 4
1 14274 33
1 14275 3
1 14276 3
1 14277 5
1 14278 3
1 14279 2
1 14280 3
1 14281 18
1 14282 17
1 14283 3
1 14284 2
1 14285 27
1 14286 1
1 14287 1
1 14288 5
1 14289 2
1 14290 23
1 14291 2
1 14292 2
1 14293 8
1 14294 17
1 14296 4
1 14297 17
1 14298 6
1 14299 39
1 14300 31
1 14301 5
1 14302 23
1 14303 58
1 14304 7
1 14305 25
1 14306 4
1 14307 4
1 14308 2
1 14309 134
1 14310 10
1 14311 3
1 14312 2
1 14313 35
1 14314 6
1 14315 4
1 14316 20
1 14317 5
1 14318 49
1 14319 6
1 14320 24
1 14321 8
1 14322 12
1 14323 23
1 14324 11
1 14325 13
1 14326 1
1 14327 11
1 14328 17
1 14329 26
1 14330 41
1 14331 35
1 14332 2
1 14333 4
1 14334 58
1 14335 21
1 14336 4
1 14337 7
1 14338 7
1 14339 4
1 14340 18
1 14342 42
1 14343 5
1 14344 21
1 14345 7
1 14346 6
1 14347 2
1 14348 15
1 14349 3
1 14350 3
1 14351 3
1 14352 3
1 14353 11
1 14354 24
1 14355 25
1 14356 56
1 14357 12
1 14358 5
1 14359 9
1 14360 2
1 14361 4
1 14362 52
1 14363 32
1 14364 1
1 14365 20
1 14366 3
1 14367 29
1 14368 27
1 14369 12
1 14370 2
1 14371 48
1 14372 34
1 14373 10
1 14374 26
1 14375 4
1 14377 5
1 14378 3
1 14379 330
1 14380 39
1 14381 18
1 14382 18
1 14383 19
1 14384 33
1 14385 4
1 14386 26
1 14387 62
1 14388 5
1 14389 8
1 14390 4
1 14391 27
1 14392 23
1 14393 10
1 14394 31
1 14395 19
1 14396 48
1 14397 20
1 14398 2
1 14399 3
1 14401 33
1 14402 21
1 14403 6
1 14404 19
1 14405 9
1 14406 4
1 14407 1
1 14409 37
1 14410 6
1 14411 64
1 14412 14
1 14413 36
1 14415 3
1 14416 3
1 14417 2
1 14418 13
1 14419 23
1 14420 12
1 14421 8
1 14422 10
1 14423 3
1 14424 2
1 14425 357
1 14426 1
1 14427 41
1 14428 2
1 14429 1
1 14430 11
1 14431 3
1 14432 4
1 14433 19
1 14434 3
1 14435 2
1 14436 4
1 14437 1
1 14438 1
1 14439 4
1 14440 3
1 14441 5
1 14442 3
1 14443 34
1 14444 9
1 14445 11
1 14446 28
1 14447 2
1 14448 16
1 14449 1
1 14450 4
1 14451 10
1 14452 3
1 14453 1
1 14454 5
1 14455 2
1 14456 36
1 14457 15
1 14458 3
1 14459 22
1 14460 7
1 14461 89
1 14462 6
1 14463 1
1 14464 6
1 14465 4
1 14466 5
1 14467 4
1 14468 29
1 14469 18
1 14470 5
1 14471 3
1 14472 2
1 14473 5
1 14474 3
1 14475 3
1 14476 41
1 14477 64
1 14478 56
1 14479 3
1 14480 3
1 14481 1
1 14482 8
1 14483 1057
1 14484 28
1 14485 37
1 14486 1
1 14487 5
1 14488 6
1 14489 17
1 14490 15
1 14491 2
1 14492 3
1 14493 14
1 14494 6
1 14495 22
1 14496 2
1 14497 15
1 14498 17
1 14499 13
1 14500 1
1 14501 18
1 14502 5
1 14503 2
1 14504 35
1 14505 18
1 14506 5
1 14507 2
1 14508 4
1 14509 32
1 14510 4
1 14511 5
1 14512 1
1 14513 7
1 14514 1
1 14515 37
1 14516 18
1 14517 22
1 14518 48
1 14519 19
1 14520 3
1 14521 16
1 14522 5
1 14523 3
1 14524 25
1 14525 3
1 14526 4
1 14527 4
1 14528 5
1 14529 5
1 14530 2
1 14531 3
1 14532 4
1 14533 3
1 14534 5
1 14535 2
1 14536 25
1 14537 4
1 14538 4
1 14539 3
1 14540 48
1 14541 5
1 14542 3
1 14543 20
1 14544 37
1 14545 2
1 14546 1
1 14547 6
1 14548 1
1 14549 26
1 14550 6
1 14551 5
1 14552 3
1 14553 18
1 14554 21
1 14555 30
1 14556 82
1 14557 21
1 14558 16
1 14559 3
1 14560 6
1 14561 48
1 14562 3
1 14563 4
1 14564 3
1 14565 57
1 14566 14
1 14567 2
1 14568 12
1 14569 1
1 14570 31
1 14571 14
1 14572 735
1 14573 1
1 14574 12
1 14575 23
1 14576 10
1 14577 5
1 14578 25
1 14579 29
1 14580 6
1 14581 46
1 14582 35
1 14583 9
1 14584 26
1 14585 2
1 14586 42
1 14587 2
1 14588 3
1 14589 4
1 14590 5
1 14591 1
1 14592 980
1 14593 7
1 14594 12
1 14595 4
1 14596 4
1 14597 3
1 14598 1
1 14599 43
1 14600 3
1 14601 7
1 14602 2
1 14603 9
1 14604 1
1 14605 13
1 14606 6
1 14607 7
1 14608 2
1 14609 5
1 14610 3
1 14611 3
1 14612 5
1 14613 5
1 14614 3
1 14615 3
1 14616 6
1 14617 1
1 14618 26
1 14619 5
1 14620 1
1 14621 31
1 14622 2
1 14623 17
1 14624 32
1 14625 3
1 14626 17
1 14627 4
1 14628 18
1 14629 522
1 14630 14
1 14632 2
1 14633 5
1 14634 6
1 14635 54
1 14636 4
1 14637 3
1 14638 5
1 14639 2
1 14640 12
1 14641 54
1 14642 1
1 14643 1
1 14644 27
1 14645 21
1 14646 4
1 14647 17
1 14648 4
1 14649 8
1 14651 6
1 14652 17
1 14653 5
1 14654 13
1 14655 17
1 14656 52
1 14657 15
1 14658 2
1 14659 7
1 14660 12
1 14661 1122
1 14662 14
1 14663 1
1 14664 4
1 14665 1
1 14666 39
1 14667 4
1 14668 6
1 14669 1
1 14670 99
1 14671 35
1 14672 23
1 14673 7
1 14674 4
1 14675 4
1 14676 15
1 14677 1
1 14678 19
1 14679 19
1 14680 3
1 14681 26
1 14682 22
1 14683 2
1 14684 12
1 14685 1
1 14686 7
1 14687 57
1 14688 5
1 14689 76
1 14690 2
1 14691 6
1 14692 4
1 14693 31
1 14694 15
1 14695 15
1 14696 21
1 14697 4
1 14698 41
1 14699 3
1 14700 3
1 14701 285
1 14702 2
1 14703 81
1 14704 24
1 14705 18
1 14706 3
1 14707 14
1 14708 2
1 14709 14
1 14710 3
1 14711 23
1 14712 4
1 14713 9
1 14714 3
1 14715 29
1 14716 2
1 14717 85
1 14718 3
1 14719 1
1 14720 4
1 14721 4
1 14722 2
1 14723 21
1 14724 3
1 14725 48
1 14726 29
1 14727 21
1 14728 4
1 14729 7
1 14730 5
1 14731 2
1 14732 10
1 14733 6
1 14734 45
1 14735 43
1 14736 23
1 14737 44
1 14738 5
1 14739 5
1 14740 18
1 14741 24
1 14742 1
1 14743 39
1 14744 3
1 14745 2
1 14746 33
1 14747 20
1 14748 58
1 14749 1
1 14750 17
1 14751 5
1 14752 6
1 14753 26
1 14754 3
1 14755 3
1 14756 13
1 14758 7
1 14759 19
1 14760 4
1 14761 3
1 14762 52
1 14763 20
1 14764 10
1 14765 2
1 14766 7
1 14767 5
1 14768 4
1 14769 2
1 14770 3
1 14771 16
1 14772 12
1 14773 11
1 14774 46
1 14775 16
1 14776 2
1 14777 3
1 14778 14
1 14779 6
1 14780 17
1 14781 25
1 14782 2
1 14783 4
1 14784 3
1 14785 15
1 14786 36
1 14787 29
1 14788 4
1 14789 3
1 14790 3
1 14791 5
1 14792 14
1 14793 5
1 14794 1
1 14795 1
1 14796 611
1 14797 31
1 14798 6
1 14799 1
1 14800 2
1 14801 2
1 14802 1
1 14803 14
1 14804 19
1 14805 19
1 14806 1
1 14807 2
1 14808 6
1 14809 4
1 14810 5
1 14811 3
1 14812 6
1 14813 5
1 14814 7
1 14815 24
1 14816 106
1 14817 5
1 14818 2
1 14819 2
1 14820 6
1 14821 15
1 14822 15
1 14823 18
1 14824 1
1 14825 3
1 14826 4
1 14827 30
1 14828 8
1 14829 1
1 14830 5
1 14831 6
1 14832 7
1 14833 1
1 14834 3
1 14835 6
1 14836 6
1 14837 3
1 14838 20
1 14839 1
1 14840 37
1 14841 3
1 14842 2
1 14843 6
1 14844 10
1 14845 6
1 14846 2
1 14847 24
1 14848 18
1 14849 5
1 14850 3
1 14851 2
1 14852 4
1 14853 1
1 14854 4
1 14855 19
1 14856 2
1 14857 1
1 14859 6
1 14860 32
1 14861 4
1 14862 26
1 14863 7
1 14864 21
1 14865 8
1 14866 1
1 14867 79
1 14868 4
1 14869 3
1 14870 47
1 14871 16
1 14872 32
1 14873 41
1 14874 2
1 14875 23
1 14876 1
1 14877 7
1 14878 4
1 14879 4
1 14880 164
1 14881 7
1 14882 16
1 14883 19
1 14884 5
1 14885 17
1 14886 4
1 14888 44
1 14889 3
1 14890 8
1 14891 1
1 14892 7
1 14893 31
1 14894 4
1 14895 28
1 14896 3
1 14897 5
1 14898 3
1 14899 12
1 14900 3
1 14901 1
1 14902 26
1 14903 33
1 14904 7
1 14905 5
1 14906 2
1 14907 15
1 14908 1
1 14909 4
1 14910 2
1 14911 18
1 14912 2
1 14913 14
1 14914 3
1 14915 13
1 14916 1
1 14917 5
1 14918 4
1 14919 4
1 14920 3
1 14921 4
1 14922 9
1 14923 4
1 14924 48
1 14925 5
1 14926 1
1 14927 5
1 14928 7
1 14929 3
1 14930 1
1 14931 12
1 14932 26
1 14933 3
1 14934 2
1 14935 6
1 14936 4
1 14937 65
1 14938 4
1 14939 2
1 14940 2
1 14941 1
1 14942 16
1 14943 1
1 14944 2
1 14945 3
1 14946 6
1 14947 21
1 14948 22
1 14949 5
1 14950 7
1 14951 2
1 14952 8
1 14953 71
1 14954 15
1 14955 15
1 14956 5
1 14957 2
1 14958 5
1 14959 4
1 14960 3
1 14961 1
1 14962 6
1 14963 23
1 14964 6
1 14965 21
1 14966 26
1 14967 3
1 14968 2
1 14969 1
1 14970 2
1 14972 24
1 14974 5
1 14975 9
1 14976 3
1 14977 2
1 14978 36
1 14979 1
1 14980 14
1 14981 1
1 14982 17
1 14983 39
1 14984 37
1 14985 26
1 14986 1
1 14988 2
1 14989 6
1 14990 33
1 14991 2
1 14993 3
1 14994 2
1 14995 3
1 14996 12
1 14997 5
1 14998 7
1 14999 3
1 15000 7
1 15001 26
1 15002 4
1 15003 2
1 15004 3
1 15005 18
1 15006 1
1 15007 67
1 15008 11
1 15009 1
1 15010 4
1 15011 4
1 15012 6
1 15013 9
1 15014 10
1 15015 17
1 15016 25
1 15017 2
1 15018 28
1 15019 10
1 15020 41
1 15021 8
1 15022 6
1 15023 5
1 15024 29
1 15025 21
1 15026 33
1 15027 20
1 15028 621
1 15029 1
1 15030 1
1 15031 2
1 15032 3
1 15033 28
1 15034 2
1 15035 9
1 15036 6
1 15037 2
1 15038 1
1 15039 2
1 15040 637
1 15041 17
1 15042 9
1 15043 12
1 15044 5
1 15045 13
1 15046 10
1 15047 12
1 15048 13
1 15049 5
1 15050 11
1 15051 20
1 15052 3
1 15053 16
1 15054 22
1 15055 59
1 15056 5
1 15057 1
1 15058 4
1 15059 3
1 15060 8
1 15061 1
1 15062 2
1 15063 7
1 15064 3
1 15065 2
1 15066 4
1 15067 3
1 15068 65
1 15069 40
1 15070 1
1 15071 3
1 15072 3
1 15073 1
1 15074 2
1 15075 22
1 15076 7
1 15077 4
1 15078 15
1 15079 1
1 15080 12
1 15081 19
1 15082 6
1 15083 8
1 15084 15
1 15085 3
1 15086 2
1 15087 6
1 15088 13
1 15089 2
1 15090 22
1 15091 1
1 15092 17
1 15093 1
1 15094 28
1 15095 60
1 15096 2
1 15097 11
1 15098 3
1 15099 3
1 15100 5
1 15101 6
1 15102 15
1 15103 13
1 15104 10
1 15105 17
1 15107 3
1 15108 1
1 15109 1
1 15110 1
1 15111 2
1 15112 3
1 15113 5
1 15114 14
1 15115 5
1 15116 38
1 15117 21
1 15118 2
1 15119 13
1 15120 9
1 15121 11
1 15122 3
1 15123 2
1 15124 3
1 15125 5
1 15126 50
1 15127 17
1 15128 8
1 15129 1
1 15130 3
1 15131 4
1 15132 13
1 15133 1
1 15135 24
1 15136 2
1 15137 2
1 15138 4
1 15139 7
1 15140 11
1 15141 1
1 15142 10
1 15143 23
1 15144 2
1 15145 8
1 15146 33
1 15147 57
1 15148 16
1 15149 2
1 15150 32
1 15151 3
1 15152 4
1 15153 8
1 15154 47
1 15155 2
1 15156 44
1 15157 27
1 15158 3
1 15159 2
1 15160 11
1 15161 70
1 15162 6
1 15163 6
1 15164 3
1 15165 21
1 15166 5
1 15167 37
1 15168 20
1 15169 31
1 15170 133
1 15171 25
1 15172 21
1 15173 4
1 15174 34
1 15175 51
1 15176 2
1 15177 3
1 15178 4
1 15179 1
1 15180 4
1 15181 45
1 15182 3
1 15184 4
1 15185 7
1 15186 54
1 15187 4
1 15188 8
1 15189 52
1 15190 13
1 15191 5
1 15192 20
1 15193 892
1 15194 5
1 15195 13
1 15196 49
1 15197 6
1 15198 1
1 15199 20
1 15200 7
1 15201 5
1 15202 578
1 15203 44
1 15204 2
1 15205 33
1 15206 18
1 15207 1
1 15209 30
1 15210 33
1 15211 285
1 15213 27
1 15214 21
1 15215 37
1 15216 17
1 15217 16
1 15218 30
1 15219 8
1 15220 40
1 15221 2
1 15222 1
1 15223 21
1 15225 2
1 15226 1
1 15227 2
1 15228 1
1 15229 21
1 15230 865
1 15231 4
1 15232 18
1 15233 10
1 15234 9
1 15235 4
1 15236 7
1 15237 2
1 15238 3
1 15239 3
1 15240 26
1 15241 13
1 15242 8
1 15243 19
1 15245 22
1 15246 9
1 15247 47
1 15248 42
1 15249 8
1 15250 114
1 15251 4
1 15252 16
1 15253 25
1 15254 40
1 15255 6
1 15256 16
1 15257 9
1 15258 12
1 15259 1
1 15260 3
1 15261 28
1 15262 19
1 15263 3
1 15265 5
1 15266 28
1 15267 2
1 15268 4
1 15269 4
1 15270 2
1 15271 19
1 15272 3
1 15273 1
1 15274 15
1 15275 1
1 15276 1
1 15277 2
1 15279 43
1 15280 3
1 15281 20
1 15282 17
1 15283 187
1 15284 37
1 15285 5
1 15286 2
1 15287 7
1 15288 4
1 15289 5
1 15290 3
1 15291 10
1 15292 42
1 15293 4
1 15294 43
1 15295 1
1 15296 8
1 15297 19
1 15299 4
1 15300 14
1 15301 4
1 15302 23
1 15303 1
1 15304 5
1 15305 28
1 15306 11
1 15307 11
1 15308 2
1 15309 7
1 15310 20
1 15311 5
1 15312 4
1 15313 7
1 15314 2
1 15315 1
1 15316 11
1 15317 12
1 15318 3
1 15319 1
1 15320 8
1 15321 15
1 15322 1219
1 15323 2
1 15324 1
1 15325 30
1 15326 12
1 15327 6
1 15328 3
1 15329 5
1 15330 2
1 15331 1
1 15332 14
1 15333 4
1 15334 26
1 15335 25
1 15336 21
1 15337 59
1 15338 1
1 15339 3
1 15340 21
1 15341 41
1 15342 6
1 15344 5
1 15345 4
1 15346 4
1 15347 12
1 15348 33
1 15349 17
1 15350 3
1 15351 2
1 15352 1
1 15353 22
1 15354 22
1 15355 21
1 15356 27
1 15357 2
1 15358 6
1 15359 5
1 15360 46
1 15361 3
1 15362 5
1 15363 6
1 15364 4
1 15365 5
1 15366 5
1 15367 9
1 15368 4
1 15369 4
1 15370 2
1 15371 17
1 15372 1
1 15373 6
1 15374 23
1 15375 34
1 15376 21
1 15377 3
1 15378 26
1 15379 8
1 15380 33
1 15381 12
1 15382 6
1 15383 25
1 15384 2
1 15385 52
1 15386 5
1 15387 4
1 15388 31
1 15389 6
1 15390 3
1 15391 3
1 15392 9
1 15393 24
1 15394 45
1 15395 3
1 15396 4
1 15397 3
1 15398 1
1 15399 1
1 15400 7
1 15401 15
1 15402 13
1 15403 9
1 15404 1
1 15405 2
1 15406 6
1 15407 345
1 15408 3
1 15409 18
1 15410 1
1 15411 5
1 15412 29
1 15413 20
1 15414 3
1 15415 1
1 15416 35
1 15417 1
1 15418 2
1 15419 3
1 15420 1
1 15421 10
1 15422 34
1 15423 62
1 15424 16
1 15425 12
1 15426 1
1 15427 6
1 15428 3
1 15429 2
1 15430 15
1 15431 102
1 15432 4
1 15433 93
1 15434 2
1 15435 5
1 15436 3
1 15437 16
1 15438 2
1 15440 19
1 15441 1
1 15442 56
1 15443 29
1 15444 34
1 15445 3
1 15446 4
1 15447 3
1 15448 46
1 15449 4
1 15450 28
1 15451 2
1 15452 2
1 15453 2
1 15454 3
1 15455 28
1 15456 33
1 15457 5
1 15458 38
1 15459 22
1 15460 7
1 15461 2
1 15462 5
1 15463 2
1 15464 3
1 15465 4
1 15466 8
1 15467 1
1 15468 1217
1 15469 2
1 15470 4
1 15471 2
1 15472 12
1 15473 28
1 15474 2
1 15475 1
1 15476 6
1 15477 76
1 15478 22
1 15479 3
1 15480 32
1 15481 14
1 15482 12
1 15483 31
1 15484 5
1 15485 43
1 15486 23
1 15487 4
1 15488 6
1 15489 28
1 15490 1066
1 15492 1
1 15493 5
1 15494 32
1 15495 44
1 15496 28
1 15497 32
1 15498 2
1 15499 26
1 15500 4
1 15502 16
1 15503 7
1 15504 6
1 15505 24
1 15506 3
1 15507 11
1 15508 3
1 15509 32
1 15510 9
1 15511 3
1 15512 39
1 15513 1
1 15514 3
1 15515 7
1 15516 64
1 15517 3
1 15518 21
1 15519 66
1 15520 34
1 15521 8
1 15522 42
1 15523 21
1 15524 1
1 15525 7
1 15526 8
1 15527 33
1 15528 1
1 15529 6
1 15530 4
1 15531 74
1 15532 730
1 15533 15
1 15534 2
1 15535 10
1 15536 14
1 15537 4
1 15538 8
1 15539 9
1 15540 17
1 15541 16
1 15542 12
1 15543 12
1 15544 2
1 15545 31
1 15546 13
1 15547 3
1 15548 14
1 15549 3
1 15550 13
1 15551 15
1 15552 14
1 15553 3
1 15554 34
1 15555 18
1 15556 1139
1 15557 2
1 15558 21
1 15559 19
1 15560 24
1 15561 2
1 15562 1
1 15563 1
1 15564 1
1 15565 10
1 15566 2
1 15567 6
1 15568 2
1 15569 13
1 15570 35
1 15571 4
1 15572 2
1 15573 40
1 15574 9
1 15575 15
1 15576 6
1 15577 47
1 15578 8
1 15579 3
1 15580 3
1 15581 27
1 15582 10
1 15584 13
1 15585 6
1 15586 1
1 15587 11
1 15588 38
1 15589 5
1 15590 3
1 15591 3
1 15592 225
1 15593 24
1 15594 9
1 15595 3
1 15596 16
1 15597 2
1 15598 4
1 15599 3
1 15600 16
1 15601 19
1 15602 22
1 15603 3
1 15604 18
1 15605 12
1 15606 22
1 15607 4
1 15608 34
1 15609 3
1 15610 12
1 15611 10
1 15612 4
1 15613 2
1 15614 4
1 15615 4
1 15616 6
1 15617 10
1 15618 8
1 15619 13
1 15620 14
1 15621 4
1 15622 17
1 15623 6
1 15624 4
1 15625 3
1 15626 7
1 15627 2
1 15628 3
1 15629 4
1 15630 7
1 15631 1
1 15632 22
1 15633 8
1 15634 8
1 15635 17
1 15636 2
1 15637 5
1 15638 3
1 15639 6
1 15640 4
1 15641 1
1 15642 25
1 15643 41
1 15644 11
1 15645 10
1 15646 22
1 15647 48
1 15648 7
1 15649 6
1 15650 1
1 15651 45
1 15652 16
1 15653 25
1 15654 11
1 15655 35
1 15656 31
1 15657 2
1 15658 1
1 15659 14
1 15661 3
1 15662 27
1 15663 2
1 15664 1
1 15665 3
1 15666 14
1 15667 22
1 15668 3
1 15669 1
1 15670 17
1 15671 46
1 15672 12
1 15673 4
1 15674 40
1 15675 2
1 15677 2
1 15678 4
1 15679 34
1 15680 20
1 15681 19
1 15683 2
1 15684 8
1 15686 3
1 15687 3
1 15688 62
1 15689 3
1 15690 34
1 15691 24
1 15692 2
1 15693 12
1 15694 13
1 15695 14
1 15696 19
1 15697 5
1 15698 13
1 15699 5
1 15700 3
1 15701 4
1 15702 2
1 15703 23
1 15704 4
1 15705 3
1 15706 32
1 15707 2
1 15708 12
1 15709 3
1 15710 65
1 15711 451
1 15712 27
1 15713 26
1 15714 13
1 15715 5
1 15716 5
1 15717 2
1 15719 38
1 15721 58
1 15722 29
1 15723 4
1 15724 205
1 15725 2
1 15726 93
1 15727 2
1 15728 87
1 15729 36
1 15730 45
1 15731 2
1 15732 14
1 15733 12
1 15734 4
1 15735 34
1 15737 2
1 15738 3
1 15739 4
1 15740 3
1 15741 102
1 15742 4
1 15743 21
1 15744 6
1 15745 7
1 15746 5
1 15747 23
1 15748 2
1 15749 4
1 15750 7
1 15751 3
1 15752 26
1 15753 1
1 15754 21
1 15755 36
1 15756 12
1 15757 6
1 15758 50
1 15759 49
1 15760 4
1 15761 2
1 15762 5
1 15763 16
1 15764 17
1 15765 15
1 15766 3
1 15767 21
1 15768 64
1 15769 5
1 15770 2
1 15771 26
1 15772 8
1 15773 3
1 15774 31
1 15775 38
1 15776 2
1 15778 3
1 15779 2
1 15780 4
1 15781 8
1 15782 23
1 15783 3
1 15784 16
1 15785 2
1 15786 3
1 15787 12
1 15788 2
1 15789 5
1 15790 94
1 15791 2
1 15792 23
1 15793 12
1 15794 31
1 15795 15
1 15796 20
1 15797 1
1 15798 4
1 15799 4
1 15800 3
1 15801 35
1 15802 11
1 15803 4
1 15804 34
1 15805 3
1 15806 16
1 15807 3
1 15808 44
1 15809 1
1 15810 39
1 15811 23
1 15812 21
1 15813 12
1 15814 2
1 15815 3
1 15816 1
1 15817 17
1 15818 9
1 15819 35
1 15820 11
1 15821 3
1 15822 3
1 15823 4
1 15824 4
1 15825 1
1 15826 8
1 15827 5
1 15828 5
1 15829 2
1 15830 2
1 15831 20
1 15832 1
1 15833 16
1 15834 38
1 15835 321
1 15836 109
1 15837 11
1 15838 29
1 15839 4
1 15840 2
1 15841 19
1 15842 4
1 15843 15
1 15844 1
1 15845 5
1 15846 3
1 15847 6
1 15848 3
1 15849 4
1 15850 4
1 15851 4
1 15852 39
1 15853 6
1 15854 1
1 15855 7
1 15856 5
1 15857 5
1 15858 5
1 15859 7
1 15860 3
1 15861 16
1 15862 11
1 15863 4
1 15865 28
1 15866 12
1 15867 23
1 15868 1
1 15869 1
1 15870 6
1 15871 1
1 15872 15
1 15873 3
1 15874 11
1 15875 5
1 15876 20
1 15877 1
1 15878 2
1 15879 15
1 15880 17
1 15881 4
1 15882 3
1 15883 16
1 15884 12
1 15885 20
1 15886 8
1 15887 5
1 15888 24
1 15889 10
1 15890 18
1 15891 6
1 15892 49
1 15893 2
1 15894 1
1 15896 22
1 15897 2
1 15898 7
1 15899 3
1 15900 25
1 15901 4
1 15902 2
1 15903 4
1 15904 58
1 15905 9
1 15906 1146
1 15907 2
1 15908 3
1 15909 17
1 15910 6
1 15911 7
1 15912 10
1 15913 5
1 15914 37
1 15915 4
1 15916 5
1 15917 8
1 15918 11
1 15919 2
1 15920 49
1 15921 14
1 15922 5
1 15923 3
1 15924 35
1 15925 1
1 15926 10
1 15927 13
1 15928 3
1 15929 64
1 15931 17
1 15932 41
1 15933 2
1 15934 25
1 15935 13
1 15936 3
1 15937 16
1 15939 20
1 15940 2
1 15941 13
1 15942 3
1 15943 16
1 15944 39
1 15945 31
1 15946 1
1 15947 4
1 15948 4
1 15949 2
1 15950 1
1 15951 16
1 15952 11
1 15953 38
1 15954 10
1 15955 1
1 15956 22
1 15957 38
1 15958 7
1 15959 8
1 15960 2
1 15961 27
1 15962 3
1 15963 3
1 15964 23
1 15965 10
1 15966 1
1 15967 12
1 15968 17
1 15969 4
1 15971 3
1 15972 2
1 15973 17
1 15974 2
1 15975 8
1 15976 37
1 15977 3
1 15979 25
1 15980 5
1 15981 2
1 15982 4
1 15983 30
1 15984 4
1 15985 32
1 15986 3
1 15987 616
1 15988 6
1 15990 3
1 15991 15
1 15992 7
1 15993 3
1 15994 16
1 15995 1
1 15996 8
1 15997 2
1 15999 2
1 16000 39
1 16001 3
1 16003 38
1 16004 2
1 16005 19
1 16006 3
1 16007 18
1 16008 21
1 16009 12
1 16010 5
1 16011 2
1 16012 36
1 16013 16
1 16014 40
1 16015 5
1 16016 29
1 16017 8
1 16018 22
1 16019 3
1 16020 30
1 16021 5
1 16022 4
1 16023 3
1 16024 17
1 16025 3
1 16026 1
1 16027 4
1 16028 5
1 16029 4
1 16030 22
1 16031 2
1 16032 29
1 16033 3
1 16034 33
1 16035 95
1 16036 1
1 16037 6
1 16038 27
1 16039 7
1 16040 55
1 16041 36
1 16042 6
1 16043 5
1 16044 40
1 16045 2
1 16046 39
1 16047 2
1 16048 2
1 16049 1
1 16050 9
1 16051 6
1 16053 20
1 16054 4
1 16055 6
1 16056 3
1 16057 14
1 16058 10
1 16059 3
1 16060 2
1 16061 15
1 16062 6
1 16063 16
1 16064 41
1 16065 17
1 16066 18
1 16067 2
1 16068 3
1 16069 25
1 16070 32
1 16071 20
1 16072 51
1 16073 1
1 16074 3
1 16075 13
1 16076 57
1 16077 18
1 16078 8
1 16079 25
1 16080 10
1 16081 16
1 16082 1
1 16083 8
1 16084 27
1 16085 29
1 16086 4
1 16087 2
1 16088 14
1 16089 1
1 16090 2
1 16091 9
1 16092 1
1 16093 38
1 16094 22
1 16095 3
1 16096 29
1 16097 19
1 16098 2
1 16099 15
1 16100 4
1 16101 3
1 16102 20
1 16103 2
1 16104 4
1 16105 1
1 16106 2
1 16107 28
1 16108 753
1 16109 56
1 16110 3
1 16111 15
1 16112 11
1 16113 5
1 16114 1
1 16115 9
1 16116 1
1 16117 13
1 16118 4
1 16119 27
1 16120 2
1 16121 3
1 16122 16
1 16123 5
1 16124 4
1 16125 4
1 16126 7
1 16127 4
1 16128 34
1 16129 16
1 16130 3
1 16131 5
1 16132 1
1 16133 34
1 16134 6
1 16135 2
1 16136 1
1 16137 59
1 16138 57
1 16139 40
1 16140 16
1 16141 19
1 16142 7
1 16143 3
1 16144 3
1 16145 1
1 16146 3
1 16147 2
1 16148 44
1 16149 1
1 16151 31
1 16152 24
1 16153 13
1 16154 15
1 16155 2
1 16156 3
1 16157 6
1 16158 1
1 16159 5
1 16160 26
1 16161 38
1 16162 3
1 16163 9
1 16164 426
1 16166 10
1 16167 8
1 16168 14
1 16169 2
1 16170 29
1 16171 1
1 16172 77
1 16173 2
1 16174 7
1 16175 19
1 16176 1
1 16177 2
1 16178 3
1 16179 492
1 16180 42
1 16181 3
1 16182 44
1 16183 28
1 16184 35
1 16186 33
1 16187 19
1 16188 8
1 16189 2
1 16190 10
1 16191 4
1 16192 4
1 16193 6
1 16194 5
1 16195 13
1 16196 20
1 16197 20
1 16198 52
1 16199 12
1 16200 21
1 16201 2
1 16203 34
1 16204 6
1 16205 20
1 16206 3
1 16207 17
1 16208 5
1 16209 13
1 16210 8
1 16211 10
1 16212 2
1 16213 1
1 16214 8
1 16215 12
1 16216 2
1 16217 2
1 16218 1
1 16219 1
1 16220 17
1 16221 6
1 16222 2
1 16223 804
1 16224 20
1 16225 25
1 16227 3
1 16228 14
1 16229 35
1 16230 1
1 16231 1
1 16232 6
1 16233 1
1 16235 2
1 16236 4
1 16237 4
1 16238 2
1 16239 37
1 16240 12
1 16241 43
1 16242 13
1 16243 8
1 16244 2
1 16245 2
1 16246 2
1 16247 4
1 16248 19
1 16249 2
1 16250 4
1 16251 2
1 16252 7
1 16253 3
1 16254 14
1 16255 3
1 16256 47
1 16257 16
1 16258 2
1 16259 32
1 16260 64
1 16261 12
1 16262 23
1 16263 4
1 16264 15
1 16265 29
1 16266 10
1 16267 24
1 16268 2
1 16269 4
1 16270 6
1 16271 184
1 16272 16
1 16273 2
1 16274 35
1 16275 5
1 16276 28
1 16277 718
1 16278 29
1 16279 2
1 16280 4
1 16281 17
1 16282 2
1 16283 5
1 16284 24
1 16285 28
1 16286 32
1 16287 16
1 16288 29
1 16289 1
1 16290 8
1 16291 1
1 16292 18
1 16293 2
1 16294 5
1 16295 4
1 16296 3
1 16297 3
1 16298 21
1 16299 12
1 16300 2
1 16301 16
1 16302 13
1 16303 1
1 16304 43
1 16305 12
1 16306 2
1 16307 3
1 16309 4
1 16310 430
1 16311 14
1 16312 32
1 16313 6
1 16314 11
1 16315 16
1 16316 10
1 16317 1
1 16319 15
1 16320 11
1 16321 6
1 16322 2
1 16323 6
1 16324 4
1 16325 6
1 16326 4
1 16327 2
1 16328 1
1 16329 39
1 16330 3
1 16331 5
1 16332 2
1 16333 4
1 16334 4
1 16335 5
1 16336 29
1 16337 2
1 16338 4
1 16339 12
1 16340 2
1 16341 2
1 16342 1
1 16343 11
1 16344 3
1 16345 24
1 16346 9
1 16347 1
1 16348 5
1 16349 16
1 16350 10
1 16351 4
1 16352 5
1 16353 23
1 16354 12
1 16356 3
1 16357 4
1 16358 11
1 16359 9
1 16360 2
1 16361 44
1 16362 11
1 16363 2
1 16364 28
1 16365 18
1 16366 4
1 16368 57
1 16369 30
1 16370 3
1 16371 1
1 16372 2
1 16373 3
1 16374 13
1 16375 11
1 16376 2
1 16377 1
1 16378 14
1 16379 1
1 16380 7
1 16381 3
1 16382 1
1 16383 19
1 16384 5
1 16385 8
1 16386 4
1 16387 3
1 16388 2
1 16389 2
1 16390 5
1 16391 8
1 16392 57
1 16393 9
1 16394 6
1 16395 3
1 16396 60
1 16397 2
1 16398 4
1 16399 1
1 16400 2
1 16401 7
1 16402 3
1 16403 1
1 16404 29
1 16405 9
1 16406 42
1 16407 78
1 16408 1
1 16409 3
1 16410 3
1 16411 40
1 16412 4
1 16413 5
1 16414 30
1 16415 20
1 16416 4
1 16417 43
1 16418 11
1 16419 3
1 16420 14
1 16421 4
1 16422 2
1 16423 24
1 16424 22
1 16425 13
1 16426 2
1 16427 67
1 16428 3
1 16429 4
1 16430 15
1 16431 3
1 16432 19
1 16433 43
1 16434 4
1 16435 14
1 16436 6
1 16438 3
1 16439 1
1 16440 1
1 16441 3
1 16443 6
1 16444 11
1 16445 3
1 16446 4
1 16447 2
1 16448 72
1 16449 3
1 16451 23
1 16452 12
1 16453 34
1 16454 59
1 16455 34
1 16456 2
1 16457 36
1 16458 3
1 16459 3
1 16460 3
1 16461 16
1 16462 11
1 16463 32
1 16464 205
1 16465 1
1 16466 12
1 16467 13
1 16468 5
1 16469 1057
1 16470 2
1 16471 3
1 16472 7
1 16473 4
1 16474 4
1 16475 7
1 16476 6
1 16477 3
1 16478 28
1 16479 5
1 16480 9
1 16481 2
1 16482 2
1 16483 5
1 16484 36
1 16485 10
1 16486 1
1 16487 2
1 16489 35
1 16490 3
1 16491 334
1 16492 8
1 16493 162
1 16494 3
1 16495 14
1 16496 35
1 16497 12
1 16498 11
1 16500 30
1 16501 38
1 16502 6
1 16503 28
1 16504 1
1 16505 11
1 16506 18
1 16507 3
1 16508 5
1 16509 2
1 16511 29
1 16512 10
1 16513 19
1 16514 5
1 16515 2
1 16516 45
1 16517 25
1 16518 2
1 16519 22
1 16520 28
1 16521 43
1 16522 2
1 16523 19
1 16524 13
1 16525 30
1 16526 22
1 16527 3
1 16528 12
1 16529 4
1 16530 14
1 16531 2
1 16532 5
1 16533 1
1 16534 17
1 16535 16
1 16536 3
1 16537 2
1 16538 7
1 16539 10
1 16540 4
1 16541 6
1 16543 17
1 16544 15
1 16545 159
1 16546 41
1 16547 4
1 16548 3
1 16549 51
1 16550 18
1 16551 13
1 16552 37
1 16553 36
1 16554 2
1 16555 40
1 16556 6
1 16557 2
1 16558 3
1 16559 22
1 16560 13
1 16561 3
1 16562 35
1 16563 3
1 16564 15
1 16565 6
1 16566 9
1 16567 5
1 16568 4
1 16569 42
1 16570 30
1 16571 2
1 16572 11
1 16573 2
1 16574 19
1 16575 21
1 16576 3
1 16577 4
1 16578 17
1 16579 4
1 16580 1
1 16581 3
1 16582 18
1 16583 4
1 16584 7
1 16585 4
1 16586 11
1 16587 548
1 16588 1
1 16589 4
1 16590 13
1 16591 7
1 16592 18
1 16593 3
1 16594 16
1 16595 17
1 16596 6
1 16597 4
1 16598 5
2 1 52
2 2 3
2 3 8
2 4 191
2 5 109
2 6 55
2 7 808
2 8 53
2 9 143
2 10 7
2 11 98
2 12 3
2 13 106
2 14 94
2 15 5
2 16 4
2 17 11
2 18 135
2 19 261
2 20 8
2 21 4
2 22 147
2 23 14
2 24 129
2 25 10
2 26 258
2 27 11
2 28 28
2 29 5
2 30 112
2 31 7
2 32 144
2 33 59
2 34 101
2 35 2
2 36 4
2 37 5
2 38 85
2 39 5
2 40 16
2 41 83
2 42 5
2 43 4
2 44 39
2 45 4
2 46 10
2 47 64
2 48 5
2 49 2
2 50 3
2 51 32
2 52 11
2 53 117
2 54 99
2 55 52
2 56 24
2 57 36
2 58 6
2 59 5
2 60 8
2 61 73
2 62 3
2 63 5
2 64 49
2 65 8
2 66 6
2 67 8
2 68 9
2 69 7
2 70 7
2 71 46
2 72 5
2 73 63
2 74 35
2 75 85
2 76 47
2 77 6
2 78 13
2 79 64
2 80 5
2 81 74
2 82 5
2 83 72
2 84 69
2 85 45
2 86 125
2 87 7
2 88 43
2 89 32
2 90 82
2 91 97
2 92 96
2 93 9
2 94 5
2 95 31
2 96 3
2 97 4
2 98 1024
2 99 140
2 100 6
2 101 51
2 102 4
2 103 65
2 104 103
2 105 157
2 106 68
2 107 5
2 108 4
2 109 1076
2 110 7
2 111 5
2 112 901
2 113 88
2 114 113
2 115 24
2 116 55
2 117 29
2 118 10
2 119 6
2 120 38
2 121 8
2 122 7
2 123 10
2 124 8
2 125 2
2 126 6
2 127 50
2 128 8
2 129 10
2 130 71
2 131 46
2 132 72
2 133 9
2 134 107
2 135 71
2 136 73
2 137 3
2 138 4
2 139 2
2 140 6
2 141 7
2 142 8
2 143 108
2 144 2
2 145 13
2 146 2
2 147 60
2 148 22
2 149 68
2 150 6
2 151 6
2 152 51
2 153 66
2 154 35
2 155 7
2 156 58
2 157 49
2 158 489
2 159 19
2 160 5
2 161 30
2 162 4
2 163 3
2 164 109
2 165 68
2 166 3
2 167 12
2 168 67
2 169 5
2 170 127
2 171 7
2 172 6
2 173 59
2 174 9
2 175 171
2 176 80
2 177 19
2 178 32
2 179 2
2 180 32
2 181 3
2 182 6
2 183 75
2 184 39
2 185 151
2 186 34
2 187 109
2 188 8
2 189 8
2 190 85
2 191 41
2 192 84
2 193 47
2 194 126
2 195 93
2 196 5
2 197 183
2 198 8
2 199 4
2 200 70
2 201 58
2 202 38
2 203 6
2 204 53
2 205 23
2 206 27
2 207 43
2 208 47
2 209 2
2 210 6
2 211 5
2 212 39
2 213 2
2 214 922
2 215 7
2 216 3
2 217 68
2 218 7
2 219 11
2 220 47
2 221 7
2 222 9
2 223 133
2 224 53
2 225 4
2 226 3
2 227 123
2 228 195
2 229 126
2 230 70
2 231 7
2 232 207
2 233 4
2 234 4
2 235 9
2 236 49
2 237 8
2 238 83
2 239 91
2 240 6
2 241 155
2 242 866
2 243 74
2 244 7
2 245 16
2 246 7
2 247 6
2 248 10
2 249 85
2 250 16
2 251 7
2 252 46
2 253 6
2 254 566
2 255 4
2 256 96
2 257 40
2 258 97
2 259 4
2 260 44
2 261 69
2 262 12
2 263 103
2 264 67
2 265 6
2 266 4
2 267 614
2 268 36
2 269 114
2 270 113
2 271 8
2 272 34
2 273 7
2 274 5
2 275 8
2 276 2
2 277 4
2 278 7
2 279 5
2 280 6
2 281 85
2 282 5
2 283 95
2 284 27
2 285 97
2 286 116
2 287 6
2 288 92
2 289 27
2 290 124
2 291 4
2 292 51
2 293 58
2 294 43
2 295 6
2 296 28
2 297 63
2 298 90
2 299 104
2 300 3
2 301 58
2 302 151
2 303 81
2 304 110
2 305 5
2 306 84
2 307 7
2 308 31
2 309 65
2 310 9
2 311 110
2 312 65
2 313 90
2 314 114
2 315 3
2 316 11
2 317 6
2 318 41
2 319 10
2 320 86
2 321 36
2 322 63
2 323 5
2 324 36
2 325 1085
2 326 8
2 327 6
2 328 2
2 329 82
2 330 8
2 331 114
2 332 78
2 333 4
2 334 3
2 335 18
2 336 114
2 337 73
2 338 9
2 339 75
2 340 3
2 341 115
2 342 43
2 343 72
2 344 107
2 345 5
2 346 64
2 347 54
2 348 122
2 349 81
2 350 29
2 351 126
2 352 7
2 353 1
2 354 66
2 355 79
2 356 7
2 357 7
2 358 53
2 359 89
2 360 6
2 361 10
2 362 11
2 363 8
2 364 29
2 365 13
2 366 4
2 367 804
2 368 56
2 369 74
2 370 10
2 371 8
2 372 58
2 373 7
2 374 11
2 375 83
2 376 70
2 377 63
2 378 3
2 379 7
2 380 167
2 381 6
2 382 5
2 383 87
2 384 76
2 385 15
2 386 5
2 387 70
2 388 59
2 389 157
2 390 10
2 391 4
2 392 71
2 393 4
2 394 56
2 395 60
2 396 6
2 397 82
2 398 4
2 399 6
2 400 8
2 401 6
2 402 101
2 403 88
2 404 6
2 405 4
2 406 39
2 407 87
2 408 21
2 409 83
2 410 7
2 411 7
2 412 157
2 413 9
2 414 65
2 415 235
2 416 6
2 417 8
2 418 3
2 419 45
2 420 7
2 421 81
2 422 77
2 423 5
2 424 106
2 425 5
2 426 40
2 427 7
2 428 7
2 429 6
2 430 6
2 431 3
2 432 5
2 433 5
2 434 7
2 435 7
2 436 147
2 437 55
2 438 82
2 439 5
2 440 52
2 441 14
2 442 126
2 443 4
2 444 6
2 445 4
2 446 11
2 447 111
2 448 95
2 449 60
2 450 665
2 451 115
2 452 6
2 453 9
2 454 6
2 455 8
2 456 5
2 457 93
2 458 101
2 459 15
2 460 57
2 461 5
2 462 49
2 463 5
2 464 10
2 465 7
2 466 22
2 467 10
2 468 4
2 469 92
2 470 70
2 471 12
2 472 6
2 473 3
2 474 3
2 475 90
2 476 13
2 477 6
2 478 6
2 479 4
2 480 2
2 481 6
2 482 14
2 483 7
2 484 6
2 485 3
2 486 39
2 487 4
2 488 49
2 489 34
2 490 43
2 491 49
2 492 6
2 493 5
2 494 56
2 495 84
2 496 7
2 497 88
2 498 11
2 499 15
2 500 5
2 501 14
2 502 5
2 503 27
2 504 379
2 505 6
2 506 45
2 507 49
2 508 1053
2 509 4
2 510 56
2 511 6
2 512 9
2 513 21
2 514 107
2 515 21
2 516 52
2 517 39
2 518 1024
2 519 9
2 520 7
2 521 21
2 522 13
2 523 76
2 524 80
2 525 48
2 526 70
2 527 4
2 528 100
2 529 78
2 530 6
2 531 89
2 532 20
2 533 131
2 534 8
2 535 66
2 536 45
2 537 22
2 538 77
2 539 7
2 540 6
2 541 9
2 542 93
2 543 3
2 544 43
2 545 37
2 546 4
2 547 101
2 548 811
2 549 12
2 550 180
2 551 135
2 552 94
2 553 10
2 554 117
2 555 5
2 556 761
2 557 23
2 558 4
2 559 15
2 560 1
2 561 89
2 562 6
2 563 4
2 564 87
2 565 3
2 566 31
2 567 130
2 568 4
2 569 6
2 570 74
2 571 35
2 572 57
2 573 544
2 574 3
2 575 6
2 576 8
2 577 5
2 578 4
2 579 11
2 580 48
2 581 4
2 582 95
2 583 8
2 584 7
2 585 3
2 586 3
2 587 10
2 588 7
2 589 5
2 590 69
2 591 26
2 592 5
2 593 46
2 594 70
2 595 141
2 596 6
2 597 81
2 598 10
2 599 90
2 600 86
2 601 46
2 602 8
2 603 84
2 604 7
2 605 35
2 606 170
2 607 10
2 608 94
2 609 10
2 610 31
2 611 7
2 612 7
2 613 32
2 614 36
2 615 131
2 616 45
2 617 65
2 618 112
2 619 51
2 620 90
2 621 10
2 622 8
2 623 6
2 624 68
2 625 4
2 626 117
2 627 77
2 628 10
2 629 141
2 630 92
2 631 4
2 632 39
2 633 2
2 634 137
2 635 7
2 636 99
2 638 4
2 639 5
2 640 3
2 641 65
2 642 4
2 643 111
2 644 6
2 645 9
2 646 107
2 647 7
2 648 3
2 649 160
2 650 111
2 651 2
2 652 2
2 653 5
2 654 46
2 655 1063
2 656 6
2 657 7
2 658 124
2 659 4
2 660 43
2 661 110
2 662 47
2 663 80
2 664 2
2 665 7
2 666 102
2 667 6
2 668 33
2 669 197
2 670 89
2 671 89
2 672 124
2 673 5
2 674 34
2 675 71
2 676 11
2 677 8
2 678 5
2 679 6
2 680 101
2 681 4
2 682 12
2 683 5
2 684 163
2 685 136
2 686 7
2 687 92
2 688 5
2 689 60
2 690 57
2 691 9
2 692 16
2 693 17
2 694 687
2 695 48
2 696 7
2 697 6
2 698 45
2 699 3
2 700 11
2 701 2
2 702 8
2 703 4
2 704 2
2 705 3
2 706 125
2 707 10
2 708 13
2 709 139
2 710 9
2 711 5
2 712 166
2 713 4
2 714 109
2 715 3
2 716 28
2 717 3
2 718 5
2 719 2
2 720 27
2 721 74
2 722 6
2 723 39
2 724 132
2 725 12
2 726 1
2 727 84
2 728 7
2 729 48
2 730 7
2 731 135
2 732 79
2 733 8
2 734 105
2 735 9
2 736 36
2 737 125
2 738 3
2 739 10
2 740 4
2 741 79
2 742 7
2 743 47
2 744 81
2 745 77
2 746 106
2 747 76
2 748 7
2 749 7
2 750 90
2 751 4
2 752 169
2 753 66
2 754 11
2 755 14
2 756 5
2 757 3
2 758 97
2 759 5
2 760 7
2 761 728
2 762 129
2 763 30
2 764 44
2 765 110
2 766 86
2 767 3
2 768 28
2 769 10
2 770 74
2 771 7
2 772 82
2 773 17
2 774 105
2 775 72
2 776 103
2 777 47
2 778 3
2 779 10
2 780 4
2 781 6
2 782 2
2 783 4
2 784 10
2 785 8
2 786 7
2 787 102
2 788 12
2 789 10
2 790 124
2 791 102
2 792 28
2 793 4
2 794 54
2 795 5
2 796 76
2 797 41
2 798 13
2 799 1013
2 800 10
2 801 137
2 802 118
2 803 8
2 804 8
2 805 92
2 806 72
2 807 5
2 808 6
2 809 63
2 810 8
2 811 5
2 812 54
2 813 1
2 814 124
2 815 9
2 816 72
2 817 27
2 818 7
2 819 120
2 820 79
2 821 4
2 822 9
2 823 34
2 824 36
2 825 34
2 826 92
2 827 52
2 828 101
2 829 135
2 830 78
2 831 62
2 832 81
2 833 4
2 834 45
2 835 10
2 836 7
2 837 48
2 838 130
2 839 7
2 840 76
2 841 9
2 842 4
2 843 66
2 844 51
2 845 37
2 846 160
2 847 8
2 848 87
2 849 5
2 850 76
2 851 4
2 852 57
2 853 6
2 854 16
2 855 2
2 856 67
2 857 40
2 858 143
2 859 53
2 860 4
2 861 6
2 862 152
2 863 42
2 864 8
2 865 120
2 866 14
2 867 8
2 868 113
2 869 88
2 870 38
2 871 62
2 872 43
2 873 13
2 874 68
2 875 790
2 876 6
2 877 3
2 878 15
2 879 86
2 880 155
2 881 11
2 882 54
2 883 67
2 884 158
2 885 79
2 886 13
2 887 133
2 888 102
2 889 11
2 890 8
2 891 7
2 892 102
2 893 8
2 894 5
2 895 5
2 896 126
2 897 27
2 898 7
2 899 112
2 900 13
2 901 17
2 902 85
2 903 17
2 904 15
2 905 35
2 906 17
2 907 140
2 908 64
2 909 90
2 910 12
2 911 143
2 912 11
2 913 13
2 914 21
2 915 141
2 916 11
2 917 4
2 918 12
2 919 12
2 920 77
2 921 7
2 922 21
2 923 71
2 924 213
2 925 69
2 926 163
2 927 264
2 928 150
2 929 5
2 930 23
2 931 10
2 932 16
2 933 21
2 934 11
2 935 20
2 936 9
2 937 153
2 938 254
2 939 143
2 940 13
2 941 198
2 942 175
2 943 155
2 944 30
2 945 12
2 946 12
2 947 14
2 948 148
2 949 3
2 950 9
2 951 87
2 952 94
2 953 9
2 954 8
2 955 17
2 956 12
2 957 4
2 958 261
2 959 179
2 960 76
2 961 10
2 962 7
2 963 36
2 964 2
2 965 139
2 966 9
2 967 160
2 968 10
2 969 162
2 970 6
2 971 21
2 972 85
2 973 6
2 974 87
2 975 13
2 976 9
2 977 52
2 978 114
2 979 10
2 980 5
2 981 4
2 982 98
2 983 2
2 984 3
2 985 71
2 986 58
2 987 88
2 988 8
2 989 3
2 990 74
2 991 8
2 992 64
2 993 3
2 994 131
2 995 41
2 996 58
2 997 4
2 998 7
2 999 82
2 1000 66
2 1001 50
2 1002 8
2 1003 59
2 1004 7
2 1005 10
2 1006 76
2 1007 135
2 1008 9
2 1009 125
2 1010 198
2 1011 80
2 1012 136
2 1013 114
2 1014 84
2 1015 5
2 1016 24
2 1017 69
2 1018 29
2 1019 898
2 1020 43
2 1021 44
2 1022 4
2 1023 68
2 1024 110
2 1025 12
2 1026 30
2 1027 49
2 1028 60
2 1029 6
2 1030 24
2 1031 76
2 1032 41
2 1033 7
2 1034 5
2 1035 3
2 1036 10
2 1037 4
2 1038 3
2 1039 98
2 1040 11
2 1041 140
2 1042 99
2 1043 60
2 1044 79
2 1045 6
2 1046 73
2 1047 39
2 1048 102
2 1049 19
2 1050 6
2 1051 109
2 1052 5
2 1053 10
2 1054 61
2 1055 19
2 1056 8
2 1057 152
2 1058 6
2 1059 343
2 1060 6
2 1061 87
2 1062 123
2 1063 3
2 1064 10
2 1065 2
2 1066 110
2 1067 91
2 1068 11
2 1069 8
2 1070 5
2 1071 99
2 1072 60
2 1073 10
2 1074 3
2 1075 14
2 1076 43
2 1077 4
2 1078 161
2 1079 48
2 1080 79
2 1081 51
2 1082 74
2 1083 582
2 1084 4
2 1085 53
2 1086 158
2 1087 6
2 1088 8
2 1089 3
2 1090 38
2 1091 121
2 1092 431
2 1093 69
2 1094 11
2 1095 87
2 1096 64
2 1097 80
2 1098 61
2 1099 7
2 1100 5
2 1101 28
2 1102 14
2 1103 75
2 1104 14
2 1105 5
2 1106 71
2 1107 1085
2 1108 4
2 1109 6
2 1110 7
2 1111 34
2 1112 5
2 1113 8
2 1114 37
2 1115 32
2 1116 109
2 1117 53
2 1118 4
2 1119 5
2 1120 6
2 1121 7
2 1122 41
2 1123 10
2 1124 6
2 1125 7
2 1126 8
2 1127 7
2 1128 97
2 1129 11
2 1130 5
2 1131 7
2 1132 89
2 1133 6
2 1134 91
2 1135 64
2 1136 5
2 1137 83
2 1138 1019
2 1139 82
2 1140 1076
2 1141 86
2 1142 8
2 1143 10
2 1144 234
2 1145 12
2 1146 122
2 1147 14
2 1148 67
2 1149 64
2 1150 110
2 1151 1
2 1152 81
2 1153 5
2 1154 51
2 1155 79
2 1156 117
2 1157 45
2 1158 5
2 1159 5
2 1160 98
2 1161 9
2 1162 8
2 1163 64
2 1164 1
2 1165 139
2 1166 4
2 1167 4
2 1168 44
2 1169 93
2 1170 105
2 1171 8
2 1172 5
2 1173 8
2 1174 136
2 1175 124
2 1176 46
2 1177 3
2 1178 98
2 1179 7
2 1180 6
2 1181 8
2 1182 4
2 1183 165
2 1184 2
2 1185 7
2 1186 83
2 1187 2
2 1188 53
2 1189 68
2 1190 2
2 1191 7
2 1192 93
2 1193 59
2 1194 106
2 1195 5
2 1196 7
2 1197 86
2 1198 64
2 1199 55
2 1200 37
2 1201 51
2 1202 2
2 1203 51
2 1204 6
2 1205 16
2 1206 3
2 1207 8
2 1208 31
2 1209 6
2 1210 4
2 1211 3
2 1212 127
2 1213 87
2 1214 50
2 1215 9
2 1216 2
2 1217 3
2 1218 6
2 1219 207
2 1220 104
2 1221 5
2 1222 8
2 1223 4
2 1224 164
2 1225 23
2 1226 22
2 1227 68
2 1228 3
2 1229 5
2 1230 7
2 1231 68
2 1232 6
2 1233 1052
2 1234 8
2 1235 13
2 1236 73
2 1237 120
2 1238 141
2 1239 7
2 1240 4
2 1241 866
2 1242 86
2 1243 159
2 1244 37
2 1245 6
2 1246 75
2 1247 10
2 1248 1
2 1249 93
2 1250 30
2 1251 24
2 1252 76
2 1253 80
2 1254 46
2 1255 3
2 1256 8
2 1257 5
2 1258 111
2 1259 70
2 1260 114
2 1261 10
2 1262 2
2 1263 76
2 1264 89
2 1265 5
2 1266 9
2 1267 10
2 1268 90
2 1269 6
2 1270 4
2 1271 9
2 1272 6
2 1273 6
2 1274 87
2 1275 55
2 1276 89
2 1277 9
2 1278 2
2 1279 87
2 1280 43
2 1281 117
2 1282 145
2 1283 6
2 1284 5
2 1285 7
2 1286 108
2 1287 117
2 1288 7
2 1289 50
2 1290 2
2 1291 185
2 1292 96
2 1293 102
2 1294 61
2 1295 14
2 1296 112
2 1297 2
2 1298 395
2 1299 4
2 1300 4
2 1301 8
2 1302 3
2 1303 81
2 1304 1017
2 1305 90
2 1306 9
2 1307 68
2 1308 49
2 1309 6
2 1310 72
2 1311 171
2 1312 8
2 1313 30
2 1314 8
2 1315 51
2 1316 6
2 1317 60
2 1318 100
2 1319 6
2 1320 84
2 1321 92
2 1322 127
2 1323 3
2 1324 7
2 1325 7
2 1326 9
2 1327 10
2 1328 1072
2 1329 8
2 1330 9
2 1331 165
2 1332 57
2 1333 192
2 1334 107
2 1335 360
2 1336 3
2 1337 13
2 1338 91
2 1339 60
2 1340 108
2 1341 29
2 1342 101
2 1343 2
2 1344 73
2 1345 55
2 1346 71
2 1347 43
2 1348 108
2 1349 8
2 1350 4
2 1351 28
2 1352 5
2 1353 113
2 1354 4
2 1355 38
2 1356 29
2 1358 3
2 1359 84
2 1360 99
2 1361 97
2 1362 71
2 1363 8
2 1364 4
2 1365 171
2 1366 154
2 1367 6
2 1368 11
2 1369 11
2 1370 159
2 1371 35
2 1372 3
2 1373 87
2 1374 4
2 1375 22
2 1376 40
2 1377 48
2 1378 58
2 1379 3
2 1380 54
2 1381 6
2 1382 81
2 1383 44
2 1384 390
2 1385 135
2 1386 5
2 1387 41
2 1388 5
2 1389 331
2 1390 13
2 1391 9
2 1392 80
2 1393 58
2 1394 105
2 1395 5
2 1396 64
2 1397 15
2 1398 98
2 1399 105
2 1400 93
2 1401 79
2 1402 56
2 1403 4
2 1404 9
2 1405 7
2 1406 2
2 1407 119
2 1408 5
2 1409 82
2 1410 87
2 1411 87
2 1412 5
2 1413 4
2 1414 121
2 1415 11
2 1416 144
2 1417 64
2 1418 7
2 1419 6
2 1420 3
2 1421 3
2 1422 12
2 1423 67
2 1424 66
2 1425 7
2 1426 63
2 1427 77
2 1428 22
2 1429 10
2 1430 3
2 1431 5
2 1432 6
2 1433 19
2 1434 3
2 1435 25
2 1436 2
2 1437 11
2 1438 170
2 1439 113
2 1440 3
2 1441 3
2 1442 44
2 1443 45
2 1444 4
2 1445 70
2 1446 42
2 1447 10
2 1448 32
2 1449 8
2 1450 5
2 1451 30
2 1452 7
2 1453 6
2 1454 69
2 1455 9
2 1456 81
2 1457 15
2 1458 9
2 1459 12
2 1460 60
2 1461 32
2 1462 70
2 1463 161
2 1464 33
2 1465 4
2 1466 49
2 1467 60
2 1468 2
2 1469 32
2 1470 76
2 1471 3
2 1472 120
2 1473 7
2 1474 46
2 1475 55
2 1476 54
2 1477 23
2 1478 80
2 1479 4
2 1480 3
2 1481 5
2 1482 7
2 1483 6
2 1484 106
2 1485 8
2 1486 4
2 1487 66
2 1488 7
2 1489 20
2 1490 70
2 1491 84
2 1492 133
2 1493 43
2 1494 3
2 1495 181
2 1496 92
2 1497 9
2 1498 20
2 1499 12
2 1500 5
2 1501 42
2 1502 33
2 1503 54
2 1504 48
2 1505 6
2 1506 92
2 1507 6
2 1508 10
2 1509 7
2 1510 814
2 1511 7
2 1512 6
2 1513 40
2 1514 64
2 1515 50
2 1516 102
2 1517 69
2 1518 150
2 1519 6
2 1520 279
2 1521 5
2 1522 5
2 1523 34
2 1524 1066
2 1525 76
2 1526 4
2 1527 142
2 1528 59
2 1529 93
2 1530 57
2 1531 154
2 1532 8
2 1533 47
2 1534 141
2 1535 112
2 1536 41
2 1537 112
2 1538 107
2 1539 38
2 1540 6
2 1541 4
2 1542 6
2 1543 6
2 1544 98
2 1545 10
2 1546 54
2 1547 119
2 1548 5
2 1549 8
2 1550 7
2 1551 5
2 1552 5
2 1553 112
2 1554 1024
2 1555 6
2 1556 5
2 1557 89
2 1558 56
2 1559 5
2 1560 7
2 1561 8
2 1562 7
2 1563 21
2 1564 6
2 1565 2
2 1566 5
2 1567 82
2 1568 6
2 1569 181
2 1570 2
2 1571 130
2 1572 4
2 1573 37
2 1574 4
2 1575 65
2 1576 50
2 1577 4
2 1578 12
2 1579 4
2 1580 161
2 1581 85
2 1582 16
2 1583 140
2 1584 4
2 1585 25
2 1586 6
2 1587 111
2 1588 16
2 1589 114
2 1590 8
2 1591 70
2 1592 6
2 1593 68
2 1594 215
2 1595 3
2 1596 181
2 1597 165
2 1598 174
2 1599 3
2 1600 7
2 1601 11
2 1602 2
2 1603 73
2 1604 5
2 1605 9
2 1606 2
2 1607 73
2 1608 105
2 1609 565
2 1610 5
2 1611 103
2 1612 18
2 1613 58
2 1614 82
2 1615 309
2 1616 10
2 1617 339
2 1618 11
2 1619 114
2 1620 13
2 1621 76
2 1622 5
2 1623 118
2 1624 78
2 1625 42
2 1626 4
2 1627 7
2 1628 56
2 1629 100
2 1630 58
2 1631 10
2 1632 108
2 1633 102
2 1634 5
2 1635 5
2 1636 65
2 1637 15
2 1638 4
2 1639 9
2 1640 84
2 1641 63
2 1642 72
2 1643 40
2 1644 82
2 1645 75
2 1646 35
2 1647 532
2 1648 865
2 1649 106
2 1650 125
2 1651 85
2 1652 116
2 1653 9
2 1654 6
2 1655 34
2 1656 10
2 1657 68
2 1658 2
2 1659 9
2 1660 7
2 1661 7
2 1662 8
2 1663 96
2 1664 5
2 1665 59
2 1666 7
2 1667 108
2 1668 85
2 1669 14
2 1670 30
2 1671 116
2 1672 8
2 1673 37
2 1674 2
2 1675 3
2 1676 63
2 1677 3
2 1678 124
2 1679 105
2 1680 94
2 1681 3
2 1682 30
2 1683 5
2 1684 4
2 1685 101
2 1686 13
2 1687 6
2 1688 110
2 1689 1
2 1690 93
2 1691 82
2 1692 38
2 1693 94
2 1694 8
2 1695 4
2 1696 15
2 1697 3
2 1698 32
2 1699 1052
2 1700 75
2 1701 7
2 1702 92
2 1703 8
2 1704 17
2 1705 4
2 1706 3
2 1707 10
2 1708 24
2 1709 5
2 1710 3
2 1711 32
2 1712 3
2 1713 86
2 1714 65
2 1715 4
2 1716 106
2 1717 12
2 1718 32
2 1719 18
2 1720 795
2 1721 7
2 1722 64
2 1723 67
2 1724 54
2 1725 92
2 1726 81
2 1727 2
2 1728 6
2 1729 46
2 1730 2
2 1731 31
2 1732 99
2 1733 4
2 1734 120
2 1735 138
2 1736 4
2 1737 102
2 1738 28
2 1739 4
2 1740 3
2 1741 89
2 1742 10
2 1743 3
2 1744 21
2 1745 7
2 1746 9
2 1747 39
2 1748 1002
2 1749 63
2 1750 77
2 1751 5
2 1752 24
2 1753 42
2 1754 3
2 1755 10
2 1756 101
2 1757 81
2 1758 84
2 1759 73
2 1760 68
2 1761 465
2 1762 54
2 1763 103
2 1764 368
2 1765 44
2 1766 132
2 1767 32
2 1768 61
2 1769 4
2 1770 35
2 1771 94
2 1772 13
2 1773 3
2 1774 3
2 1775 47
2 1776 3
2 1777 10
2 1778 51
2 1779 3
2 1780 6
2 1781 8
2 1782 32
2 1783 6
2 1784 163
2 1785 58
2 1786 3
2 1787 41
2 1788 4
2 1789 82
2 1790 7
2 1791 1073
2 1792 132
2 1793 113
2 1794 4
2 1795 10
2 1796 3
2 1797 80
2 1798 170
2 1799 41
2 1800 9
2 1801 124
2 1802 27
2 1803 8
2 1804 4
2 1805 7
2 1806 69
2 1807 4
2 1808 64
2 1809 48
2 1810 5
2 1811 127
2 1812 8
2 1813 164
2 1814 109
2 1815 62
2 1816 5
2 1817 3
2 1818 133
2 1819 8
2 1820 2
2 1821 13
2 1822 5
2 1823 138
2 1824 6
2 1825 185
2 1826 3
2 1827 4
2 1828 5
2 1829 63
2 1830 35
2 1831 33
2 1832 176
2 1833 8
2 1834 6
2 1835 23
2 1836 5
2 1837 289
2 1838 5
2 1839 9
2 1840 16
2 1841 8
2 1842 41
2 1843 68
2 1844 3
2 1845 9
2 1846 3
2 1847 92
2 1848 75
2 1849 3
2 1850 4
2 1851 6
2 1852 91
2 1853 13
2 1854 108
2 1855 65
2 1856 48
2 1857 7
2 1858 51
2 1859 135
2 1860 13
2 1861 110
2 1862 102
2 1863 3
2 1864 7
2 1865 49
2 1866 105
2 1867 87
2 1868 66
2 1869 107
2 1870 6
2 1871 24
2 1872 72
2 1873 65
2 1874 89
2 1875 137
2 1876 107
2 1877 4
2 1878 7
2 1879 114
2 1880 7
2 1881 5
2 1882 55
2 1883 83
2 1884 5
2 1885 4
2 1886 162
2 1887 5
2 1888 2
2 1889 25
2 1890 23
2 1891 75
2 1892 7
2 1893 87
2 1894 97
2 1895 31
2 1896 1050
2 1897 106
2 1898 71
2 1899 6
2 1900 5
2 1901 7
2 1902 7
2 1903 12
2 1904 12
2 1905 8
2 1906 31
2 1907 58
2 1908 69
2 1909 5
2 1910 85
2 1911 64
2 1912 5
2 1913 70
2 1914 3
2 1915 27
2 1916 41
2 1917 5
2 1918 3
2 1919 71
2 1920 46
2 1921 82
2 1922 3
2 1923 57
2 1924 235
2 1925 67
2 1926 103
2 1927 2
2 1928 4
2 1929 61
2 1930 93
2 1931 23
2 1932 29
2 1933 179
2 1934 6
2 1935 9
2 1936 21
2 1937 412
2 1938 48
2 1939 8
2 1940 3
2 1941 13
2 1942 106
2 1943 6
2 1944 20
2 1945 31
2 1946 104
2 1947 64
2 1948 34
2 1949 9
2 1950 3
2 1951 94
2 1952 48
2 1953 102
2 1954 95
2 1955 5
2 1956 15
2 1957 61
2 1958 136
2 1959 73
2 1960 52
2 1961 8
2 1962 4
2 1963 118
2 1964 76
2 1965 3
2 1966 26
2 1967 33
2 1968 4
2 1969 4
2 1970 76
2 1971 635
2 1972 26
2 1973 87
2 1974 120
2 1975 62
2 1976 10
2 1977 3
2 1978 18
2 1979 89
2 1980 60
2 1981 72
2 1982 8
2 1983 6
2 1984 2
2 1985 4
2 1986 133
2 1987 56
2 1988 657
2 1989 27
2 1990 1
2 1991 89
2 1992 83
2 1993 7
2 1994 60
2 1995 34
2 1996 12
2 1997 4
2 1998 70
2 1999 77
2 2000 912
2 2001 91
2 2002 3
2 2003 124
2 2004 143
2 2005 54
2 2006 84
2 2007 2
2 2008 53
2 2009 35
2 2010 2
2 2011 3
2 2012 190
2 2013 3
2 2014 7
2 2015 92
2 2016 53
2 2017 3
2 2018 9
2 2019 56
2 2020 101
2 2021 7
2 2022 49
2 2023 5
2 2024 54
2 2025 3
2 2026 6
2 2027 121
2 2028 32
2 2029 140
2 2030 15
2 2031 9
2 2032 7
2 2033 2
2 2034 150
2 2035 70
2 2036 84
2 2037 152
2 2038 7
2 2039 146
2 2040 96
2 2041 116
2 2042 75
2 2043 1
2 2044 1
2 2045 885
2 2046 44
2 2047 59
2 2048 5
2 2049 60
2 2050 108
2 2051 14
2 2052 83
2 2053 164
2 2054 46
2 2055 7
2 2056 3
2 2057 8
2 2058 9
2 2059 9
2 2060 8
2 2061 36
2 2062 2
2 2063 756
2 2064 66
2 2065 708
2 2066 10
2 2067 8
2 2068 5
2 2069 147
2 2070 497
2 2071 10
2 2072 60
2 2073 4
2 2074 6
2 2075 128
2 2076 92
2 2077 173
2 2078 74
2 2079 56
2 2080 4
2 2081 65
2 2082 27
2 2083 56
2 2084 7
2 2085 7
2 2086 61
2 2087 9
2 2088 42
2 2089 4
2 2090 129
2 2091 6
2 2092 78
2 2093 7
2 2094 8
2 2095 3
2 2096 2
2 2097 102
2 2098 3
2 2099 5
2 2100 5
2 2101 154
2 2102 2
2 2103 5
2 2104 52
2 2105 884
2 2106 34
2 2107 8
2 2108 9
2 2109 367
2 2110 36
2 2111 10
2 2112 11
2 2113 82
2 2114 8
2 2115 14
2 2116 5
2 2117 8
2 2118 5
2 2119 11
2 2120 589
2 2121 8
2 2122 95
2 2123 5
2 2124 3
2 2125 41
2 2126 7
2 2127 3
2 2128 89
2 2129 8
2 2130 10
2 2131 242
2 2132 7
2 2133 99
2 2134 71
2 2135 6
2 2136 78
2 2137 2
2 2138 25
2 2139 117
2 2140 80
2 2141 94
2 2142 3
2 2143 16
2 2144 5
2 2145 78
2 2146 5
2 2147 49
2 2148 100
2 2149 10
2 2150 31
2 2151 23
2 2152 571
2 2153 11
2 2154 7
2 2155 55
2 2156 700
2 2157 42
2 2158 4
2 2159 6
2 2160 113
2 2161 5
2 2162 70
2 2163 956
2 2164 145
2 2165 3
2 2166 42
2 2167 3
2 2168 103
2 2169 140
2 2170 8
2 2171 73
2 2172 60
2 2173 7
2 2174 9
2 2175 176
2 2176 24
2 2177 79
2 2178 69
2 2179 948
2 2180 3
2 2181 122
2 2182 5
2 2183 5
2 2184 7
2 2185 77
2 2186 38
2 2187 5
2 2188 111
2 2189 128
2 2190 72
2 2191 5
2 2192 188
2 2193 80
2 2194 6
2 2195 12
2 2196 3
2 2197 6
2 2198 36
2 2199 19
2 2200 2
2 2201 50
2 2202 3
2 2203 7
2 2204 79
2 2205 9
2 2206 15
2 2207 42
2 2208 39
2 2209 52
2 2210 72
2 2211 65
2 2212 43
2 2213 12
2 2214 64
2 2215 4
2 2216 132
2 2217 56
2 2218 7
2 2219 23
2 2220 64
2 2221 8
2 2222 106
2 2223 16
2 2224 32
2 2225 8
2 2226 91
2 2227 147
2 2228 11
2 2229 72
2 2230 5
2 2231 20
2 2232 3
2 2233 4
2 2234 4
2 2235 15
2 2236 26
2 2237 5
2 2238 260
2 2239 3
2 2240 8
2 2241 110
2 2242 5
2 2243 33
2 2244 54
2 2245 10
2 2246 88
2 2247 83
2 2248 10
2 2249 10
2 2250 59
2 2251 4
2 2253 2
2 2254 40
2 2255 60
2 2256 52
2 2257 5
2 2258 3
2 2259 2
2 2260 7
2 2261 66
2 2262 5
2 2263 6
2 2264 5
2 2265 7
2 2266 2
2 2267 4
2 2268 1
2 2269 1
2 2270 20
2 2271 119
2 2272 4
2 2273 10
2 2274 68
2 2275 89
2 2276 77
2 2277 8
2 2278 117
2 2279 117
2 2280 7
2 2281 99
2 2282 52
2 2283 8
2 2284 91
2 2285 4
2 2286 11
2 2287 59
2 2288 6
2 2289 85
2 2290 7
2 2291 68
2 2292 83
2 2293 6
2 2294 117
2 2295 96
2 2296 21
2 2297 5
2 2298 7
2 2299 90
2 2300 4
2 2301 77
2 2302 3
2 2303 81
2 2304 9
2 2305 222
2 2306 165
2 2307 27
2 2308 10
2 2309 36
2 2310 119
2 2311 75
2 2312 13
2 2313 5
2 2314 10
2 2315 7
2 2316 97
2 2317 98
2 2318 79
2 2319 5
2 2320 4
2 2321 21
2 2322 1
2 2323 156
2 2324 27
2 2325 12
2 2326 8
2 2327 748
2 2328 128
2 2329 115
2 2330 33
2 2331 84
2 2332 7
2 2333 76
2 2334 68
2 2335 123
2 2336 77
2 2337 7
2 2338 77
2 2339 7
2 2340 26
2 2341 6
2 2342 97
2 2343 13
2 2344 107
2 2345 14
2 2346 6
2 2347 61
2 2348 8
2 2349 3
2 2350 988
2 2351 179
2 2352 101
2 2353 6
2 2354 95
2 2355 94
2 2356 8
2 2357 138
2 2358 11
2 2359 3
2 2360 88
2 2361 3
2 2362 109
2 2363 110
2 2364 45
2 2365 6
2 2366 47
2 2367 7
2 2368 80
2 2369 36
2 2370 3
2 2371 7
2 2372 55
2 2373 5
2 2374 9
2 2375 213
2 2376 7
2 2377 2
2 2378 80
2 2379 12
2 2380 77
2 2381 69
2 2382 65
2 2383 108
2 2384 83
2 2385 132
2 2386 151
2 2387 3
2 2388 3
2 2389 5
2 2390 105
2 2391 7
2 2392 88
2 2393 25
2 2394 558
2 2395 92
2 2396 6
2 2397 2
2 2398 5
2 2399 6
2 2400 101
2 2401 4
2 2402 177
2 2403 6
2 2404 4
2 2405 218
2 2406 5
2 2407 139
2 2408 63
2 2409 4
2 2410 207
2 2411 6
2 2412 74
2 2413 4
2 2414 3
2 2415 77
2 2416 43
2 2417 3
2 2418 44
2 2419 68
2 2420 5
2 2421 7
2 2422 104
2 2423 113
2 2424 3
2 2425 52
2 2426 131
2 2427 141
2 2428 187
2 2429 9
2 2430 11
2 2431 3
2 2432 138
2 2433 104
2 2434 64
2 2435 11
2 2436 58
2 2437 44
2 2438 10
2 2439 51
2 2440 52
2 2441 111
2 2442 11
2 2443 101
2 2444 6
2 2445 77
2 2446 122
2 2447 51
2 2448 155
2 2449 6
2 2450 81
2 2451 5
2 2452 16
2 2453 35
2 2454 48
2 2455 4
2 2456 8
2 2457 8
2 2458 64
2 2459 47
2 2460 96
2 2461 44
2 2462 147
2 2463 3
2 2464 10
2 2465 7
2 2466 96
2 2467 61
2 2468 19
2 2469 97
2 2470 71
2 2471 46
2 2472 65
2 2473 8
2 2474 121
2 2475 86
2 2476 9
2 2477 85
2 2478 75
2 2479 335
2 2480 1
2 2481 90
2 2482 4
2 2483 7
2 2484 4
2 2485 34
2 2486 75
2 2487 2
2 2488 3
2 2489 43
2 2490 55
2 2491 6
2 2492 48
2 2493 4
2 2494 27
2 2495 33
2 2496 6
2 2497 35
2 2498 73
2 2499 4
2 2500 7
2 2501 103
2 2502 1070
2 2503 3
2 2504 4
2 2505 3
2 2506 34
2 2507 2
2 2508 4
2 2509 76
2 2510 7
2 2511 82
2 2512 87
2 2513 4
2 2514 8
2 2515 86
2 2516 9
2 2517 7
2 2518 87
2 2519 62
2 2520 6
2 2521 39
2 2522 56
2 2523 70
2 2524 51
2 2525 68
2 2526 8
2 2527 4
2 2528 602
2 2529 90
2 2531 1091
2 2532 8
2 2533 3
2 2534 71
2 2535 3
2 2536 64
2 2537 10
2 2538 52
2 2539 43
2 2540 3
2 2541 4
2 2542 7
2 2543 10
2 2544 7
2 2545 62
2 2546 6
2 2547 122
2 2548 61
2 2549 47
2 2550 148
2 2551 87
2 2552 5
2 2553 164
2 2554 42
2 2555 2
2 2556 80
2 2557 84
2 2558 57
2 2559 80
2 2560 6
2 2561 97
2 2562 5
2 2563 36
2 2564 58
2 2565 4
2 2566 219
2 2567 32
2 2568 72
2 2569 47
2 2570 66
2 2571 7
2 2572 4
2 2573 133
2 2574 71
2 2575 1102
2 2576 3
2 2577 91
2 2578 6
2 2579 5
2 2580 6
2 2581 55
2 2582 8
2 2583 39
2 2584 57
2 2585 4
2 2586 133
2 2587 112
2 2588 10
2 2589 112
2 2590 833
2 2591 8
2 2592 69
2 2593 22
2 2594 7
2 2595 11
2 2596 115
2 2597 5
2 2598 50
2 2599 46
2 2600 10
2 2601 8
2 2602 40
2 2603 29
2 2604 78
2 2605 1
2 2606 8
2 2607 132
2 2608 85
2 2609 240
2 2610 5
2 2611 5
2 2612 8
2 2613 860
2 2614 3
2 2615 736
2 2616 129
2 2617 8
2 2618 90
2 2619 1
2 2620 40
2 2621 4
2 2622 30
2 2623 91
2 2624 23
2 2625 15
2 2626 115
2 2627 679
2 2628 70
2 2629 49
2 2630 117
2 2631 48
2 2632 5
2 2633 3
2 2634 44
2 2635 2
2 2636 2
2 2637 8
2 2638 5
2 2639 20
2 2640 46
2 2641 2
2 2642 7
2 2643 8
2 2644 2
2 2645 45
2 2646 77
2 2647 10
2 2648 8
2 2649 8
2 2650 1
2 2651 149
2 2652 65
2 2653 69
2 2654 1
2 2655 64
2 2656 10
2 2657 6
2 2658 67
2 2659 3
2 2660 76
2 2661 5
2 2662 97
2 2663 59
2 2664 110
2 2665 8
2 2666 6
2 2667 7
2 2668 105
2 2669 49
2 2670 4
2 2671 7
2 2672 70
2 2673 93
2 2674 7
2 2675 5
2 2676 5
2 2677 341
2 2678 6
2 2679 6
2 2680 8
2 2682 22
2 2683 58
2 2684 30
2 2685 5
2 2686 7
2 2687 5
2 2688 91
2 2689 76
2 2690 7
2 2691 2
2 2692 81
2 2693 11
2 2694 92
2 2695 67
2 2696 36
2 2697 4
2 2698 3
2 2699 93
2 2700 6
2 2701 1048
2 2702 126
2 2703 8
2 2704 8
2 2705 15
2 2706 90
2 2707 86
2 2708 79
2 2709 86
2 2710 118
2 2711 6
2 2712 3
2 2713 11
2 2714 8
2 2715 6
2 2716 12
2 2717 21
2 2718 7
2 2719 9
2 2720 11
2 2721 38
2 2722 122
2 2723 26
2 2724 2
2 2725 6
2 2726 104
2 2727 8
2 2728 105
2 2729 3
2 2730 11
2 2731 7
2 2732 6
2 2733 6
2 2734 9
2 2735 41
2 2736 7
2 2737 4
2 2738 61
2 2739 4
2 2740 148
2 2741 61
2 2742 103
2 2743 385
2 2744 105
2 2745 6
2 2746 174
2 2747 6
2 2748 28
2 2749 65
2 2750 77
2 2751 17
2 2752 140
2 2753 53
2 2754 116
2 2755 8
2 2756 3
2 2757 89
2 2758 53
2 2759 68
2 2760 10
2 2761 137
2 2762 3
2 2763 76
2 2764 118
2 2765 35
2 2766 1
2 2767 40
2 2768 131
2 2769 21
2 2770 129
2 2771 3
2 2772 91
2 2773 70
2 2774 140
2 2775 48
2 2776 36
2 2777 90
2 2778 9
2 2779 2
2 2780 9
2 2781 2
2 2782 33
2 2783 56
2 2784 4
2 2785 34
2 2786 7
2 2787 4
2 2788 760
2 2789 85
2 2790 3
2 2791 75
2 2792 13
2 2793 5
2 2794 65
2 2795 5
2 2796 131
2 2797 37
2 2798 83
2 2799 114
2 2800 13
2 2801 88
2 2802 94
2 2803 5
2 2804 6
2 2805 100
2 2806 48
2 2807 7
2 2808 10
2 2809 61
2 2810 8
2 2811 85
2 2812 45
2 2813 6
2 2814 92
2 2815 62
2 2816 81
2 2817 101
2 2818 11
2 2819 7
2 2820 51
2 2821 94
2 2822 71
2 2823 38
2 2824 6
2 2825 151
2 2826 9
2 2827 10
2 2828 20
2 2829 673
2 2830 5
2 2831 25
2 2832 98
2 2833 11
2 2834 108
2 2835 11
2 2836 9
2 2837 38
2 2838 3
2 2839 90
2 2840 10
2 2841 7
2 2842 4
2 2843 30
2 2844 93
2 2845 28
2 2846 4
2 2847 9
2 2848 104
2 2849 83
2 2850 77
2 2851 7
2 2852 29
2 2853 58
2 2854 67
2 2855 22
2 2856 9
2 2857 3
2 2858 79
2 2859 7
2 2860 12
2 2861 7
2 2862 71
2 2863 8
2 2864 994
2 2865 42
2 2866 4
2 2867 6
2 2868 53
2 2869 57
2 2870 51
2 2871 7
2 2872 60
2 2873 8
2 2874 34
2 2875 8
2 2876 69
2 2877 23
2 2878 131
2 2879 11
2 2880 87
2 2881 45
2 2882 6
2 2883 6
2 2884 53
2 2885 217
2 2886 8
2 2887 4
2 2888 1074
2 2889 137
2 2890 5
2 2891 6
2 2892 65
2 2893 85
2 2894 72
2 2895 41
2 2896 5
2 2897 50
2 2898 15
2 2899 112
2 2900 8
2 2901 53
2 2902 6
2 2903 82
2 2904 10
2 2905 5
2 2906 4
2 2907 28
2 2908 926
2 2909 147
2 2910 5
2 2911 7
2 2912 5
2 2913 3
2 2914 4
2 2915 2
2 2916 6
2 2917 2
2 2918 92
2 2919 12
2 2920 5
2 2921 14
2 2922 1046
2 2923 32
2 2924 94
2 2925 96
2 2926 2
2 2927 5
2 2928 12
2 2929 81
2 2930 171
2 2931 38
2 2932 6
2 2933 9
2 2934 132
2 2935 115
2 2936 6
2 2937 56
2 2938 7
2 2939 4
2 2940 7
2 2941 7
2 2942 8
2 2943 2
2 2944 73
2 2945 91
2 2946 104
2 2947 50
2 2948 86
2 2949 5
2 2950 1043
2 2951 6
2 2952 1052
2 2953 10
2 2954 6
2 2955 5
2 2956 155
2 2957 6
2 2958 55
2 2959 140
2 2960 6
2 2961 5
2 2962 29
2 2963 75
2 2964 50
2 2965 56
2 2966 11
2 2967 87
2 2968 21
2 2969 10
2 2970 103
2 2971 14
2 2972 4
2 2973 49
2 2974 12
2 2975 6
2 2976 46
2 2977 48
2 2978 7
2 2979 134
2 2980 48
2 2981 79
2 2982 60
2 2983 5
2 2984 3
2 2985 11
2 2986 41
2 2987 98
2 2988 5
2 2989 62
2 2990 1060
2 2991 10
2 2992 41
2 2993 3
2 2994 47
2 2995 47
2 2996 3
2 2997 94
2 2998 2
2 2999 140
2 3000 34
2 3001 17
2 3002 26
2 3003 7
2 3004 76
2 3005 3
2 3006 80
2 3007 4
2 3008 8
2 3009 5
2 3010 95
2 3011 44
2 3012 44
2 3013 11
2 3014 4
2 3015 7
2 3016 43
2 3017 59
2 3018 40
2 3019 9
2 3020 107
2 3021 235
2 3022 729
2 3023 16
2 3024 1
2 3025 3
2 3026 41
2 3027 31
2 3028 128
2 3029 124
2 3030 10
2 3031 48
2 3032 10
2 3033 4
2 3034 38
2 3035 55
2 3036 89
2 3037 7
2 3038 47
2 3039 4
2 3040 8
2 3041 6
2 3042 87
2 3043 2
2 3044 82
2 3045 2
2 3046 63
2 3047 42
2 3048 104
2 3050 101
2 3051 2
2 3052 139
2 3053 35
2 3054 5
2 3055 118
2 3056 77
2 3057 222
2 3058 7
2 3059 76
2 3060 5
2 3061 398
2 3062 3
2 3063 6
2 3064 53
2 3065 5
2 3066 61
2 3067 2
2 3068 4
2 3069 118
2 3070 59
2 3071 58
2 3072 48
2 3073 8
2 3074 4
2 3075 72
2 3076 751
2 3077 999
2 3078 154
2 3079 7
2 3080 108
2 3081 20
2 3082 65
2 3083 4
2 3084 119
2 3085 21
2 3086 1
2 3087 101
2 3088 84
2 3089 42
2 3090 46
2 3091 563
2 3092 10
2 3093 8
2 3094 116
2 3095 75
2 3096 8
2 3097 38
2 3098 113
2 3099 82
2 3100 12
2 3101 73
2 3102 8
2 3103 3
2 3104 3
2 3105 9
2 3106 832
2 3107 3
2 3108 40
2 3109 63
2 3110 69
2 3111 13
2 3112 5
2 3113 20
2 3114 109
2 3115 4
2 3116 12
2 3117 9
2 3118 6
2 3119 991
2 3120 11
2 3121 778
2 3122 103
2 3123 6
2 3124 8
2 3125 4
2 3126 73
2 3127 60
2 3128 84
2 3129 75
2 3130 11
2 3131 2
2 3132 77
2 3133 97
2 3134 168
2 3135 4
2 3136 78
2 3137 7
2 3138 45
2 3139 29
2 3140 563
2 3141 50
2 3142 61
2 3143 6
2 3144 176
2 3145 96
2 3146 385
2 3147 23
2 3148 50
2 3149 7
2 3150 4
2 3151 4
2 3152 7
2 3153 9
2 3154 115
2 3155 107
2 3156 4
2 3157 7
2 3158 100
2 3159 46
2 3160 5
2 3161 7
2 3162 122
2 3163 35
2 3164 2
2 3165 2
2 3166 64
2 3167 103
2 3168 5
2 3169 4
2 3170 3
2 3171 4
2 3172 141
2 3173 34
2 3174 39
2 3175 4
2 3176 9
2 3177 48
2 3178 126
2 3179 12
2 3180 3
2 3181 1053
2 3182 19
2 3183 34
2 3184 9
2 3185 3
2 3186 93
2 3187 22
2 3188 182
2 3189 58
2 3190 109
2 3191 6
2 3192 10
2 3193 68
2 3194 3
2 3195 60
2 3196 7
2 3197 5
2 3198 183
2 3199 14
2 3200 50
2 3201 2
2 3202 7
2 3203 81
2 3204 5
2 3205 11
2 3206 1
2 3207 4
2 3208 6
2 3209 1
2 3210 66
2 3211 36
2 3212 65
2 3213 96
2 3214 4
2 3215 7
2 3216 71
2 3217 2
2 3218 20
2 3219 9
2 3220 6
2 3221 84
2 3222 5
2 3223 7
2 3224 6
2 3225 7
2 3226 3
2 3227 92
2 3228 14
2 3229 12
2 3230 22
2 3231 76
2 3232 76
2 3233 8
2 3234 51
2 3235 5
2 3236 5
2 3237 85
2 3238 8
2 3239 42
2 3240 92
2 3241 76
2 3242 5
2 3243 40
2 3244 3
2 3245 6
2 3246 107
2 3247 4
2 3248 4
2 3249 96
2 3250 27
2 3251 174
2 3252 72
2 3253 86
2 3254 7
2 3255 5
2 3256 92
2 3257 898
2 3258 34
2 3259 33
2 3260 5
2 3261 12
2 3262 6
2 3263 16
2 3264 95
2 3265 83
2 3266 176
2 3267 6
2 3268 1
2 3269 13
2 3270 147
2 3271 119
2 3272 4
2 3273 78
2 3274 6
2 3275 67
2 3276 6
2 3277 79
2 3278 15
2 3279 118
2 3280 10
2 3281 215
2 3282 65
2 3283 2
2 3284 21
2 3285 11
2 3286 10
2 3287 4
2 3288 65
2 3289 5
2 3290 15
2 3291 6
2 3292 138
2 3293 7
2 3294 54
2 3295 4
2 3296 91
2 3297 39
2 3298 6
2 3299 33
2 3300 6
2 3301 45
2 3302 12
2 3303 6
2 3304 166
2 3305 121
2 3306 10
2 3307 149
2 3308 75
2 3309 102
2 3310 44
2 3311 87
2 3312 96
2 3313 7
2 3314 3
2 3315 98
2 3316 98
2 3317 99
2 3318 4
2 3319 8
2 3320 10
2 3321 37
2 3322 29
2 3323 104
2 3324 54
2 3325 81
2 3326 63
2 3327 134
2 3328 8
2 3329 6
2 3330 2
2 3331 85
2 3332 8
2 3333 146
2 3334 1
2 3335 56
2 3336 91
2 3337 5
2 3338 57
2 3339 5
2 3340 7
2 3341 5
2 3342 80
2 3343 5
2 3344 6
2 3345 166
2 3346 131
2 3347 168
2 3348 79
2 3349 498
2 3350 64
2 3351 148
2 3352 77
2 3353 225
2 3354 88
2 3355 88
2 3356 55
2 3357 76
2 3358 6
2 3359 96
2 3360 14
2 3361 8
2 3362 4
2 3363 7
2 3364 7
2 3365 5
2 3366 37
2 3367 89
2 3368 5
2 3369 6
2 3370 2
2 3371 121
2 3372 6
2 3373 10
2 3374 1096
2 3375 110
2 3376 58
2 3377 10
2 3378 40
2 3379 4
2 3380 97
2 3381 7
2 3382 31
2 3383 3
2 3384 528
2 3385 10
2 3386 160
2 3387 7
2 3388 2
2 3389 46
2 3390 9
2 3391 9
2 3392 46
2 3393 73
2 3394 179
2 3395 115
2 3396 2
2 3397 11
2 3398 4
2 3399 965
2 3400 29
2 3401 95
2 3402 3
2 3403 71
2 3404 65
2 3405 9
2 3406 4
2 3407 21
2 3408 1
2 3409 5
2 3410 12
2 3411 5
2 3412 776
2 3413 10
2 3414 67
2 3415 6
2 3416 94
2 3417 1
2 3418 17
2 3419 69
2 3420 10
2 3421 141
2 3422 140
2 3423 5
2 3424 63
2 3425 3
2 3426 5
2 3427 90
2 3428 122
2 3429 12
2 3430 2
2 3431 26
2 3432 136
2 3433 83
2 3434 4
2 3435 86
2 3436 8
2 3437 7
2 3438 62
2 3439 38
2 3440 5
2 3441 28
2 3442 87
2 3443 60
2 3444 61
2 3445 84
2 3446 7
2 3447 5
2 3448 5
2 3449 5
2 3450 13
2 3451 39
2 3452 7
2 3453 2
2 3454 42
2 3455 9
2 3456 66
2 3457 155
2 3458 2
2 3459 60
2 3460 73
2 3461 67
2 3462 56
2 3463 7
2 3464 7
2 3465 13
2 3466 103
2 3467 126
2 3468 73
2 3469 6
2 3470 3
2 3471 133
2 3472 67
2 3473 66
2 3474 70
2 3475 5
2 3476 80
2 3477 69
2 3478 6
2 3479 42
2 3480 3
2 3481 35
2 3482 2
2 3483 87
2 3484 6
2 3485 41
2 3486 4
2 3487 5
2 3488 31
2 3489 73
2 3490 11
2 3491 56
2 3492 10
2 3493 112
2 3494 102
2 3495 4
2 3496 68
2 3497 4
2 3498 44
2 3499 6
2 3500 148
2 3501 132
2 3502 2
2 3503 3
2 3504 66
2 3505 139
2 3506 4
2 3507 2
2 3508 245
2 3509 247
2 3510 1104
2 3511 6
2 3512 4
2 3513 20
2 3514 6
2 3515 73
2 3516 3
2 3517 6
2 3518 62
2 3519 43
2 3520 5
2 3521 4
2 3522 3
2 3523 115
2 3524 156
2 3525 74
2 3526 4
2 3527 114
2 3528 15
2 3529 6
2 3530 68
2 3531 3
2 3532 884
2 3533 23
2 3534 8
2 3535 8
2 3536 3
2 3537 198
2 3538 64
2 3539 8
2 3540 5
2 3541 5
2 3542 12
2 3543 143
2 3544 46
2 3545 140
2 3546 1
2 3547 6
2 3548 6
2 3549 137
2 3550 7
2 3551 7
2 3552 164
2 3553 8
2 3554 117
2 3555 36
2 3556 9
2 3557 82
2 3558 118
2 3559 134
2 3560 71
2 3561 6
2 3562 43
2 3563 56
2 3564 1065
2 3565 76
2 3566 3
2 3567 661
2 3568 72
2 3569 96
2 3570 85
2 3571 3
2 3572 5
2 3573 1083
2 3575 1
2 3576 3
2 3577 55
2 3578 86
2 3579 115
2 3580 14
2 3581 53
2 3582 2
2 3583 93
2 3584 168
2 3585 60
2 3586 4
2 3587 8
2 3588 25
2 3589 39
2 3590 7
2 3591 81
2 3592 276
2 3593 7
2 3594 50
2 3595 80
2 3596 5
2 3597 132
2 3598 10
2 3599 118
2 3600 4
2 3601 5
2 3602 63
2 3603 648
2 3604 62
2 3605 120
2 3606 8
2 3607 4
2 3608 60
2 3609 6
2 3610 114
2 3611 17
2 3612 8
2 3613 4
2 3614 37
2 3615 50
2 3616 38
2 3617 95
2 3618 5
2 3619 11
2 3620 60
2 3621 6
2 3622 206
2 3623 58
2 3624 37
2 3625 73
2 3626 10
2 3627 30
2 3628 7
2 3629 65
2 3630 40
2 3631 134
2 3632 84
2 3633 6
2 3634 57
2 3635 114
2 3636 50
2 3637 98
2 3638 3
2 3639 7
2 3640 3
2 3641 56
2 3642 10
2 3643 4
2 3645 43
2 3646 68
2 3647 40
2 3648 46
2 3649 6
2 3650 85
2 3651 112
2 3652 72
2 3653 93
2 3654 9
2 3655 9
2 3656 2
2 3657 73
2 3658 30
2 3659 177
2 3660 4
2 3661 33
2 3662 25
2 3663 4
2 3664 66
2 3665 76
2 3666 96
2 3667 102
2 3668 8
2 3669 115
2 3670 49
2 3671 13
2 3672 10
2 3673 113
2 3674 30
2 3675 34
2 3676 57
2 3677 18
2 3678 78
2 3679 51
2 3680 70
2 3681 88
2 3682 91
2 3683 9
2 3684 3
2 3685 54
2 3686 83
2 3687 90
2 3688 43
2 3689 2
2 3690 430
2 3691 47
2 3692 8
2 3693 5
2 3694 6
2 3695 110
2 3696 6
2 3697 6
2 3698 73
2 3699 5
2 3700 26
2 3701 38
2 3702 75
2 3703 66
2 3704 7
2 3705 8
2 3706 5
2 3707 5
2 3708 3
2 3709 7
2 3710 365
2 3711 31
2 3712 264
2 3713 7
2 3714 35
2 3715 4
2 3716 5
2 3717 50
2 3718 19
2 3719 2
2 3720 108
2 3721 48
2 3722 102
2 3723 69
2 3724 4
2 3725 5
2 3726 8
2 3727 35
2 3728 93
2 3729 9
2 3730 3
2 3731 148
2 3732 57
2 3733 145
2 3734 752
2 3735 2
2 3736 94
2 3737 60
2 3738 41
2 3739 93
2 3740 5
2 3741 102
2 3742 3
2 3743 11
2 3744 95
2 3745 4
2 3746 69
2 3747 51
2 3748 95
2 3749 52
2 3750 69
2 3751 6
2 3752 122
2 3753 12
2 3754 82
2 3755 1107
2 3756 56
2 3757 57
2 3758 7
2 3759 6
2 3760 85
2 3761 11
2 3762 2
2 3763 34
2 3764 7
2 3765 4
2 3766 71
2 3767 73
2 3768 3
2 3769 7
2 3770 1
2 3771 77
2 3772 117
2 3773 100
2 3774 52
2 3775 92
2 3776 71
2 3777 120
2 3778 58
2 3779 3
2 3780 62
2 3781 15
2 3782 43
2 3783 25
2 3784 50
2 3785 47
2 3786 3
2 3787 42
2 3788 87
2 3789 8
2 3790 47
2 3791 77
2 3792 6
2 3793 4
2 3794 40
2 3795 5
2 3796 10
2 3797 34
2 3798 4
2 3799 4
2 3800 67
2 3801 122
2 3802 47
2 3803 9
2 3804 55
2 3805 6
2 3806 48
2 3807 8
2 3808 90
2 3809 6
2 3810 38
2 3811 37
2 3812 3
2 3813 70
2 3814 26
2 3815 2
2 3816 2
2 3817 5
2 3818 5
2 3819 4
2 3820 55
2 3821 56
2 3822 1
2 3823 82
2 3824 3
2 3825 8
2 3826 41
2 3827 8
2 3828 4
2 3829 5
2 3830 5
2 3831 3
2 3832 56
2 3833 2
2 3834 130
2 3835 3
2 3836 3
2 3837 48
2 3838 77
2 3839 25
2 3840 6
2 3841 7
2 3842 31
2 3843 4
2 3844 50
2 3845 9
2 3846 40
2 3847 95
2 3848 3
2 3849 75
2 3850 94
2 3851 4
2 3852 26
2 3853 4
2 3854 6
2 3855 4
2 3856 6
2 3857 59
2 3858 22
2 3859 64
2 3860 7
2 3861 67
2 3862 10
2 3863 7
2 3864 109
2 3865 32
2 3866 44
2 3867 38
2 3868 122
2 3869 6
2 3870 49
2 3871 7
2 3872 3
2 3873 5
2 3874 8
2 3875 8
2 3876 73
2 3877 4
2 3878 47
2 3879 144
2 3880 5
2 3881 105
2 3882 2
2 3883 49
2 3884 6
2 3885 7
2 3886 81
2 3887 100
2 3888 3
2 3889 54
2 3890 7
2 3891 93
2 3892 4
2 3893 3
2 3894 53
2 3895 3
2 3896 41
2 3897 7
2 3898 110
2 3899 3
2 3900 3
2 3901 104
2 3902 920
2 3903 46
2 3904 66
2 3905 58
2 3906 4
2 3907 73
2 3908 62
2 3909 4
2 3910 20
2 3911 4
2 3912 127
2 3913 7
2 3914 6
2 3915 630
2 3916 460
2 3917 10
2 3918 8
2 3919 4
2 3920 4
2 3921 8
2 3922 102
2 3923 3
2 3924 20
2 3925 112
2 3926 25
2 3927 90
2 3928 197
2 3929 2
2 3930 10
2 3931 31
2 3932 2
2 3933 2
2 3934 68
2 3935 125
2 3936 91
2 3937 12
2 3938 2
2 3939 73
2 3940 102
2 3941 15
2 3942 93
2 3943 59
2 3944 301
2 3945 3
2 3946 4
2 3947 193
2 3948 19
2 3949 162
2 3950 53
2 3951 5
2 3952 11
2 3953 62
2 3954 39
2 3955 11
2 3956 203
2 3957 35
2 3958 99
2 3959 5
2 3960 2
2 3961 11
2 3962 1
2 3963 75
2 3964 7
2 3965 36
2 3966 106
2 3967 9
2 3968 92
2 3969 105
2 3970 121
2 3971 53
2 3972 27
2 3973 982
2 3974 9
2 3975 142
2 3976 41
2 3977 5
2 3978 35
2 3979 2
2 3980 56
2 3981 61
2 3982 87
2 3983 93
2 3984 5
2 3985 4
2 3986 25
2 3987 61
2 3988 8
2 3989 5
2 3990 6
2 3991 5
2 3992 85
2 3993 56
2 3994 13
2 3995 2
2 3996 4
2 3997 81
2 3998 102
2 3999 7
2 4000 77
2 4001 16
2 4002 8
2 4003 9
2 4004 12
2 4005 23
2 4006 6
2 4007 342
2 4008 80
2 4009 104
2 4010 52
2 4011 4
2 4012 82
2 4013 96
2 4014 5
2 4015 464
2 4016 5
2 4017 171
2 4018 5
2 4019 73
2 4020 9
2 4021 125
2 4022 77
2 4023 4
2 4024 58
2 4025 5
2 4026 61
2 4027 11
2 4028 90
2 4029 8
2 4030 5
2 4031 8
2 4032 107
2 4033 7
2 4034 12
2 4035 6
2 4036 2
2 4037 40
2 4038 6
2 4039 3
2 4040 44
2 4041 8
2 4042 99
2 4043 81
2 4044 46
2 4045 801
2 4046 111
2 4047 147
2 4048 92
2 4049 105
2 4050 132
2 4051 3
2 4052 6
2 4053 30
2 4054 111
2 4055 7
2 4056 633
2 4057 108
2 4058 116
2 4059 81
2 4060 57
2 4061 135
2 4062 8
2 4063 10
2 4064 6
2 4065 60
2 4066 41
2 4067 105
2 4068 13
2 4069 40
2 4070 7
2 4071 59
2 4072 119
2 4073 99
2 4074 2
2 4075 89
2 4076 3
2 4077 3
2 4078 37
2 4079 911
2 4080 48
2 4081 8
2 4082 8
2 4083 57
2 4084 56
2 4085 61
2 4086 8
2 4087 43
2 4088 5
2 4089 781
2 4090 14
2 4091 134
2 4092 141
2 4093 175
2 4094 8
2 4095 243
2 4096 5
2 4097 49
2 4098 95
2 4099 6
2 4100 23
2 4101 123
2 4102 10
2 4103 101
2 4104 87
2 4105 46
2 4106 7
2 4107 52
2 4108 73
2 4109 121
2 4110 119
2 4111 48
2 4112 12
2 4113 67
2 4114 65
2 4115 4
2 4116 88
2 4117 49
2 4118 65
2 4119 3
2 4120 125
2 4121 98
2 4122 68
2 4123 8
2 4124 911
2 4125 80
2 4126 7
2 4127 109
2 4128 4
2 4129 8
2 4130 53
2 4131 11
2 4132 15
2 4133 6
2 4134 14
2 4135 10
2 4136 2
2 4137 18
2 4138 215
2 4139 189
2 4140 57
2 4141 121
2 4142 81
2 4143 7
2 4144 95
2 4145 509
2 4146 7
2 4147 75
2 4148 32
2 4149 2
2 4150 27
2 4151 11
2 4152 10
2 4153 57
2 4154 26
2 4155 4
2 4156 78
2 4157 27
2 4158 7
2 4159 72
2 4160 83
2 4161 63
2 4162 1052
2 4163 142
2 4164 6
2 4165 2
2 4166 30
2 4167 79
2 4168 126
2 4169 6
2 4170 95
2 4171 8
2 4172 59
2 4173 12
2 4174 854
2 4175 9
2 4176 8
2 4177 99
2 4178 5
2 4179 98
2 4180 25
2 4181 122
2 4182 6
2 4183 3
2 4184 4
2 4185 89
2 4186 112
2 4187 5
2 4188 122
2 4189 11
2 4190 63
2 4191 8
2 4192 97
2 4193 136
2 4194 38
2 4195 149
2 4196 6
2 4197 52
2 4198 12
2 4199 48
2 4200 44
2 4201 104
2 4202 48
2 4203 9
2 4204 4
2 4205 202
2 4206 52
2 4207 3
2 4208 8
2 4209 6
2 4210 5
2 4211 88
2 4212 51
2 4213 273
2 4214 5
2 4215 9
2 4216 66
2 4217 51
2 4218 90
2 4219 43
2 4220 50
2 4221 5
2 4222 109
2 4223 900
2 4224 31
2 4225 489
2 4226 7
2 4227 14
2 4228 39
2 4229 86
2 4230 39
2 4231 13
2 4232 10
2 4233 7
2 4234 55
2 4235 161
2 4236 704
2 4237 4
2 4238 410
2 4239 8
2 4240 108
2 4241 56
2 4242 14
2 4243 6
2 4244 8
2 4245 108
2 4246 67
2 4247 191
2 4248 64
2 4249 10
2 4250 222
2 4251 8
2 4252 62
2 4253 45
2 4254 68
2 4255 173
2 4256 142
2 4257 187
2 4258 15
2 4259 4
2 4260 11
2 4261 21
2 4262 8
2 4263 35
2 4264 2
2 4265 10
2 4266 8
2 4267 7
2 4268 36
2 4269 64
2 4270 2
2 4271 5
2 4272 5
2 4273 40
2 4274 80
2 4275 34
2 4276 3
2 4277 275
2 4278 5
2 4279 8
2 4280 3
2 4281 10
2 4282 61
2 4283 616
2 4284 28
2 4285 32
2 4286 90
2 4287 102
2 4288 1
2 4289 113
2 4290 92
2 4291 114
2 4292 106
2 4293 59
2 4294 175
2 4295 6
2 4296 127
2 4297 101
2 4298 12
2 4299 10
2 4300 849
2 4301 61
2 4302 7
2 4303 88
2 4304 64
2 4305 984
2 4306 47
2 4307 8
2 4308 41
2 4309 33
2 4310 1077
2 4311 44
2 4312 7
2 4313 715
2 4314 55
2 4315 7
2 4316 8
2 4317 11
2 4318 6
2 4319 78
2 4320 4
2 4321 25
2 4322 78
2 4323 816
2 4324 4
2 4325 105
2 4326 100
2 4327 14
2 4328 4
2 4329 88
2 4330 7
2 4331 4
2 4332 13
2 4333 6
2 4334 4
2 4335 52
2 4336 3
2 4337 76
2 4338 10
2 4339 71
2 4340 9
2 4341 7
2 4342 14
2 4343 53
2 4344 86
2 4345 4
2 4346 104
2 4347 9
2 4348 972
2 4349 13
2 4350 783
2 4351 88
2 4352 29
2 4353 7
2 4354 96
2 4355 13
2 4356 100
2 4357 8
2 4358 45
2 4359 87
2 4360 81
2 4361 152
2 4362 143
2 4363 7
2 4364 8
2 4365 1
2 4366 60
2 4367 140
2 4368 6
2 4369 7
2 4370 92
2 4371 99
2 4372 8
2 4373 3
2 4374 91
2 4375 7
2 4376 54
2 4377 24
2 4378 85
2 4379 6
2 4380 55
2 4381 33
2 4382 3
2 4383 187
2 4384 7
2 4385 3
2 4386 20
2 4387 28
2 4388 142
2 4389 83
2 4390 13
2 4391 3
2 4392 5
2 4393 8
2 4394 43
2 4395 12
2 4396 131
2 4397 2
2 4398 91
2 4399 119
2 4400 44
2 4401 9
2 4402 35
2 4403 77
2 4404 145
2 4405 85
2 4406 8
2 4407 127
2 4408 661
2 4409 100
2 4410 5
2 4411 63
2 4412 143
2 4413 8
2 4414 8
2 4415 107
2 4416 9
2 4417 72
2 4418 9
2 4419 3
2 4420 7
2 4421 4
2 4422 8
2 4423 13
2 4424 123
2 4425 4
2 4426 80
2 4427 23
2 4428 11
2 4429 128
2 4430 268
2 4431 113
2 4432 36
2 4433 7
2 4434 83
2 4435 3
2 4436 21
2 4437 2
2 4438 79
2 4439 25
2 4440 55
2 4441 106
2 4442 6
2 4443 8
2 4444 2
2 4445 4
2 4446 55
2 4447 99
2 4448 3
2 4449 10
2 4450 77
2 4451 38
2 4452 39
2 4453 188
2 4454 6
2 4455 5
2 4456 92
2 4457 102
2 4458 151
2 4459 6
2 4460 8
2 4461 61
2 4462 3
2 4463 19
2 4464 148
2 4465 58
2 4466 4
2 4467 7
2 4468 81
2 4469 120
2 4470 41
2 4471 6
2 4472 20
2 4473 7
2 4474 165
2 4475 101
2 4476 33
2 4477 3
2 4478 2
2 4479 9
2 4480 38
2 4481 98
2 4482 80
2 4483 117
2 4484 3
2 4485 117
2 4486 78
2 4487 82
2 4488 79
2 4489 6
2 4490 6
2 4491 7
2 4492 237
2 4493 193
2 4494 6
2 4495 33
2 4496 105
2 4497 5
2 4498 76
2 4499 3
2 4500 143
2 4501 63
2 4502 109
2 4503 91
2 4504 3
2 4505 35
2 4506 11
2 4507 114
2 4508 94
2 4509 152
2 4510 171
2 4511 111
2 4512 11
2 4513 87
2 4514 107
2 4515 4
2 4516 77
2 4517 1038
2 4518 5
2 4519 6
2 4520 7
2 4521 37
2 4522 7
2 4523 3
2 4524 81
2 4525 91
2 4527 4
2 4528 8
2 4529 2
2 4530 81
2 4531 127
2 4532 50
2 4533 69
2 4534 33
2 4535 67
2 4536 4
2 4537 104
2 4538 83
2 4539 53
2 4540 129
2 4541 10
2 4542 101
2 4543 135
2 4544 5
2 4545 3
2 4546 92
2 4547 10
2 4548 8
2 4549 96
2 4550 64
2 4551 28
2 4552 13
2 4553 2
2 4554 444
2 4555 7
2 4556 9
2 4557 17
2 4558 19
2 4559 2
2 4560 80
2 4561 68
2 4562 123
2 4563 204
2 4564 7
2 4565 6
2 4566 117
2 4567 107
2 4568 6
2 4569 4
2 4570 73
2 4571 96
2 4572 66
2 4573 4
2 4574 86
2 4575 5
2 4576 84
2 4577 95
2 4578 11
2 4579 7
2 4580 98
2 4581 41
2 4582 10
2 4583 29
2 4584 59
2 4585 63
2 4586 88
2 4587 6
2 4588 8
2 4589 93
2 4590 98
2 4591 129
2 4592 530
2 4593 83
2 4594 64
2 4595 8
2 4596 99
2 4597 36
2 4598 4
2 4599 8
2 4600 103
2 4601 77
2 4602 46
2 4603 46
2 4604 83
2 4605 7
2 4606 6
2 4607 52
2 4608 57
2 4609 165
2 4610 3
2 4611 38
2 4612 76
2 4613 72
2 4614 5
2 4615 72
2 4616 35
2 4617 132
2 4618 29
2 4619 13
2 4620 102
2 4621 11
2 4622 68
2 4623 38
2 4624 109
2 4625 14
2 4626 8
2 4627 5
2 4628 105
2 4629 8
2 4630 31
2 4631 4
2 4632 4
2 4633 5
2 4634 57
2 4635 6
2 4636 71
2 4637 3
2 4638 76
2 4639 9
2 4640 6
2 4641 67
2 4642 74
2 4643 8
2 4644 17
2 4645 9
2 4646 49
2 4647 75
2 4648 11
2 4649 112
2 4650 29
2 4651 182
2 4652 35
2 4653 68
2 4654 5
2 4655 5
2 4656 50
2 4657 4
2 4658 5
2 4659 18
2 4660 43
2 4661 13
2 4662 95
2 4663 8
2 4664 32
2 4665 69
2 4666 4
2 4667 77
2 4668 52
2 4669 42
2 4670 11
2 4671 12
2 4672 58
2 4673 3
2 4674 4
2 4675 53
2 4676 110
2 4677 180
2 4678 875
2 4679 48
2 4680 51
2 4681 68
2 4682 137
2 4683 59
2 4684 50
2 4685 157
2 4686 4
2 4687 632
2 4688 92
2 4689 5
2 4690 5
2 4691 133
2 4692 80
2 4693 2
2 4694 8
2 4695 5
2 4696 5
2 4697 4
2 4698 86
2 4699 785
2 4700 27
2 4701 33
2 4702 76
2 4703 68
2 4704 7
2 4705 54
2 4706 98
2 4707 3
2 4708 989
2 4709 8
2 4710 67
2 4711 95
2 4712 30
2 4713 136
2 4714 60
2 4715 44
2 4716 4
2 4717 25
2 4718 8
2 4719 15
2 4720 7
2 4721 7
2 4722 54
2 4723 57
2 4724 64
2 4725 7
2 4726 5
2 4727 64
2 4728 35
2 4729 6
2 4730 38
2 4731 8
2 4732 793
2 4733 46
2 4734 101
2 4735 8
2 4736 44
2 4737 170
2 4738 2
2 4739 14
2 4740 38
2 4741 9
2 4742 4
2 4743 12
2 4744 47
2 4745 3
2 4746 3
2 4747 8
2 4748 105
2 4749 8
2 4750 127
2 4751 8
2 4752 5
2 4753 141
2 4754 684
2 4755 5
2 4756 71
2 4757 143
2 4758 102
2 4759 18
2 4760 8
2 4761 3
2 4762 151
2 4763 16
2 4764 49
2 4765 6
2 4766 9
2 4767 61
2 4768 80
2 4769 32
2 4770 177
2 4771 63
2 4772 78
2 4773 89
2 4774 28
2 4775 9
2 4776 108
2 4777 10
2 4778 97
2 4779 6
2 4780 31
2 4781 3
2 4782 5
2 4783 69
2 4784 6
2 4785 11
2 4786 11
2 4787 7
2 4788 1
2 4789 8
2 4790 97
2 4791 6
2 4792 10
2 4793 38
2 4794 69
2 4795 137
2 4796 108
2 4797 7
2 4798 41
2 4799 8
2 4800 2
2 4801 3
2 4802 3
2 4803 7
2 4804 106
2 4805 3
2 4806 6
2 4807 6
2 4808 53
2 4809 4
2 4810 99
2 4811 1
2 4812 59
2 4813 7
2 4814 83
2 4815 102
2 4816 5
2 4817 74
2 4818 35
2 4819 53
2 4820 167
2 4821 53
2 4822 99
2 4823 3
2 4824 5
2 4825 4
2 4826 5
2 4827 4
2 4828 119
2 4829 80
2 4830 112
2 4831 76
2 4832 61
2 4833 10
2 4834 8
2 4835 71
2 4836 859
2 4837 26
2 4838 54
2 4839 51
2 4840 3
2 4841 140
2 4842 114
2 4843 126
2 4844 157
2 4845 80
2 4846 6
2 4847 71
2 4848 36
2 4849 84
2 4850 8
2 4851 71
2 4852 39
2 4853 28
2 4854 79
2 4855 2
2 4856 212
2 4857 828
2 4858 85
2 4859 49
2 4860 7
2 4861 50
2 4862 24
2 4863 1
2 4864 144
2 4865 6
2 4866 107
2 4867 7
2 4868 3
2 4869 82
2 4870 84
2 4871 2
2 4872 1080
2 4873 36
2 4874 107
2 4875 17
2 4876 104
2 4877 34
2 4878 7
2 4879 6
2 4880 141
2 4881 4
2 4882 3
2 4883 6
2 4884 3
2 4885 73
2 4886 135
2 4887 8
2 4888 2
2 4889 14
2 4890 3
2 4891 60
2 4892 5
2 4893 89
2 4894 114
2 4895 6
2 4896 89
2 4897 4
2 4898 16
2 4899 41
2 4900 65
2 4901 6
2 4902 2
2 4903 3
2 4904 2
2 4905 59
2 4906 5
2 4907 124
2 4908 4
2 4909 8
2 4910 6
2 4911 6
2 4912 46
2 4913 28
2 4914 3
2 4915 60
2 4916 2
2 4917 12
2 4918 5
2 4919 95
2 4920 117
2 4921 70
2 4922 9
2 4923 12
2 4924 102
2 4925 71
2 4926 46
2 4927 21
2 4928 128
2 4929 40
2 4930 3
2 4931 1019
2 4932 3
2 4933 6
2 4934 4
2 4935 5
2 4936 29
2 4937 109
2 4938 2
2 4939 29
2 4940 7
2 4941 55
2 4942 5
2 4943 12
2 4944 7
2 4945 94
2 4946 33
2 4947 9
2 4948 43
2 4949 277
2 4950 2
2 4951 2
2 4952 7
2 4953 5
2 4954 54
2 4955 83
2 4956 134
2 4957 2
2 4958 11
2 4959 246
2 4960 11
2 4961 8
2 4962 42
2 4963 10
2 4964 5
2 4965 86
2 4966 48
2 4967 79
2 4968 3
2 4969 30
2 4970 56
2 4971 3
2 4972 40
2 4973 8
2 4974 86
2 4975 3
2 4976 31
2 4977 62
2 4978 110
2 4979 174
2 4980 108
2 4981 5
2 4982 7
2 4983 42
2 4984 17
2 4985 29
2 4986 165
2 4987 15
2 4988 33
2 4989 70
2 4990 2
2 4991 3
2 4992 4
2 4993 104
2 4994 9
2 4995 43
2 4996 6
2 4997 103
2 4998 2
2 4999 58
2 5000 4
2 5001 4
2 5002 7
2 5003 60
2 5004 83
2 5005 68
2 5006 14
2 5007 49
2 5008 8
2 5009 2
2 5010 3
2 5011 46
2 5012 30
2 5013 72
2 5014 144
2 5015 87
2 5016 105
2 5017 81
2 5018 6
2 5019 6
2 5020 103
2 5021 157
2 5022 128
2 5023 6
2 5024 44
2 5025 26
2 5026 4
2 5027 5
2 5028 7
2 5029 5
2 5030 104
2 5031 40
2 5032 38
2 5033 55
2 5034 55
2 5035 157
2 5036 16
2 5037 86
2 5038 30
2 5039 4
2 5040 91
2 5041 78
2 5042 6
2 5043 62
2 5044 5
2 5045 8
2 5046 103
2 5047 14
2 5048 9
2 5049 152
2 5050 91
2 5051 20
2 5052 7
2 5053 118
2 5054 7
2 5055 80
2 5056 87
2 5057 32
2 5058 14
2 5059 92
2 5060 102
2 5061 82
2 5062 88
2 5063 4
2 5064 8
2 5065 16
2 5066 82
2 5067 48
2 5068 7
2 5069 4
2 5070 54
2 5071 7
2 5072 6
2 5073 118
2 5074 37
2 5075 93
2 5076 3
2 5077 73
2 5078 19
2 5079 32
2 5080 12
2 5081 75
2 5082 11
2 5083 4
2 5084 427
2 5085 138
2 5086 22
2 5087 51
2 5088 36
2 5089 62
2 5090 566
2 5091 107
2 5092 64
2 5093 3
2 5094 7
2 5095 47
2 5096 8
2 5097 6
2 5098 4
2 5099 115
2 5100 85
2 5101 71
2 5102 117
2 5103 9
2 5104 7
2 5105 65
2 5106 80
2 5107 887
2 5108 1
2 5109 9
2 5110 3
2 5111 8
2 5112 9
2 5113 9
2 5114 34
2 5115 4
2 5116 67
2 5117 2
2 5118 4
2 5119 111
2 5120 6
2 5121 6
2 5122 186
2 5123 10
2 5124 70
2 5125 41
2 5126 69
2 5127 108
2 5128 167
2 5129 10
2 5130 7
2 5131 56
2 5132 102
2 5133 2
2 5134 98
2 5135 10
2 5136 64
2 5137 18
2 5138 50
2 5139 10
2 5140 112
2 5141 140
2 5142 110
2 5143 6
2 5144 78
2 5145 42
2 5146 93
2 5147 29
2 5148 10
2 5149 6
2 5150 6
2 5151 102
2 5152 82
2 5153 58
2 5154 7
2 5155 25
2 5156 9
2 5157 111
2 5158 43
2 5159 5
2 5160 5
2 5161 5
2 5162 40
2 5163 6
2 5164 81
2 5165 433
2 5166 6
2 5167 5
2 5168 133
2 5169 29
2 5170 80
2 5171 75
2 5172 5
2 5173 4
2 5174 55
2 5175 74
2 5176 73
2 5177 3
2 5178 44
2 5179 9
2 5180 3
2 5181 7
2 5182 84
2 5183 26
2 5184 14
2 5185 5
2 5186 24
2 5187 89
2 5188 9
2 5189 39
2 5190 5
2 5191 5
2 5192 15
2 5193 68
2 5194 55
2 5195 79
2 5196 6
2 5197 7
2 5198 78
2 5199 61
2 5200 7
2 5201 6
2 5202 120
2 5203 38
2 5204 9
2 5205 63
2 5206 1110
2 5207 58
2 5208 78
2 5209 41
2 5210 15
2 5211 6
2 5212 71
2 5213 84
2 5214 31
2 5215 9
2 5216 136
2 5217 9
2 5218 1
2 5219 113
2 5220 5
2 5221 9
2 5222 8
2 5223 5
2 5224 7
2 5225 13
2 5226 59
2 5227 12
2 5228 11
2 5229 189
2 5230 4
2 5231 94
2 5232 67
2 5233 16
2 5234 103
2 5235 1101
2 5236 26
2 5237 79
2 5238 175
2 5239 5
2 5240 7
2 5241 129
2 5242 9
2 5243 7
2 5244 6
2 5245 98
2 5246 2
2 5247 48
2 5248 6
2 5249 11
2 5250 69
2 5251 7
2 5252 6
2 5253 2
2 5254 67
2 5255 128
2 5256 16
2 5257 6
2 5258 3
2 5259 120
2 5260 109
2 5261 16
2 5262 35
2 5263 10
2 5264 10
2 5265 8
2 5266 4
2 5267 8
2 5268 3
2 5269 10
2 5270 12
2 5271 124
2 5272 979
2 5273 73
2 5274 8
2 5275 2
2 5276 101
2 5277 53
2 5278 4
2 5279 4
2 5280 44
2 5281 7
2 5282 62
2 5283 5
2 5284 36
2 5285 6
2 5286 81
2 5287 9
2 5288 67
2 5289 71
2 5290 48
2 5291 59
2 5292 5
2 5293 8
2 5294 112
2 5295 22
2 5296 736
2 5297 81
2 5298 101
2 5299 70
2 5300 133
2 5301 122
2 5302 94
2 5303 8
2 5304 14
2 5305 3
2 5306 130
2 5307 16
2 5308 9
2 5309 162
2 5310 5
2 5311 3
2 5312 46
2 5313 4
2 5314 86
2 5315 265
2 5316 34
2 5317 22
2 5318 85
2 5319 9
2 5320 3
2 5321 3
2 5322 9
2 5323 40
2 5324 33
2 5325 5
2 5326 7
2 5327 167
2 5328 3
2 5329 6
2 5330 5
2 5331 6
2 5332 59
2 5333 169
2 5334 7
2 5335 80
2 5336 3
2 5337 5
2 5338 43
2 5339 39
2 5340 57
2 5341 3
2 5342 45
2 5343 66
2 5344 131
2 5345 10
2 5346 99
2 5347 6
2 5348 111
2 5349 7
2 5350 146
2 5351 100
2 5352 92
2 5353 66
2 5354 7
2 5355 5
2 5356 725
2 5357 106
2 5358 8
2 5359 138
2 5360 200
2 5361 8
2 5362 3
2 5363 11
2 5364 38
2 5365 6
2 5366 6
2 5367 39
2 5368 27
2 5369 190
2 5370 16
2 5371 120
2 5372 4
2 5373 7
2 5374 5
2 5375 7
2 5376 143
2 5377 53
2 5378 435
2 5379 8
2 5380 81
2 5381 5
2 5382 42
2 5383 75
2 5384 18
2 5385 45
2 5386 74
2 5387 34
2 5388 5
2 5389 46
2 5390 73
2 5391 14
2 5392 52
2 5393 8
2 5394 44
2 5395 3
2 5396 11
2 5397 87
2 5398 5
2 5399 6
2 5400 4
2 5401 9
2 5402 7
2 5403 7
2 5404 9
2 5405 41
2 5406 20
2 5407 66
2 5408 12
2 5409 4
2 5410 107
2 5411 4
2 5412 3
2 5413 72
2 5414 53
2 5415 2
2 5416 13
2 5417 51
2 5418 126
2 5419 11
2 5420 9
2 5421 138
2 5422 3
2 5423 10
2 5424 6
2 5425 60
2 5426 22
2 5427 94
2 5428 62
2 5429 831
2 5430 8
2 5431 2
2 5432 925
2 5433 79
2 5434 27
2 5435 876
2 5436 59
2 5437 6
2 5438 5
2 5439 51
2 5440 4
2 5441 6
2 5442 3
2 5443 8
2 5444 71
2 5445 36
2 5446 20
2 5447 91
2 5448 6
2 5449 5
2 5450 80
2 5451 214
2 5452 99
2 5453 79
2 5454 45
2 5455 4
2 5456 457
2 5457 5
2 5458 60
2 5459 56
2 5460 3
2 5461 12
2 5462 35
2 5463 4
2 5464 9
2 5465 75
2 5466 107
2 5467 1
2 5468 2
2 5469 4
2 5470 259
2 5471 5
2 5472 5
2 5473 9
2 5474 11
2 5475 5
2 5476 9
2 5477 11
2 5478 8
2 5479 60
2 5480 7
2 5481 3
2 5482 65
2 5483 71
2 5484 50
2 5485 104
2 5486 4
2 5487 57
2 5488 14
2 5489 5
2 5490 16
2 5491 12
2 5492 5
2 5493 11
2 5494 69
2 5495 71
2 5496 81
2 5497 106
2 5498 105
2 5499 4
2 5500 4
2 5501 61
2 5502 70
2 5503 99
2 5504 6
2 5505 66
2 5506 117
2 5507 9
2 5508 10
2 5509 169
2 5510 21
2 5511 98
2 5512 6
2 5513 59
2 5514 9
2 5515 6
2 5516 61
2 5517 10
2 5518 64
2 5519 2
2 5520 11
2 5521 7
2 5522 103
2 5523 8
2 5524 99
2 5525 59
2 5526 9
2 5527 10
2 5528 6
2 5529 143
2 5530 10
2 5531 2
2 5532 9
2 5533 3
2 5534 6
2 5535 60
2 5536 57
2 5537 751
2 5538 11
2 5539 3
2 5540 44
2 5541 4
2 5542 7
2 5543 53
2 5544 4
2 5545 7
2 5546 91
2 5547 6
2 5548 3
2 5549 3
2 5550 2
2 5551 3
2 5552 8
2 5553 58
2 5554 7
2 5555 59
2 5556 5
2 5557 108
2 5558 4
2 5559 4
2 5560 6
2 5561 93
2 5562 41
2 5563 23
2 5564 30
2 5565 8
2 5566 73
2 5567 33
2 5568 10
2 5569 33
2 5570 140
2 5571 86
2 5572 63
2 5573 44
2 5574 92
2 5575 3
2 5576 74
2 5577 3
2 5578 11
2 5579 100
2 5580 572
2 5581 4
2 5582 4
2 5583 979
2 5584 5
2 5585 6
2 5586 113
2 5587 4
2 5588 92
2 5589 6
2 5590 14
2 5591 89
2 5592 35
2 5593 79
2 5594 7
2 5595 3
2 5596 36
2 5597 70
2 5598 129
2 5599 65
2 5600 6
2 5601 24
2 5602 1041
2 5603 135
2 5604 3
2 5605 22
2 5606 37
2 5607 43
2 5608 197
2 5609 105
2 5610 10
2 5611 11
2 5612 51
2 5613 7
2 5614 9
2 5615 63
2 5616 5
2 5617 72
2 5618 60
2 5619 37
2 5620 6
2 5621 28
2 5622 32
2 5623 78
2 5624 68
2 5625 55
2 5626 4
2 5627 1
2 5628 5
2 5629 5
2 5630 7
2 5631 4
2 5632 7
2 5634 114
2 5635 39
2 5636 13
2 5637 62
2 5638 106
2 5639 2
2 5640 46
2 5641 4
2 5642 35
2 5643 119
2 5644 6
2 5645 161
2 5646 66
2 5647 63
2 5648 9
2 5649 13
2 5650 5
2 5651 5
2 5652 5
2 5653 6
2 5654 93
2 5655 118
2 5656 4
2 5657 6
2 5658 89
2 5659 10
2 5660 189
2 5661 55
2 5662 115
2 5663 42
2 5664 86
2 5665 8
2 5666 99
2 5667 3
2 5668 93
2 5669 84
2 5670 10
2 5671 9
2 5672 7
2 5673 1
2 5674 8
2 5675 10
2 5676 122
2 5677 81
2 5678 42
2 5679 87
2 5680 35
2 5681 102
2 5682 53
2 5683 6
2 5684 107
2 5685 40
2 5686 26
2 5687 1082
2 5688 7
2 5689 4
2 5690 52
2 5691 6
2 5692 140
2 5693 80
2 5694 66
2 5695 68
2 5696 6
2 5697 6
2 5698 9
2 5699 117
2 5700 17
2 5701 7
2 5702 2
2 5703 58
2 5704 49
2 5705 133
2 5706 93
2 5707 48
2 5708 16
2 5709 12
2 5710 766
2 5711 79
2 5712 853
2 5713 74
2 5714 86
2 5715 5
2 5716 141
2 5717 1
2 5718 4
2 5719 85
2 5720 4
2 5721 69
2 5722 65
2 5723 46
2 5724 120
2 5725 1
2 5726 87
2 5727 9
2 5728 6
2 5729 8
2 5730 124
2 5731 8
2 5732 3
2 5733 143
2 5734 8
2 5735 125
2 5736 11
2 5737 389
2 5738 35
2 5739 255
2 5740 86
2 5741 63
2 5742 32
2 5743 5
2 5744 122
2 5745 4
2 5746 5
2 5747 83
2 5748 3
2 5749 58
2 5750 57
2 5751 9
2 5752 448
2 5753 4
2 5754 6
2 5755 8
2 5756 79
2 5757 4
2 5758 52
2 5759 49
2 5760 43
2 5761 36
2 5762 88
2 5763 3
2 5764 806
2 5765 3
2 5766 43
2 5767 6
2 5768 38
2 5769 61
2 5770 3
2 5771 47
2 5772 138
2 5773 122
2 5774 32
2 5775 7
2 5776 5
2 5777 49
2 5778 79
2 5779 52
2 5781 3
2 5782 5
2 5783 29
2 5784 37
2 5785 129
2 5786 60
2 5787 513
2 5788 66
2 5789 106
2 5790 154
2 5791 59
2 5792 7
2 5793 11
2 5794 5
2 5795 7
2 5796 24
2 5797 3
2 5798 46
2 5799 6
2 5800 16
2 5801 9
2 5802 4
2 5803 3
2 5804 52
2 5805 125
2 5806 73
2 5807 3
2 5808 1
2 5809 116
2 5810 48
2 5811 43
2 5812 8
2 5813 50
2 5814 5
2 5815 61
2 5816 4
2 5817 89
2 5818 6
2 5819 144
2 5820 3
2 5821 11
2 5822 96
2 5823 7
2 5824 18
2 5825 82
2 5826 95
2 5827 3
2 5828 9
2 5829 5
2 5830 30
2 5831 2
2 5832 3
2 5833 2
2 5834 2
2 5835 75
2 5836 79
2 5837 8
2 5838 98
2 5839 56
2 5840 76
2 5841 113
2 5842 7
2 5843 47
2 5844 8
2 5845 3
2 5846 48
2 5847 11
2 5848 69
2 5849 2
2 5850 146
2 5851 33
2 5852 109
2 5853 46
2 5854 111
2 5855 36
2 5856 5
2 5857 2
2 5858 402
2 5859 37
2 5860 43
2 5861 11
2 5862 123
2 5863 42
2 5864 32
2 5865 110
2 5866 10
2 5867 130
2 5868 155
2 5869 148
2 5870 35
2 5871 7
2 5872 107
2 5873 4
2 5874 107
2 5875 58
2 5876 135
2 5877 3
2 5878 122
2 5879 8
2 5880 8
2 5881 68
2 5882 264
2 5883 916
2 5884 150
2 5885 6
2 5886 3
2 5887 133
2 5888 134
2 5889 67
2 5890 5
2 5891 4
2 5892 64
2 5893 96
2 5894 4
2 5895 19
2 5896 7
2 5897 900
2 5898 11
2 5899 48
2 5900 55
2 5901 64
2 5902 24
2 5903 107
2 5904 153
2 5905 88
2 5906 83
2 5907 97
2 5908 756
2 5909 8
2 5910 6
2 5911 119
2 5912 4
2 5913 88
2 5914 2
2 5915 3
2 5916 7
2 5917 154
2 5918 7
2 5919 14
2 5920 51
2 5921 68
2 5922 13
2 5923 95
2 5924 48
2 5925 5
2 5926 86
2 5927 4
2 5928 42
2 5929 10
2 5930 2
2 5931 6
2 5932 53
2 5933 6
2 5934 4
2 5935 7
2 5936 6
2 5937 5
2 5938 51
2 5939 62
2 5940 6
2 5941 82
2 5942 5
2 5943 1
2 5944 75
2 5945 69
2 5946 91
2 5947 6
2 5948 5
2 5949 12
2 5950 4
2 5951 43
2 5952 82
2 5953 159
2 5954 2
2 5955 8
2 5956 70
2 5957 10
2 5958 89
2 5959 6
2 5960 3
2 5961 45
2 5962 37
2 5963 5
2 5964 109
2 5965 32
2 5966 8
2 5967 76
2 5968 4
2 5969 85
2 5970 88
2 5971 5
2 5972 17
2 5973 73
2 5974 9
2 5975 23
2 5976 51
2 5977 33
2 5978 141
2 5979 32
2 5980 9
2 5981 7
2 5982 83
2 5983 31
2 5984 9
2 5985 111
2 5986 2
2 5987 6
2 5988 12
2 5989 82
2 5990 19
2 5991 82
2 5992 2
2 5993 874
2 5994 84
2 5995 10
2 5996 42
2 5997 1138
2 5998 70
2 5999 145
2 6000 152
2 6001 5
2 6003 831
2 6004 85
2 6005 2
2 6006 89
2 6007 62
2 6008 13
2 6009 77
2 6010 9
2 6011 7
2 6012 2
2 6013 6
2 6014 64
2 6015 63
2 6016 6
2 6017 6
2 6018 102
2 6019 87
2 6020 3
2 6021 4
2 6022 7
2 6023 89
2 6024 10
2 6025 93
2 6026 8
2 6027 8
2 6028 9
2 6029 79
2 6030 254
2 6031 91
2 6032 8
2 6033 5
2 6034 123
2 6035 174
2 6036 89
2 6037 13
2 6038 88
2 6039 4
2 6040 70
2 6041 92
2 6042 7
2 6043 7
2 6044 2
2 6045 57
2 6046 8
2 6047 98
2 6048 15
2 6049 2
2 6050 8
2 6051 134
2 6052 203
2 6053 9
2 6054 68
2 6055 9
2 6056 8
2 6057 3
2 6058 97
2 6059 12
2 6060 39
2 6061 124
2 6062 67
2 6063 40
2 6064 7
2 6065 66
2 6066 1109
2 6067 5
2 6068 85
2 6069 223
2 6070 107
2 6071 8
2 6072 3
2 6073 45
2 6074 7
2 6075 59
2 6076 5
2 6077 10
2 6078 5
2 6079 2
2 6080 97
2 6081 13
2 6082 65
2 6083 2
2 6084 126
2 6085 153
2 6086 4
2 6087 5
2 6088 66
2 6089 10
2 6090 9
2 6091 8
2 6092 7
2 6093 7
2 6094 143
2 6095 4
2 6096 5
2 6097 70
2 6098 123
2 6099 56
2 6100 8
2 6101 28
2 6102 119
2 6103 8
2 6104 9
2 6105 60
2 6106 87
2 6107 3
2 6108 94
2 6109 49
2 6110 780
2 6111 6
2 6112 5
2 6113 3
2 6114 5
2 6115 6
2 6116 29
2 6117 79
2 6118 121
2 6119 133
2 6120 104
2 6121 56
2 6122 7
2 6123 10
2 6124 6
2 6125 76
2 6126 120
2 6127 5
2 6128 5
2 6129 1
2 6130 127
2 6131 82
2 6132 71
2 6133 47
2 6134 28
2 6135 7
2 6136 92
2 6137 70
2 6138 6
2 6139 75
2 6140 7
2 6141 3
2 6142 6
2 6143 11
2 6144 3
2 6145 5
2 6146 4
2 6147 7
2 6148 10
2 6149 2
2 6150 48
2 6151 8
2 6152 3
2 6153 80
2 6154 37
2 6155 7
2 6156 5
2 6157 41
2 6158 113
2 6159 12
2 6160 7
2 6161 83
2 6162 5
2 6163 4
2 6164 71
2 6165 76
2 6166 86
2 6167 125
2 6168 98
2 6169 7
2 6170 3
2 6171 2
2 6172 135
2 6173 5
2 6174 19
2 6175 5
2 6176 109
2 6177 60
2 6178 11
2 6179 603
2 6180 1
2 6181 7
2 6182 5
2 6183 45
2 6184 65
2 6185 129
2 6186 4
2 6187 7
2 6188 55
2 6189 2
2 6190 3
2 6191 8
2 6192 6
2 6193 4
2 6194 35
2 6195 498
2 6196 3
2 6197 3
2 6198 51
2 6199 32
2 6200 3
2 6201 3
2 6202 4
2 6203 4
2 6204 125
2 6205 120
2 6206 92
2 6207 9
2 6208 45
2 6209 30
2 6210 12
2 6211 8
2 6212 121
2 6213 65
2 6214 58
2 6215 253
2 6216 106
2 6217 97
2 6218 3
2 6219 101
2 6220 23
2 6221 4
2 6222 85
2 6223 88
2 6224 13
2 6225 61
2 6226 60
2 6227 3
2 6228 13
2 6229 76
2 6230 2
2 6231 6
2 6232 4
2 6233 3
2 6234 716
2 6235 7
2 6236 82
2 6237 1079
2 6238 115
2 6239 84
2 6240 125
2 6241 2
2 6242 95
2 6243 23
2 6244 396
2 6245 10
2 6246 68
2 6247 4
2 6248 218
2 6249 3
2 6250 140
2 6251 2
2 6252 70
2 6253 51
2 6254 30
2 6255 97
2 6256 3
2 6257 95
2 6258 84
2 6259 93
2 6260 115
2 6261 5
2 6262 79
2 6263 73
2 6264 185
2 6265 97
2 6266 37
2 6267 61
2 6268 1084
2 6269 83
2 6270 2
2 6271 4
2 6272 5
2 6273 10
2 6274 5
2 6275 70
2 6276 77
2 6277 110
2 6278 4
2 6279 6
2 6280 5
2 6281 2
2 6282 10
2 6283 67
2 6284 15
2 6285 161
2 6286 11
2 6287 70
2 6288 40
2 6289 6
2 6290 71
2 6291 61
2 6292 4
2 6293 9
2 6294 57
2 6295 46
2 6296 2
2 6297 55
2 6298 49
2 6299 1056
2 6300 32
2 6301 89
2 6302 2
2 6303 7
2 6304 40
2 6305 71
2 6306 149
2 6307 41
2 6308 1
2 6309 10
2 6310 4
2 6311 44
2 6312 40
2 6313 42
2 6314 16
2 6315 102
2 6316 2
2 6317 403
2 6318 56
2 6319 58
2 6320 30
2 6321 393
2 6322 6
2 6323 31
2 6324 1
2 6325 11
2 6326 15
2 6327 5
2 6328 55
2 6329 1
2 6330 3
2 6331 3
2 6332 26
2 6333 6
2 6334 85
2 6335 545
2 6336 59
2 6337 30
2 6338 63
2 6339 13
2 6340 97
2 6341 65
2 6342 4
2 6343 27
2 6344 51
2 6345 107
2 6346 5
2 6347 48
2 6348 61
2 6349 92
2 6350 54
2 6351 9
2 6352 3
2 6353 211
2 6354 71
2 6355 6
2 6356 5
2 6357 18
2 6358 8
2 6359 4
2 6360 6
2 6361 124
2 6362 3
2 6363 15
2 6364 11
2 6365 6
2 6366 8
2 6367 73
2 6368 8
2 6369 7
2 6370 3
2 6371 149
2 6372 112
2 6373 5
2 6374 3
2 6375 132
2 6376 119
2 6377 5
2 6378 93
2 6379 7
2 6380 69
2 6381 55
2 6382 66
2 6383 542
2 6384 4
2 6385 45
2 6386 2
2 6387 2
2 6388 2
2 6389 31
2 6390 2
2 6391 80
2 6392 50
2 6393 115
2 6394 3
2 6395 89
2 6396 114
2 6397 1063
2 6398 7
2 6399 7
2 6400 73
2 6401 6
2 6402 286
2 6403 11
2 6404 7
2 6405 15
2 6406 9
2 6407 36
2 6408 65
2 6409 7
2 6410 21
2 6411 147
2 6412 46
2 6413 10
2 6414 6
2 6415 229
2 6416 4
2 6417 88
2 6418 62
2 6419 3
2 6420 1
2 6421 6
2 6422 54
2 6423 923
2 6424 72
2 6425 5
2 6426 54
2 6427 23
2 6428 68
2 6429 4
2 6430 8
2 6431 335
2 6432 5
2 6433 5
2 6434 52
2 6435 3
2 6436 7
2 6437 4
2 6438 121
2 6439 30
2 6440 22
2 6441 4
2 6442 36
2 6443 74
2 6444 30
2 6445 6
2 6446 123
2 6447 36
2 6448 20
2 6449 6
2 6450 107
2 6451 19
2 6452 34
2 6453 28
2 6454 3
2 6455 51
2 6456 14
2 6457 8
2 6458 35
2 6459 104
2 6460 6
2 6461 6
2 6462 122
2 6463 3
2 6464 87
2 6465 83
2 6466 4
2 6467 71
2 6468 122
2 6469 4
2 6470 3
2 6471 141
2 6472 20
2 6473 10
2 6474 87
2 6475 5
2 6476 39
2 6477 33
2 6478 175
2 6479 4
2 6480 37
2 6481 36
2 6482 18
2 6483 114
2 6484 70
2 6485 42
2 6486 4
2 6487 65
2 6488 6
2 6489 51
2 6490 1
2 6491 34
2 6492 38
2 6493 38
2 6494 9
2 6495 1
2 6496 11
2 6497 95
2 6498 7
2 6499 929
2 6500 3
2 6501 9
2 6502 48
2 6503 2
2 6504 4
2 6505 39
2 6506 7
2 6507 4
2 6508 2
2 6509 1
2 6510 5
2 6511 34
2 6512 63
2 6513 16
2 6514 174
2 6515 6
2 6516 9
2 6517 6
2 6518 63
2 6519 59
2 6520 4
2 6521 6
2 6522 7
2 6523 81
2 6524 86
2 6525 6
2 6526 3
2 6527 57
2 6528 11
2 6529 11
2 6530 3
2 6531 497
2 6532 4
2 6533 4
2 6534 120
2 6535 41
2 6536 6
2 6537 1
2 6538 3
2 6539 11
2 6540 1
2 6541 107
2 6542 10
2 6543 34
2 6544 68
2 6545 3
2 6546 45
2 6547 5
2 6548 5
2 6549 141
2 6550 65
2 6551 56
2 6552 6
2 6553 6
2 6555 16
2 6556 3
2 6557 35
2 6558 5
2 6559 3
2 6560 53
2 6561 5
2 6562 44
2 6563 4
2 6564 25
2 6565 6
2 6566 1
2 6567 34
2 6568 6
2 6569 26
2 6570 960
2 6571 3
2 6572 49
2 6573 3
2 6574 3
2 6575 2
2 6576 4
2 6577 3
2 6578 65
2 6579 1
2 6580 8
2 6581 3
2 6582 46
2 6583 37
2 6584 73
2 6585 59
2 6586 35
2 6587 87
2 6588 115
2 6589 4
2 6590 237
2 6591 5
2 6592 123
2 6593 96
2 6594 1
2 6595 37
2 6596 1
2 6597 49
2 6598 34
2 6599 61
2 6600 1
2 6601 54
2 6602 28
2 6603 4
2 6604 3
2 6605 5
2 6606 4
2 6607 3
2 6608 3
2 6609 79
2 6610 64
2 6611 2
2 6612 126
2 6613 59
2 6614 59
2 6615 2
2 6616 1
2 6617 7
2 6618 188
2 6619 3
2 6620 64
2 6621 7
2 6622 94
2 6623 76
2 6624 5
2 6625 6
2 6626 3
2 6627 95
2 6628 46
2 6629 128
2 6630 15
2 6631 120
2 6632 10
2 6633 4
2 6634 7
2 6635 4
2 6636 7
2 6637 5
2 6638 13
2 6639 11
2 6640 72
2 6641 6
2 6642 3
2 6643 2
2 6644 8
2 6645 6
2 6646 4
2 6647 50
2 6648 6
2 6649 11
2 6650 7
2 6651 30
2 6652 3
2 6653 83
2 6654 8
2 6655 88
2 6656 64
2 6657 13
2 6658 25
2 6659 5
2 6660 47
2 6661 7
2 6662 4
2 6663 61
2 6664 6
2 6665 30
2 6666 13
2 6667 43
2 6668 111
2 6669 5
2 6670 75
2 6671 6
2 6672 10
2 6673 94
2 6674 109
2 6675 119
2 6676 105
2 6677 1
2 6678 128
2 6679 522
2 6680 7
2 6681 2
2 6682 94
2 6683 8
2 6684 53
2 6685 36
2 6686 65
2 6687 7
2 6688 57
2 6689 72
2 6690 77
2 6691 11
2 6692 9
2 6693 7
2 6694 8
2 6695 6
2 6696 71
2 6697 80
2 6698 49
2 6699 9
2 6700 56
2 6701 52
2 6702 6
2 6703 356
2 6704 8
2 6705 16
2 6706 15
2 6707 62
2 6708 52
2 6709 46
2 6710 70
2 6711 59
2 6712 4
2 6713 54
2 6714 8
2 6715 2
2 6716 40
2 6717 3
2 6718 69
2 6719 108
2 6720 7
2 6721 86
2 6722 4
2 6723 8
2 6724 6
2 6725 56
2 6726 6
2 6727 132
2 6728 86
2 6729 76
2 6730 44
2 6731 104
2 6732 30
2 6733 74
2 6734 7
2 6735 8
2 6736 5
2 6737 52
2 6738 3
2 6739 3
2 6740 6
2 6741 30
2 6742 6
2 6743 152
2 6744 10
2 6745 5
2 6746 61
2 6747 55
2 6748 25
2 6749 19
2 6750 5
2 6751 5
2 6752 4
2 6753 72
2 6754 27
2 6755 3
2 6756 33
2 6757 3
2 6758 2
2 6759 5
2 6760 313
2 6761 55
2 6762 33
2 6763 4
2 6764 4
2 6765 88
2 6766 226
2 6767 3
2 6768 3
2 6769 38
2 6770 97
2 6771 27
2 6772 8
2 6773 979
2 6774 107
2 6775 12
2 6776 76
2 6777 9
2 6778 68
2 6779 6
2 6780 3
2 6781 20
2 6782 4
2 6783 2
2 6784 26
2 6785 6
2 6786 128
2 6787 52
2 6788 68
2 6789 144
2 6790 43
2 6791 281
2 6792 2
2 6793 7
2 6794 4
2 6795 47
2 6796 7
2 6797 1
2 6798 1
2 6799 11
2 6800 8
2 6801 19
2 6802 23
2 6803 23
2 6804 3
2 6805 31
2 6806 66
2 6807 8
2 6808 5
2 6809 81
2 6810 35
2 6811 9
2 6812 50
2 6813 6
2 6814 1
2 6815 3
2 6816 129
2 6817 37
2 6818 1
2 6819 7
2 6820 49
2 6821 49
2 6822 53
2 6823 24
2 6824 13
2 6825 5
2 6826 5
2 6827 68
2 6828 3
2 6829 41
2 6830 9
2 6831 159
2 6832 84
2 6833 4
2 6834 47
2 6835 178
2 6836 69
2 6837 113
2 6838 3
2 6839 8
2 6840 28
2 6841 4
2 6842 48
2 6843 198
2 6844 5
2 6845 131
2 6846 95
2 6847 6
2 6848 85
2 6849 66
2 6850 30
2 6851 8
2 6852 5
2 6853 1050
2 6854 9
2 6855 180
2 6856 957
2 6857 2
2 6858 3
2 6859 6
2 6860 91
2 6861 6
2 6862 291
2 6863 55
2 6864 2
2 6865 77
2 6866 1
2 6867 3
2 6868 13
2 6869 65
2 6870 62
2 6871 84
2 6872 388
2 6873 118
2 6874 6
2 6875 36
2 6876 53
2 6877 10
2 6878 39
2 6879 4
2 6880 12
2 6881 29
2 6882 7
2 6883 180
2 6884 1029
2 6885 4
2 6886 5
2 6887 29
2 6888 6
2 6889 79
2 6890 76
2 6891 6
2 6892 11
2 6893 52
2 6894 159
2 6895 84
2 6896 3
2 6897 4
2 6898 48
2 6899 174
2 6900 74
2 6901 49
2 6902 81
2 6903 33
2 6904 4
2 6905 120
2 6906 94
2 6907 66
2 6908 2
2 6909 2
2 6910 61
2 6911 59
2 6912 2
2 6913 882
2 6914 58
2 6915 77
2 6916 39
2 6917 80
2 6918 47
2 6919 106
2 6920 354
2 6921 961
2 6922 98
2 6923 16
2 6924 205
2 6925 14
2 6926 59
2 6927 2
2 6928 78
2 6929 3
2 6931 7
2 6932 40
2 6933 10
2 6934 7
2 6935 1
2 6936 292
2 6937 8
2 6938 144
2 6939 78
2 6940 1
2 6941 89
2 6942 87
2 6943 4
2 6944 152
2 6945 3
2 6946 36
2 6947 4
2 6948 4
2 6949 76
2 6950 100
2 6951 75
2 6952 110
2 6953 6
2 6954 24
2 6955 5
2 6956 55
2 6957 503
2 6958 10
2 6959 16
2 6960 48
2 6961 26
2 6962 108
2 6963 22
2 6964 62
2 6965 6
2 6966 5
2 6967 6
2 6968 916
2 6969 17
2 6970 101
2 6971 92
2 6972 7
2 6973 5
2 6974 113
2 6975 117
2 6976 96
2 6977 91
2 6978 6
2 6979 5
2 6980 3
2 6981 9
2 6982 2
2 6983 5
2 6984 87
2 6985 96
2 6986 52
2 6987 93
2 6988 82
2 6989 83
2 6990 31
2 6991 56
2 6992 85
2 6993 45
2 6994 39
2 6995 4
2 6996 96
2 6997 14
2 6998 32
2 6999 5
2 7000 4
2 7001 5
2 7002 8
2 7003 25
2 7004 101
2 7005 7
2 7006 10
2 7007 6
2 7008 712
2 7009 2
2 7010 6
2 7011 5
2 7012 7
2 7013 85
2 7014 116
2 7015 59
2 7016 23
2 7017 96
2 7018 120
2 7019 85
2 7020 18
2 7021 101
2 7022 7
2 7023 6
2 7024 59
2 7025 71
2 7026 3
2 7027 4
2 7028 3
2 7029 109
2 7030 7
2 7031 119
2 7032 6
2 7033 103
2 7034 15
2 7035 9
2 7036 3
2 7037 43
2 7038 6
2 7039 9
2 7040 9
2 7041 891
2 7042 6
2 7043 6
2 7044 133
2 7045 10
2 7046 1070
2 7047 37
2 7048 9
2 7049 8
2 7050 28
2 7051 35
2 7052 38
2 7053 6
2 7054 29
2 7055 6
2 7056 14
2 7057 3
2 7058 6
2 7059 21
2 7060 29
2 7061 10
2 7062 175
2 7063 75
2 7064 69
2 7065 5
2 7066 141
2 7067 67
2 7068 97
2 7069 122
2 7070 132
2 7071 6
2 7072 173
2 7073 41
2 7074 2
2 7075 38
2 7076 91
2 7077 106
2 7078 6
2 7079 4
2 7080 103
2 7081 3
2 7082 82
2 7083 7
2 7084 8
2 7085 6
2 7086 9
2 7087 8
2 7088 76
2 7089 6
2 7090 8
2 7091 71
2 7092 316
2 7093 93
2 7094 12
2 7095 79
2 7096 82
2 7097 6
2 7098 20
2 7099 9
2 7100 6
2 7101 6
2 7102 175
2 7103 124
2 7104 8
2 7105 6
2 7106 70
2 7107 49
2 7108 60
2 7109 864
2 7110 133
2 7111 50
2 7112 17
2 7113 70
2 7114 4
2 7115 98
2 7116 94
2 7117 27
2 7118 18
2 7119 112
2 7120 9
2 7121 12
2 7122 14
2 7123 100
2 7124 83
2 7125 96
2 7126 110
2 7127 137
2 7128 8
2 7129 66
2 7130 22
2 7131 4
2 7132 72
2 7133 64
2 7134 3
2 7135 3
2 7136 88
2 7137 87
2 7138 6
2 7139 4
2 7140 97
2 7141 7
2 7142 26
2 7143 475
2 7144 5
2 7145 5
2 7146 6
2 7147 76
2 7148 11
2 7149 70
2 7150 118
2 7151 44
2 7152 81
2 7153 3
2 7154 3
2 7155 61
2 7156 133
2 7157 50
2 7158 100
2 7159 4
2 7160 11
2 7161 59
2 7162 255
2 7163 6
2 7164 41
2 7165 6
2 7166 4
2 7167 4
2 7168 28
2 7169 144
2 7170 3
2 7171 114
2 7172 40
2 7173 36
2 7174 85
2 7175 40
2 7176 95
2 7177 79
2 7178 95
2 7179 6
2 7180 7
2 7181 7
2 7182 105
2 7183 10
2 7184 34
2 7185 2
2 7186 1027
2 7187 91
2 7188 7
2 7189 8
2 7190 5
2 7191 26
2 7192 8
2 7193 11
2 7194 79
2 7195 6
2 7196 121
2 7198 44
2 7199 7
2 7200 4
2 7201 5
2 7202 6
2 7203 1078
2 7204 4
2 7205 100
2 7206 98
2 7207 6
2 7208 135
2 7209 43
2 7210 112
2 7211 154
2 7212 5
2 7213 4
2 7214 24
2 7215 106
2 7216 122
2 7217 792
2 7218 5
2 7219 41
2 7220 76
2 7221 124
2 7222 4
2 7223 8
2 7224 34
2 7225 45
2 7226 9
2 7227 161
2 7228 153
2 7229 10
2 7230 1
2 7231 99
2 7232 10
2 7233 4
2 7234 6
2 7235 123
2 7236 6
2 7237 2
2 7238 5
2 7239 29
2 7240 69
2 7241 34
2 7242 10
2 7243 7
2 7244 4
2 7245 7
2 7246 43
2 7247 3
2 7248 64
2 7249 31
2 7250 118
2 7251 76
2 7252 82
2 7253 208
2 7254 131
2 7255 14
2 7256 6
2 7257 110
2 7258 521
2 7259 82
2 7260 5
2 7261 11
2 7262 5
2 7263 61
2 7264 6
2 7265 80
2 7266 8
2 7267 96
2 7268 31
2 7269 4
2 7270 94
2 7271 88
2 7272 22
2 7273 4
2 7274 52
2 7275 67
2 7276 131
2 7277 42
2 7278 848
2 7279 109
2 7280 53
2 7281 63
2 7282 99
2 7283 97
2 7284 5
2 7285 10
2 7286 7
2 7287 28
2 7288 9
2 7289 45
2 7290 107
2 7291 45
2 7292 7
2 7293 99
2 7294 56
2 7295 87
2 7296 9
2 7297 108
2 7298 23
2 7299 52
2 7300 76
2 7301 148
2 7302 16
2 7303 6
2 7304 8
2 7305 44
2 7306 4
2 7307 2
2 7308 52
2 7309 65
2 7310 33
2 7311 8
2 7312 40
2 7313 7
2 7314 26
2 7315 121
2 7316 140
2 7317 91
2 7318 963
2 7319 7
2 7320 8
2 7321 28
2 7322 41
2 7323 62
2 7324 23
2 7325 183
2 7326 9
2 7327 226
2 7328 84
2 7329 100
2 7330 832
2 7331 6
2 7332 10
2 7333 79
2 7334 8
2 7335 18
2 7336 4
2 7337 100
2 7338 6
2 7339 6
2 7340 126
2 7341 20
2 7342 10
2 7343 8
2 7344 4
2 7345 2
2 7346 7
2 7347 183
2 7348 5
2 7349 30
2 7350 75
2 7351 22
2 7352 79
2 7353 512
2 7354 6
2 7355 871
2 7356 4
2 7357 42
2 7358 6
2 7359 55
2 7360 3
2 7361 9
2 7362 65
2 7363 7
2 7364 31
2 7365 3
2 7366 64
2 7367 49
2 7368 4
2 7369 38
2 7370 85
2 7371 59
2 7372 44
2 7373 8
2 7374 89
2 7375 4
2 7376 8
2 7377 37
2 7378 49
2 7379 82
2 7380 956
2 7381 81
2 7382 114
2 7383 3
2 7384 89
2 7385 156
2 7386 57
2 7387 65
2 7388 1
2 7389 60
2 7390 50
2 7391 78
2 7392 6
2 7393 29
2 7394 96
2 7395 87
2 7396 119
2 7397 90
2 7398 8
2 7399 13
2 7400 63
2 7401 5
2 7402 101
2 7403 5
2 7404 48
2 7405 117
2 7406 136
2 7407 122
2 7408 355
2 7409 8
2 7410 41
2 7411 89
2 7412 7
2 7413 280
2 7414 42
2 7415 52
2 7416 66
2 7417 72
2 7418 58
2 7419 4
2 7420 99
2 7421 116
2 7422 705
2 7423 5
2 7424 10
2 7425 35
2 7426 7
2 7427 45
2 7428 52
2 7429 60
2 7430 22
2 7431 83
2 7432 78
2 7433 4
2 7434 4
2 7435 47
2 7436 92
2 7437 71
2 7438 34
2 7439 830
2 7440 35
2 7441 13
2 7442 97
2 7443 388
2 7444 7
2 7445 4
2 7446 73
2 7447 38
2 7448 140
2 7449 146
2 7450 5
2 7451 4
2 7452 129
2 7453 5
2 7454 80
2 7455 85
2 7456 57
2 7457 4
2 7458 2
2 7459 3
2 7460 3
2 7461 4
2 7462 1
2 7463 43
2 7464 9
2 7465 84
2 7466 48
2 7467 46
2 7468 92
2 7469 4
2 7470 105
2 7471 4
2 7472 90
2 7473 994
2 7474 84
2 7475 73
2 7476 720
2 7477 46
2 7478 74
2 7479 31
2 7480 5
2 7481 3
2 7482 5
2 7483 78
2 7484 6
2 7485 7
2 7486 6
2 7487 106
2 7488 6
2 7489 10
2 7490 67
2 7491 10
2 7492 3
2 7493 66
2 7494 8
2 7495 34
2 7496 11
2 7497 5
2 7498 124
2 7499 6
2 7500 92
2 7501 423
2 7502 5
2 7503 20
2 7504 161
2 7505 7
2 7506 7
2 7507 15
2 7508 137
2 7509 121
2 7510 6
2 7511 30
2 7512 4
2 7513 4
2 7514 28
2 7515 338
2 7516 128
2 7517 41
2 7518 87
2 7519 3
2 7520 10
2 7521 85
2 7522 61
2 7523 8
2 7524 60
2 7525 35
2 7526 48
2 7527 6
2 7528 109
2 7529 60
2 7530 96
2 7531 157
2 7532 40
2 7533 9
2 7534 65
2 7535 4
2 7536 8
2 7537 48
2 7538 46
2 7539 4
2 7540 4
2 7541 52
2 7542 79
2 7543 4
2 7544 6
2 7545 77
2 7546 27
2 7547 105
2 7548 27
2 7549 38
2 7550 9
2 7551 8
2 7552 3
2 7553 35
2 7554 4
2 7555 3
2 7556 3
2 7557 64
2 7558 70
2 7559 3
2 7560 7
2 7561 5
2 7562 5
2 7563 58
2 7564 86
2 7565 75
2 7566 513
2 7567 86
2 7568 663
2 7569 159
2 7570 5
2 7571 145
2 7572 4
2 7573 9
2 7574 49
2 7575 58
2 7576 88
2 7577 3
2 7578 71
2 7579 4
2 7580 181
2 7581 24
2 7582 5
2 7583 84
2 7584 105
2 7585 107
2 7586 87
2 7587 60
2 7588 6
2 7589 5
2 7590 3
2 7591 9
2 7592 65
2 7593 5
2 7594 104
2 7595 24
2 7596 4
2 7597 44
2 7598 7
2 7599 37
2 7600 149
2 7601 10
2 7602 72
2 7603 67
2 7604 6
2 7605 49
2 7606 5
2 7607 7
2 7608 126
2 7609 19
2 7610 5
2 7611 51
2 7612 93
2 7613 116
2 7614 39
2 7615 63
2 7616 116
2 7617 80
2 7618 11
2 7619 7
2 7620 131
2 7621 49
2 7622 151
2 7623 1
2 7624 6
2 7625 40
2 7626 30
2 7627 63
2 7628 18
2 7629 8
2 7630 2
2 7631 6
2 7632 27
2 7633 47
2 7634 4
2 7635 834
2 7636 13
2 7637 6
2 7638 83
2 7639 120
2 7640 3
2 7641 6
2 7642 64
2 7643 2
2 7644 29
2 7645 258
2 7646 85
2 7647 6
2 7648 1
2 7649 5
2 7650 3
2 7651 93
2 7652 6
2 7653 88
2 7654 2
2 7655 19
2 7656 4
2 7657 3
2 7658 119
2 7659 8
2 7660 887
2 7661 54
2 7662 51
2 7663 123
2 7664 34
2 7665 7
2 7666 43
2 7667 48
2 7668 5
2 7669 3
2 7670 20
2 7671 31
2 7672 6
2 7673 141
2 7674 98
2 7675 6
2 7676 17
2 7677 20
2 7678 93
2 7679 5
2 7680 149
2 7681 408
2 7682 9
2 7683 1
2 7684 169
2 7685 63
2 7686 164
2 7687 42
2 7688 3
2 7689 3
2 7690 10
2 7691 94
2 7692 35
2 7693 1
2 7694 176
2 7695 52
2 7696 6
2 7697 5
2 7698 64
2 7699 5
2 7700 10
2 7701 93
2 7702 39
2 7703 51
2 7704 102
2 7705 163
2 7706 59
2 7707 83
2 7708 616
2 7709 4
2 7710 89
2 7711 49
2 7712 521
2 7713 87
2 7714 8
2 7715 133
2 7716 35
2 7717 75
2 7718 7
2 7719 5
2 7720 88
2 7721 78
2 7722 100
2 7723 1
2 7724 48
2 7725 46
2 7726 1
2 7727 2
2 7728 264
2 7729 2
2 7730 3
2 7731 46
2 7732 27
2 7733 34
2 7734 66
2 7735 84
2 7736 6
2 7737 110
2 7738 48
2 7739 98
2 7740 59
2 7741 3
2 7742 26
2 7743 4
2 7744 4
2 7745 3
2 7746 83
2 7747 99
2 7748 73
2 7749 47
2 7750 14
2 7751 86
2 7752 65
2 7753 4
2 7754 81
2 7755 1
2 7756 48
2 7757 27
2 7758 33
2 7759 43
2 7760 64
2 7761 39
2 7762 78
2 7763 3
2 7764 8
2 7765 33
2 7766 6
2 7767 82
2 7768 925
2 7769 4
2 7770 26
2 7771 1059
2 7772 111
2 7773 39
2 7774 139
2 7775 119
2 7776 2
2 7777 10
2 7778 143
2 7779 76
2 7780 31
2 7781 83
2 7782 7
2 7783 5
2 7784 5
2 7785 31
2 7786 120
2 7787 139
2 7788 22
2 7789 44
2 7790 20
2 7791 111
2 7792 63
2 7793 5
2 7794 5
2 7795 23
2 7796 8
2 7797 6
2 7798 10
2 7799 37
2 7800 13
2 7801 29
2 7802 10
2 7803 118
2 7804 115
2 7805 10
2 7806 48
2 7807 6
2 7808 5
2 7809 39
2 7810 50
2 7811 43
2 7812 4
2 7813 82
2 7814 76
2 7815 2
2 7816 60
2 7817 43
2 7818 12
2 7819 4
2 7820 35
2 7821 64
2 7822 8
2 7823 11
2 7824 98
2 7825 4
2 7826 76
2 7827 56
2 7828 16
2 7829 72
2 7830 37
2 7831 61
2 7832 39
2 7833 6
2 7834 305
2 7835 92
2 7836 3
2 7837 7
2 7838 3
2 7839 42
2 7840 91
2 7841 7
2 7842 3
2 7843 95
2 7844 4
2 7845 3
2 7846 77
2 7847 7
2 7848 162
2 7849 571
2 7850 2
2 7851 7
2 7852 111
2 7853 4
2 7854 90
2 7855 18
2 7856 89
2 7857 2
2 7858 146
2 7859 4
2 7860 66
2 7861 65
2 7862 78
2 7863 66
2 7864 64
2 7865 216
2 7866 65
2 7867 4
2 7868 5
2 7869 63
2 7870 40
2 7871 52
2 7872 5
2 7873 5
2 7874 9
2 7875 7
2 7876 5
2 7877 12
2 7878 16
2 7879 45
2 7880 10
2 7881 21
2 7882 82
2 7883 2
2 7884 104
2 7885 4
2 7886 4
2 7887 94
2 7888 62
2 7889 2
2 7890 508
2 7891 5
2 7892 49
2 7893 40
2 7894 2
2 7895 63
2 7896 4
2 7897 8
2 7898 28
2 7899 6
2 7900 9
2 7901 58
2 7902 31
2 7903 134
2 7904 50
2 7905 3
2 7906 62
2 7907 17
2 7908 6
2 7909 8
2 7910 61
2 7911 74
2 7912 155
2 7913 3
2 7914 93
2 7915 6
2 7916 464
2 7917 7
2 7918 69
2 7919 119
2 7920 6
2 7921 26
2 7922 594
2 7923 7
2 7924 9
2 7925 10
2 7926 95
2 7927 47
2 7928 4
2 7929 3
2 7930 4
2 7931 7
2 7932 2
2 7933 80
2 7934 2
2 7935 153
2 7936 67
2 7937 155
2 7938 104
2 7939 108
2 7940 50
2 7941 4
2 7942 43
2 7943 71
2 7944 63
2 7945 5
2 7946 4
2 7947 57
2 7948 3
2 7949 115
2 7950 36
2 7951 51
2 7952 5
2 7953 51
2 7954 63
2 7955 6
2 7956 55
2 7957 2
2 7958 8
2 7959 17
2 7960 7
2 7961 64
2 7962 76
2 7963 6
2 7964 6
2 7965 2
2 7966 4
2 7967 51
2 7968 87
2 7969 3
2 7970 103
2 7971 16
2 7972 101
2 7973 8
2 7974 78
2 7975 8
2 7976 9
2 7977 8
2 7978 5
2 7979 6
2 7980 62
2 7981 3
2 7982 6
2 7983 5
2 7984 4
2 7985 149
2 7986 9
2 7987 102
2 7988 7
2 7989 32
2 7990 80
2 7991 121
2 7992 4
2 7993 65
2 7994 29
2 7995 7
2 7996 28
2 7997 42
2 7998 116
2 7999 6
2 8000 5
2 8001 5
2 8002 28
2 8003 48
2 8004 4
2 8005 133
2 8006 55
2 8007 94
2 8008 5
2 8009 3
2 8010 150
2 8011 47
2 8012 64
2 8013 5
2 8014 113
2 8015 5
2 8016 6
2 8017 34
2 8018 11
2 8019 102
2 8020 3
2 8021 84
2 8022 13
2 8023 65
2 8024 15
2 8025 8
2 8026 6
2 8027 6
2 8028 1
2 8029 4
2 8030 219
2 8031 10
2 8032 3
2 8033 54
2 8034 10
2 8035 4
2 8036 67
2 8037 40
2 8038 8
2 8039 5
2 8040 39
2 8041 74
2 8042 218
2 8043 150
2 8044 3
2 8045 7
2 8046 26
2 8047 75
2 8048 139
2 8049 52
2 8050 56
2 8051 70
2 8052 80
2 8053 130
2 8054 6
2 8055 67
2 8056 25
2 8057 74
2 8058 119
2 8059 52
2 8060 7
2 8061 60
2 8062 4
2 8063 7
2 8064 4
2 8065 147
2 8066 5
2 8067 8
2 8068 12
2 8069 81
2 8070 5
2 8071 101
2 8072 79
2 8073 38
2 8074 167
2 8075 6
2 8076 1
2 8077 105
2 8078 103
2 8079 5
2 8080 2
2 8081 1
2 8082 4
2 8083 3
2 8084 4
2 8085 126
2 8086 48
2 8087 9
2 8088 491
2 8089 2
2 8090 123
2 8091 5
2 8092 74
2 8093 11
2 8094 9
2 8095 9
2 8096 6
2 8097 100
2 8098 76
2 8099 84
2 8100 52
2 8101 84
2 8102 66
2 8103 58
2 8104 63
2 8105 2
2 8106 2
2 8107 65
2 8108 83
2 8109 26
2 8110 62
2 8111 9
2 8112 82
2 8113 3
2 8114 77
2 8115 19
2 8116 79
2 8117 1069
2 8118 2
2 8119 28
2 8120 35
2 8121 58
2 8122 1
2 8123 103
2 8124 9
2 8125 10
2 8126 50
2 8127 4
2 8128 7
2 8129 49
2 8130 10
2 8131 76
2 8132 131
2 8133 9
2 8134 5
2 8135 2
2 8136 46
2 8137 239
2 8138 2
2 8139 182
2 8140 29
2 8141 5
2 8142 6
2 8143 122
2 8144 10
2 8145 64
2 8146 58
2 8147 6
2 8148 4
2 8149 78
2 8150 2
2 8151 54
2 8152 6
2 8153 5
2 8154 114
2 8155 96
2 8156 69
2 8157 73
2 8158 99
2 8159 86
2 8160 76
2 8161 62
2 8162 124
2 8163 54
2 8164 7
2 8165 52
2 8166 37
2 8167 38
2 8168 122
2 8169 10
2 8170 82
2 8171 116
2 8172 32
2 8173 4
2 8174 63
2 8175 98
2 8176 48
2 8177 12
2 8178 17
2 8179 5
2 8180 3
2 8181 7
2 8182 4
2 8183 527
2 8184 59
2 8185 4
2 8186 102
2 8187 43
2 8188 5
2 8189 173
2 8190 38
2 8191 88
2 8192 5
2 8193 8
2 8195 79
2 8196 5
2 8197 137
2 8198 63
2 8199 11
2 8200 73
2 8201 147
2 8202 52
2 8203 3
2 8204 7
2 8205 72
2 8206 36
2 8207 10
2 8208 3
2 8209 3
2 8210 121
2 8211 1
2 8212 5
2 8213 6
2 8214 89
2 8215 115
2 8216 109
2 8217 81
2 8218 174
2 8219 455
2 8220 5
2 8221 4
2 8222 18
2 8223 3
2 8224 5
2 8225 7
2 8226 86
2 8227 109
2 8228 106
2 8229 64
2 8230 121
2 8231 10
2 8232 116
2 8233 67
2 8234 5
2 8235 6
2 8236 73
2 8237 5
2 8238 197
2 8239 788
2 8240 31
2 8241 68
2 8242 68
2 8243 6
2 8244 63
2 8245 102
2 8246 42
2 8247 11
2 8248 31
2 8249 34
2 8250 133
2 8251 28
2 8252 99
2 8253 944
2 8254 49
2 8255 37
2 8256 61
2 8257 4
2 8258 10
2 8259 95
2 8260 2
2 8261 27
2 8262 4
2 8263 53
2 8264 27
2 8265 4
2 8266 65
2 8267 69
2 8268 30
2 8269 36
2 8270 71
2 8271 109
2 8272 1064
2 8273 12
2 8274 877
2 8275 85
2 8276 71
2 8277 100
2 8278 6
2 8279 3
2 8280 35
2 8281 2
2 8282 5
2 8283 3
2 8284 8
2 8285 418
2 8286 6
2 8287 8
2 8288 46
2 8289 105
2 8290 4
2 8291 4
2 8292 4
2 8293 4
2 8294 5
2 8295 63
2 8296 11
2 8297 18
2 8298 6
2 8299 8
2 8300 2
2 8301 1
2 8302 2
2 8303 60
2 8304 125
2 8305 3
2 8306 141
2 8307 126
2 8308 8
2 8309 3
2 8310 45
2 8311 12
2 8312 6
2 8313 8
2 8314 115
2 8315 36
2 8316 10
2 8317 3
2 8318 6
2 8319 6
2 8320 5
2 8321 2
2 8322 7
2 8323 9
2 8324 10
2 8325 95
2 8326 1004
2 8327 71
2 8328 62
2 8329 7
2 8330 937
2 8331 58
2 8332 6
2 8333 72
2 8334 6
2 8335 5
2 8336 3
2 8337 111
2 8338 66
2 8339 83
2 8340 89
2 8341 29
2 8342 6
2 8343 7
2 8344 10
2 8345 59
2 8346 5
2 8347 7
2 8348 6
2 8349 76
2 8350 2
2 8351 6
2 8352 30
2 8353 2
2 8354 237
2 8355 41
2 8356 2
2 8357 63
2 8358 1099
2 8359 4
2 8360 8
2 8361 7
2 8362 6
2 8363 262
2 8364 11
2 8365 1
2 8366 94
2 8367 108
2 8368 85
2 8369 1078
2 8370 10
2 8371 68
2 8372 8
2 8373 114
2 8374 6
2 8375 491
2 8376 68
2 8377 105
2 8378 72
2 8379 69
2 8380 132
2 8381 8
2 8382 82
2 8383 68
2 8384 109
2 8385 3
2 8386 57
2 8387 4
2 8388 107
2 8389 22
2 8390 133
2 8391 52
2 8392 9
2 8393 5
2 8394 45
2 8395 10
2 8396 623
2 8397 8
2 8398 5
2 8399 112
2 8400 81
2 8401 5
2 8402 54
2 8403 4
2 8404 82
2 8405 91
2 8406 57
2 8407 813
2 8408 85
2 8409 6
2 8410 87
2 8411 32
2 8412 55
2 8413 4
2 8414 56
2 8415 12
2 8416 715
2 8417 35
2 8418 107
2 8419 8
2 8420 6
2 8421 50
2 8422 59
2 8423 45
2 8424 6
2 8425 77
2 8426 75
2 8427 33
2 8428 121
2 8429 2
2 8430 34
2 8431 2
2 8432 81
2 8433 37
2 8434 12
2 8435 582
2 8436 135
2 8437 22
2 8438 4
2 8439 6
2 8440 6
2 8441 86
2 8442 53
2 8443 50
2 8444 23
2 8445 8
2 8446 49
2 8447 5
2 8448 54
2 8449 3
2 8450 1
2 8451 5
2 8452 9
2 8453 22
2 8454 74
2 8455 60
2 8456 4
2 8457 4
2 8458 9
2 8459 4
2 8460 2
2 8461 42
2 8462 76
2 8463 66
2 8464 37
2 8465 74
2 8466 3
2 8467 6
2 8468 64
2 8469 13
2 8470 6
2 8471 4
2 8472 74
2 8473 30
2 8474 4
2 8475 11
2 8476 5
2 8477 8
2 8478 5
2 8479 1
2 8480 72
2 8481 45
2 8482 4
2 8483 33
2 8484 2
2 8485 120
2 8486 115
2 8487 83
2 8488 981
2 8489 80
2 8490 608
2 8491 43
2 8492 4
2 8493 91
2 8494 7
2 8495 6
2 8496 256
2 8497 31
2 8498 71
2 8499 2
2 8500 14
2 8501 14
2 8502 96
2 8503 7
2 8504 18
2 8505 107
2 8506 458
2 8507 11
2 8508 173
2 8509 9
2 8510 3
2 8511 8
2 8512 7
2 8513 122
2 8514 132
2 8515 5
2 8516 3
2 8517 10
2 8518 33
2 8519 8
2 8520 4
2 8521 6
2 8522 89
2 8523 3
2 8524 118
2 8525 71
2 8526 6
2 8527 10
2 8528 61
2 8529 6
2 8530 7
2 8531 4
2 8532 47
2 8533 15
2 8534 142
2 8535 444
2 8536 115
2 8537 33
2 8538 37
2 8539 45
2 8540 5
2 8541 56
2 8542 973
2 8543 8
2 8544 75
2 8545 48
2 8546 7
2 8547 1
2 8548 16
2 8549 6
2 8550 3
2 8551 6
2 8552 60
2 8553 24
2 8554 3
2 8555 5
2 8556 29
2 8557 7
2 8558 26
2 8559 831
2 8560 7
2 8561 38
2 8562 1
2 8563 87
2 8564 18
2 8565 86
2 8566 18
2 8567 115
2 8568 90
2 8569 3
2 8570 66
2 8571 4
2 8572 127
2 8573 7
2 8574 90
2 8575 31
2 8576 4
2 8577 107
2 8578 32
2 8579 46
2 8580 16
2 8581 3
2 8582 3
2 8583 127
2 8584 66
2 8585 10
2 8586 52
2 8587 48
2 8588 2
2 8589 3
2 8590 90
2 8591 42
2 8592 38
2 8593 8
2 8594 45
2 8595 2
2 8596 74
2 8597 8
2 8598 32
2 8599 126
2 8600 68
2 8601 6
2 8602 92
2 8603 121
2 8604 2
2 8605 4
2 8606 1
2 8607 11
2 8608 53
2 8609 4
2 8610 12
2 8611 5
2 8612 51
2 8613 1
2 8614 6
2 8615 3
2 8616 2
2 8617 109
2 8618 55
2 8619 60
2 8620 125
2 8621 62
2 8622 24
2 8623 9
2 8624 229
2 8625 95
2 8626 10
2 8627 71
2 8628 9
2 8629 45
2 8630 103
2 8631 38
2 8632 90
2 8633 5
2 8634 2
2 8635 16
2 8636 66
2 8637 617
2 8638 11
2 8639 41
2 8640 10
2 8641 413
2 8642 81
2 8643 1
2 8644 45
2 8645 9
2 8646 67
2 8647 116
2 8648 4
2 8649 20
2 8650 7
2 8651 119
2 8652 110
2 8653 3
2 8654 48
2 8655 80
2 8656 5
2 8657 74
2 8658 35
2 8659 32
2 8660 4
2 8661 85
2 8662 66
2 8663 84
2 8664 636
2 8665 120
2 8666 55
2 8667 3
2 8668 5
2 8669 78
2 8670 57
2 8671 85
2 8672 132
2 8673 67
2 8674 106
2 8675 1
2 8676 4
2 8677 3
2 8678 83
2 8679 63
2 8680 60
2 8681 41
2 8682 29
2 8683 7
2 8684 72
2 8685 20
2 8686 5
2 8687 3
2 8688 10
2 8689 9
2 8690 75
2 8691 3
2 8692 148
2 8693 11
2 8694 5
2 8695 11
2 8696 94
2 8697 6
2 8698 7
2 8699 7
2 8700 63
2 8701 2
2 8702 6
2 8703 89
2 8704 97
2 8705 6
2 8706 762
2 8707 5
2 8708 2
2 8709 2
2 8710 51
2 8711 107
2 8712 42
2 8713 36
2 8714 12
2 8715 21
2 8716 4
2 8717 7
2 8718 130
2 8719 3
2 8720 8
2 8721 19
2 8722 5
2 8723 16
2 8724 177
2 8725 74
2 8726 2
2 8727 8
2 8728 115
2 8729 133
2 8730 6
2 8731 5
2 8732 99
2 8733 49
2 8734 2
2 8735 120
2 8736 3
2 8737 33
2 8738 5
2 8739 26
2 8740 125
2 8741 9
2 8742 6
2 8743 69
2 8744 4
2 8745 75
2 8746 8
2 8747 153
2 8748 59
2 8749 115
2 8750 77
2 8751 4
2 8752 40
2 8753 7
2 8754 72
2 8755 5
2 8756 11
2 8757 106
2 8758 62
2 8759 7
2 8760 4
2 8761 54
2 8762 58
2 8763 8
2 8764 2
2 8765 196
2 8766 7
2 8767 9
2 8768 126
2 8769 132
2 8770 59
2 8771 4
2 8772 9
2 8773 22
2 8774 135
2 8775 4
2 8776 8
2 8777 87
2 8778 131
2 8779 55
2 8780 292
2 8781 1
2 8782 49
2 8783 49
2 8784 6
2 8785 16
2 8786 5
2 8787 30
2 8788 127
2 8789 67
2 8790 7
2 8791 47
2 8792 5
2 8793 84
2 8794 4
2 8795 7
2 8796 3
2 8797 162
2 8798 98
2 8799 31
2 8800 72
2 8801 8
2 8802 3
2 8803 6
2 8804 25
2 8805 9
2 8806 4
2 8807 56
2 8808 41
2 8809 30
2 8810 5
2 8811 13
2 8812 101
2 8813 104
2 8814 290
2 8815 4
2 8816 5
2 8817 33
2 8818 3
2 8819 5
2 8820 6
2 8821 43
2 8822 123
2 8823 4
2 8824 242
2 8825 64
2 8826 102
2 8827 6
2 8828 3
2 8829 77
2 8830 3
2 8831 4
2 8832 114
2 8833 3
2 8834 1
2 8835 30
2 8836 9
2 8837 1018
2 8838 841
2 8839 178
2 8840 146
2 8841 66
2 8842 225
2 8843 6
2 8844 5
2 8845 62
2 8846 6
2 8847 48
2 8848 7
2 8849 10
2 8850 118
2 8851 89
2 8852 112
2 8853 88
2 8854 78
2 8855 9
2 8856 82
2 8857 8
2 8858 63
2 8859 8
2 8860 200
2 8861 82
2 8862 6
2 8863 64
2 8864 320
2 8865 8
2 8866 79
2 8867 2
2 8868 4
2 8869 72
2 8870 41
2 8871 9
2 8872 7
2 8873 6
2 8874 172
2 8875 852
2 8876 107
2 8877 10
2 8878 80
2 8879 7
2 8880 38
2 8881 97
2 8882 25
2 8883 6
2 8884 4
2 8885 4
2 8886 6
2 8887 5
2 8888 4
2 8889 60
2 8890 150
2 8891 28
2 8892 27
2 8893 39
2 8894 982
2 8895 3
2 8896 44
2 8897 106
2 8898 187
2 8899 3
2 8900 4
2 8901 208
2 8902 18
2 8903 8
2 8904 63
2 8905 13
2 8906 42
2 8907 63
2 8908 97
2 8909 10
2 8910 35
2 8911 85
2 8912 47
2 8913 14
2 8914 122
2 8915 65
2 8916 10
2 8917 110
2 8918 257
2 8919 111
2 8920 5
2 8921 5
2 8922 90
2 8923 10
2 8924 54
2 8925 41
2 8926 126
2 8927 7
2 8928 113
2 8929 107
2 8930 6
2 8931 124
2 8932 3
2 8933 11
2 8934 12
2 8935 24
2 8936 102
2 8937 61
2 8938 7
2 8939 78
2 8940 75
2 8941 130
2 8942 107
2 8943 7
2 8944 4
2 8945 76
2 8946 8
2 8948 4
2 8949 4
2 8950 73
2 8951 76
2 8952 46
2 8953 76
2 8954 3
2 8955 13
2 8956 20
2 8957 59
2 8958 6
2 8959 4
2 8960 1
2 8961 8
2 8962 41
2 8963 6
2 8964 1040
2 8965 11
2 8966 5
2 8967 67
2 8968 1
2 8969 15
2 8970 290
2 8971 9
2 8972 2
2 8973 6
2 8974 6
2 8975 12
2 8976 70
2 8977 6
2 8978 73
2 8979 95
2 8980 33
2 8981 5
2 8982 44
2 8983 19
2 8984 67
2 8985 73
2 8986 6
2 8987 90
2 8988 62
2 8989 6
2 8990 3
2 8991 34
2 8992 51
2 8993 68
2 8994 11
2 8995 45
2 8996 40
2 8997 7
2 8998 12
2 8999 22
2 9000 30
2 9001 5
2 9002 67
2 9003 174
2 9004 90
2 9005 2
2 9006 54
2 9007 46
2 9008 2
2 9009 9
2 9010 6
2 9011 114
2 9012 98
2 9013 5
2 9014 179
2 9015 8
2 9016 10
2 9017 66
2 9018 55
2 9019 552
2 9020 908
2 9021 156
2 9022 1
2 9023 114
2 9024 2
2 9025 72
2 9026 54
2 9027 101
2 9028 123
2 9029 52
2 9030 4
2 9031 1
2 9032 82
2 9033 74
2 9034 121
2 9035 81
2 9036 132
2 9037 6
2 9038 97
2 9039 74
2 9040 153
2 9041 5
2 9042 69
2 9043 82
2 9044 9
2 9045 56
2 9046 4
2 9047 68
2 9048 57
2 9049 57
2 9050 96
2 9051 93
2 9052 110
2 9053 77
2 9054 7
2 9055 9
2 9056 5
2 9057 6
2 9058 10
2 9059 102
2 9060 6
2 9061 10
2 9062 74
2 9063 230
2 9064 71
2 9065 9
2 9066 157
2 9067 7
2 9068 4
2 9069 32
2 9070 865
2 9071 103
2 9072 114
2 9073 459
2 9074 170
2 9075 77
2 9076 72
2 9077 7
2 9078 111
2 9079 83
2 9080 54
2 9081 6
2 9082 68
2 9083 116
2 9084 3
2 9085 13
2 9086 34
2 9087 32
2 9088 140
2 9089 45
2 9090 155
2 9091 35
2 9092 75
2 9093 127
2 9094 14
2 9095 5
2 9096 5
2 9097 135
2 9098 6
2 9099 95
2 9100 115
2 9101 2
2 9102 960
2 9103 2
2 9104 33
2 9105 583
2 9106 52
2 9107 3
2 9108 6
2 9109 11
2 9110 4
2 9111 18
2 9112 8
2 9113 48
2 9114 3
2 9115 6
2 9116 14
2 9117 93
2 9119 640
2 9120 10
2 9121 4
2 9122 231
2 9123 6
2 9124 57
2 9125 128
2 9126 112
2 9127 71
2 9128 79
2 9129 148
2 9130 151
2 9131 4
2 9132 88
2 9133 6
2 9134 81
2 9135 98
2 9136 8
2 9137 95
2 9138 2
2 9139 50
2 9140 7
2 9141 2
2 9142 5
2 9143 54
2 9144 5
2 9145 100
2 9146 263
2 9147 48
2 9148 48
2 9149 47
2 9150 4
2 9151 121
2 9152 2
2 9153 1
2 9154 3
2 9155 4
2 9156 2
2 9157 4
2 9158 84
2 9159 7
2 9160 106
2 9161 597
2 9162 2
2 9163 150
2 9164 4
2 9165 50
2 9166 5
2 9167 2
2 9168 113
2 9169 123
2 9170 59
2 9171 176
2 9172 707
2 9173 80
2 9174 11
2 9175 50
2 9176 166
2 9177 11
2 9178 3
2 9179 27
2 9180 100
2 9181 30
2 9182 8
2 9183 45
2 9184 35
2 9185 77
2 9186 56
2 9187 6
2 9188 2
2 9189 19
2 9190 4
2 9191 12
2 9192 4
2 9193 184
2 9194 44
2 9195 35
2 9196 6
2 9197 54
2 9198 39
2 9199 4
2 9200 83
2 9201 3
2 9202 8
2 9203 883
2 9204 58
2 9205 8
2 9206 23
2 9207 38
2 9208 7
2 9209 8
2 9210 6
2 9211 27
2 9212 6
2 9213 7
2 9214 10
2 9215 70
2 9216 68
2 9217 3
2 9218 4
2 9220 19
2 9222 5
2 9223 4
2 9224 26
2 9225 71
2 9226 3
2 9227 9
2 9228 157
2 9229 107
2 9230 2
2 9231 814
2 9232 43
2 9233 4
2 9234 62
2 9235 3
2 9236 39
2 9237 6
2 9238 6
2 9239 12
2 9240 107
2 9241 32
2 9242 9
2 9243 5
2 9244 5
2 9245 3
2 9246 2
2 9247 98
2 9248 69
2 9249 2
2 9250 6
2 9251 49
2 9252 11
2 9253 4
2 9254 7
2 9255 53
2 9256 100
2 9257 67
2 9258 108
2 9259 8
2 9260 68
2 9261 11
2 9262 5
2 9263 120
2 9264 35
2 9265 43
2 9266 5
2 9267 9
2 9268 9
2 9269 7
2 9270 73
2 9271 34
2 9272 49
2 9273 105
2 9274 7
2 9275 4
2 9276 28
2 9277 8
2 9278 10
2 9279 103
2 9280 33
2 9281 3
2 9282 135
2 9283 5
2 9284 6
2 9285 4
2 9286 45
2 9287 67
2 9288 7
2 9289 3
2 9290 1
2 9291 38
2 9292 6
2 9293 1105
2 9294 57
2 9295 24
2 9296 8
2 9297 27
2 9298 42
2 9299 4
2 9300 26
2 9301 8
2 9302 2
2 9303 32
2 9304 7
2 9305 10
2 9306 101
2 9307 88
2 9308 7
2 9309 3
2 9310 2
2 9311 65
2 9312 4
2 9313 6
2 9314 72
2 9315 2
2 9316 6
2 9317 8
2 9318 17
2 9319 65
2 9320 10
2 9321 64
2 9322 90
2 9323 11
2 9324 7
2 9325 276
2 9326 5
2 9327 6
2 9328 811
2 9329 91
2 9330 111
2 9331 146
2 9332 62
2 9333 34
2 9334 65
2 9335 121
2 9336 35
2 9337 2
2 9338 15
2 9339 115
2 9340 8
2 9341 22
2 9342 5
2 9343 86
2 9344 65
2 9345 109
2 9346 64
2 9347 111
2 9348 7
2 9349 19
2 9350 91
2 9351 94
2 9352 185
2 9353 16
2 9354 1
2 9355 12
2 9356 3
2 9357 5
2 9358 154
2 9359 2
2 9360 84
2 9361 6
2 9362 37
2 9363 125
2 9364 3
2 9365 4
2 9366 77
2 9367 49
2 9368 5
2 9369 252
2 9370 30
2 9371 61
2 9372 55
2 9373 159
2 9374 31
2 9375 64
2 9376 3
2 9377 3
2 9378 62
2 9379 7
2 9380 6
2 9381 45
2 9382 6
2 9383 12
2 9384 3
2 9385 136
2 9386 19
2 9387 78
2 9388 42
2 9389 2
2 9390 6
2 9391 2
2 9392 100
2 9393 47
2 9394 5
2 9395 33
2 9396 4
2 9397 5
2 9398 7
2 9399 46
2 9400 6
2 9401 3
2 9402 71
2 9403 81
2 9404 9
2 9405 3
2 9406 6
2 9407 45
2 9408 70
2 9409 810
2 9410 108
2 9411 2
2 9412 3
2 9413 44
2 9414 6
2 9415 84
2 9416 51
2 9417 4
2 9418 3
2 9419 54
2 9420 50
2 9421 191
2 9422 2
2 9423 2
2 9424 99
2 9425 13
2 9426 15
2 9427 7
2 9428 6
2 9429 115
2 9430 131
2 9431 3
2 9432 31
2 9433 108
2 9434 3
2 9435 5
2 9436 1059
2 9437 3
2 9438 107
2 9439 68
2 9440 831
2 9441 9
2 9442 575
2 9443 65
2 9444 123
2 9445 6
2 9446 7
2 9447 7
2 9448 8
2 9449 2
2 9450 3
2 9451 5
2 9452 8
2 9453 85
2 9454 778
2 9455 73
2 9456 129
2 9457 990
2 9458 5
2 9459 6
2 9460 4
2 9461 33
2 9462 8
2 9463 1
2 9464 4
2 9465 2
2 9466 51
2 9467 1061
2 9468 85
2 9469 117
2 9470 94
2 9471 58
2 9472 32
2 9473 31
2 9474 62
2 9475 49
2 9476 11
2 9477 7
2 9478 4
2 9479 60
2 9480 132
2 9481 7
2 9482 103
2 9483 66
2 9484 3
2 9485 4
2 9486 3
2 9487 14
2 9488 2
2 9489 84
2 9490 7
2 9491 67
2 9492 425
2 9493 8
2 9494 102
2 9495 8
2 9496 4
2 9497 44
2 9498 10
2 9499 4
2 9500 139
2 9501 57
2 9502 60
2 9503 1
2 9504 5
2 9505 113
2 9506 559
2 9507 69
2 9508 15
2 9509 8
2 9510 12
2 9511 1028
2 9512 7
2 9513 91
2 9514 7
2 9515 81
2 9516 109
2 9517 8
2 9518 127
2 9519 2
2 9520 8
2 9521 233
2 9522 96
2 9523 7
2 9524 79
2 9525 56
2 9526 9
2 9527 32
2 9528 113
2 9529 21
2 9530 48
2 9531 3
2 9532 3
2 9533 1
2 9534 6
2 9535 6
2 9536 4
2 9537 4
2 9538 4
2 9539 103
2 9540 6
2 9541 74
2 9542 5
2 9543 34
2 9544 2
2 9545 204
2 9546 22
2 9547 4
2 9548 87
2 9549 126
2 9550 86
2 9551 131
2 9552 7
2 9553 81
2 9554 73
2 9555 5
2 9556 3
2 9557 71
2 9558 99
2 9559 23
2 9560 34
2 9561 57
2 9562 6
2 9563 84
2 9564 9
2 9565 964
2 9566 5
2 9567 1076
2 9568 9
2 9569 5
2 9570 34
2 9571 116
2 9572 32
2 9573 9
2 9574 5
2 9575 35
2 9576 3
2 9577 10
2 9578 25
2 9579 100
2 9580 11
2 9581 7
2 9582 62
2 9583 61
2 9584 51
2 9585 8
2 9586 1108
2 9587 8
2 9588 3
2 9589 5
2 9590 62
2 9591 14
2 9592 65
2 9593 3
2 9594 4
2 9595 97
2 9596 634
2 9597 76
2 9598 8
2 9599 3
2 9600 3
2 9601 80
2 9602 120
2 9603 46
2 9604 66
2 9605 6
2 9606 69
2 9607 4
2 9608 47
2 9609 618
2 9610 107
2 9611 7
2 9612 4
2 9613 106
2 9614 35
2 9615 28
2 9616 25
2 9617 2
2 9618 7
2 9619 2
2 9620 301
2 9621 4
2 9622 2
2 9623 8
2 9624 4
2 9625 4
2 9626 56
2 9627 5
2 9628 6
2 9629 79
2 9630 4
2 9631 5
2 9632 3
2 9633 80
2 9634 10
2 9635 45
2 9636 4
2 9637 5
2 9638 137
2 9639 34
2 9640 3
2 9641 9
2 9642 7
2 9643 106
2 9644 71
2 9645 120
2 9646 163
2 9647 29
2 9648 5
2 9649 8
2 9650 109
2 9651 2
2 9652 43
2 9653 8
2 9654 2
2 9655 7
2 9656 56
2 9657 2
2 9658 46
2 9659 135
2 9660 107
2 9661 116
2 9662 47
2 9663 2
2 9664 6
2 9665 77
2 9666 99
2 9667 28
2 9668 14
2 9669 4
2 9670 95
2 9671 30
2 9672 51
2 9673 134
2 9674 48
2 9675 15
2 9676 3
2 9677 61
2 9678 92
2 9679 63
2 9680 5
2 9681 7
2 9682 95
2 9683 1
2 9684 5
2 9685 4
2 9686 110
2 9687 10
2 9688 5
2 9689 773
2 9690 3
2 9691 3
2 9692 2
2 9693 43
2 9694 42
2 9695 104
2 9696 83
2 9697 7
2 9698 111
2 9699 6
2 9700 66
2 9701 16
2 9702 62
2 9703 10
2 9704 4
2 9705 77
2 9706 1
2 9707 557
2 9708 10
2 9709 66
2 9710 36
2 9711 3
2 9712 5
2 9713 108
2 9714 2
2 9715 98
2 9716 13
2 9717 38
2 9718 2
2 9719 10
2 9720 126
2 9721 4
2 9723 736
2 9724 86
2 9725 7
2 9726 5
2 9727 38
2 9728 15
2 9729 61
2 9730 3
2 9731 27
2 9732 72
2 9733 5
2 9734 3
2 9735 66
2 9736 98
2 9737 9
2 9738 6
2 9739 43
2 9740 4
2 9741 103
2 9742 3
2 9743 4
2 9744 99
2 9745 6
2 9746 16
2 9747 7
2 9748 45
2 9749 54
2 9750 46
2 9751 109
2 9752 6
2 9753 562
2 9754 624
2 9755 65
2 9756 129
2 9757 4
2 9758 67
2 9759 7
2 9760 5
2 9761 555
2 9762 52
2 9764 79
2 9765 101
2 9766 148
2 9767 18
2 9768 6
2 9769 12
2 9770 32
2 9771 76
2 9772 40
2 9773 42
2 9774 61
2 9775 37
2 9776 75
2 9777 9
2 9778 8
2 9779 46
2 9780 4
2 9781 77
2 9782 16
2 9783 6
2 9784 14
2 9786 148
2 9787 78
2 9788 11
2 9789 8
2 9790 18
2 9791 57
2 9792 106
2 9793 2
2 9794 5
2 9795 3
2 9796 78
2 9797 121
2 9798 158
2 9799 5
2 9800 32
2 9801 110
2 9802 41
2 9803 7
2 9804 10
2 9805 807
2 9806 20
2 9807 434
2 9808 229
2 9809 84
2 9810 51
2 9811 10
2 9812 75
2 9813 11
2 9814 45
2 9815 13
2 9816 32
2 9817 208
2 9818 56
2 9819 47
2 9820 3
2 9821 43
2 9822 15
2 9823 90
2 9824 11
2 9825 61
2 9826 8
2 9827 29
2 9828 86
2 9829 4
2 9830 8
2 9831 80
2 9832 118
2 9833 7
2 9834 112
2 9835 41
2 9836 43
2 9837 94
2 9838 5
2 9839 11
2 9840 116
2 9841 12
2 9842 3
2 9843 12
2 9844 3
2 9845 6
2 9846 3
2 9847 28
2 9848 8
2 9849 8
2 9850 89
2 9851 4
2 9852 505
2 9853 537
2 9854 22
2 9855 142
2 9856 21
2 9857 63
2 9858 41
2 9859 7
2 9860 84
2 9861 7
2 9862 50
2 9863 4
2 9864 11
2 9865 162
2 9866 8
2 9867 3
2 9868 43
2 9869 9
2 9870 111
2 9871 6
2 9872 29
2 9873 4
2 9874 1
2 9875 62
2 9876 2
2 9877 59
2 9878 4
2 9879 2
2 9880 61
2 9881 78
2 9882 76
2 9883 67
2 9884 9
2 9885 46
2 9886 56
2 9887 34
2 9888 25
2 9889 47
2 9890 39
2 9891 2
2 9892 8
2 9893 27
2 9894 2
2 9895 6
2 9896 72
2 9897 6
2 9898 5
2 9899 50
2 9900 9
2 9901 7
2 9902 113
2 9903 98
2 9904 104
2 9905 31
2 9906 91
2 9907 5
2 9908 17
2 9909 2
2 9910 9
2 9911 143
2 9912 32
2 9913 5
2 9914 4
2 9915 33
2 9917 8
2 9918 62
2 9919 5
2 9920 2
2 9921 60
2 9922 4
2 9923 89
2 9924 79
2 9925 30
2 9926 2
2 9927 12
2 9928 104
2 9929 90
2 9930 159
2 9931 7
2 9932 7
2 9933 2
2 9934 5
2 9935 66
2 9936 69
2 9937 93
2 9938 3
2 9939 8
2 9940 4
2 9941 3
2 9942 8
2 9943 73
2 9944 153
2 9945 8
2 9946 100
2 9947 3
2 9948 91
2 9949 113
2 9950 8
2 9951 279
2 9952 5
2 9953 62
2 9954 50
2 9955 656
2 9956 2
2 9957 4
2 9958 3
2 9959 4
2 9960 48
2 9961 5
2 9962 805
2 9963 36
2 9964 270
2 9965 68
2 9966 2
2 9967 101
2 9968 4
2 9969 4
2 9970 1017
2 9971 107
2 9972 3
2 9973 118
2 9974 77
2 9975 10
2 9976 128
2 9977 59
2 9978 464
2 9979 32
2 9980 7
2 9981 50
2 9982 14
2 9983 32
2 9984 102
2 9985 25
2 9986 4
2 9987 112
2 9988 210
2 9989 2
2 9990 8
2 9991 95
2 9992 916
2 9993 1
2 9994 61
2 9995 5
2 9996 50
2 9997 5
2 9998 403
2 9999 5
2 10000 30
2 10001 6
2 10002 308
2 10003 6
2 10004 5
2 10005 62
2 10006 60
2 10007 28
2 10008 6
2 10009 91
2 10010 63
2 10011 6
2 10012 3
2 10013 1
2 10014 116
2 10015 2
2 10016 1
2 10017 3
2 10018 5
2 10019 3
2 10020 9
2 10021 78
2 10022 35
2 10023 6
2 10024 7
2 10025 50
2 10026 64
2 10027 102
2 10028 2
2 10029 1047
2 10030 23
2 10031 59
2 10032 4
2 10033 44
2 10034 63
2 10035 2
2 10036 112
2 10037 66
2 10038 8
2 10039 51
2 10040 97
2 10041 32
2 10042 9
2 10043 11
2 10044 6
2 10045 5
2 10046 1116
2 10047 3
2 10048 36
2 10049 74
2 10050 9
2 10051 64
2 10052 5
2 10053 11
2 10054 3
2 10055 523
2 10056 41
2 10057 2
2 10058 39
2 10059 3
2 10060 70
2 10061 72
2 10062 232
2 10063 21
2 10064 7
2 10065 5
2 10066 2
2 10067 4
2 10068 96
2 10069 88
2 10070 78
2 10071 162
2 10072 73
2 10073 78
2 10074 12
2 10075 7
2 10076 602
2 10077 9
2 10078 105
2 10079 88
2 10080 82
2 10081 2
2 10082 34
2 10083 32
2 10084 38
2 10085 3
2 10086 2
2 10087 7
2 10088 84
2 10089 837
2 10090 38
2 10091 57
2 10092 60
2 10093 20
2 10094 85
2 10095 12
2 10096 7
2 10097 9
2 10098 74
2 10099 4
2 10100 33
2 10101 7
2 10102 1
2 10103 65
2 10104 74
2 10105 72
2 10106 54
2 10107 27
2 10108 5
2 10109 2
2 10110 26
2 10111 65
2 10112 43
2 10113 3
2 10114 1
2 10115 44
2 10116 59
2 10117 31
2 10118 5
2 10119 3
2 10120 29
2 10121 16
2 10122 7
2 10123 79
2 10124 13
2 10125 81
2 10126 991
2 10127 82
2 10128 114
2 10129 55
2 10130 102
2 10131 3
2 10132 8
2 10133 111
2 10134 108
2 10135 4
2 10136 61
2 10137 56
2 10138 51
2 10139 25
2 10140 71
2 10141 6
2 10142 101
2 10143 5
2 10144 9
2 10145 4
2 10146 83
2 10147 51
2 10148 36
2 10149 4
2 10150 6
2 10151 47
2 10152 52
2 10153 6
2 10154 17
2 10155 39
2 10156 77
2 10157 36
2 10158 8
2 10159 7
2 10160 3
2 10161 6
2 10162 6
2 10163 116
2 10164 4
2 10165 118
2 10166 1
2 10167 370
2 10168 4
2 10169 91
2 10170 40
2 10171 6
2 10172 121
2 10173 46
2 10174 72
2 10175 173
2 10176 8
2 10177 13
2 10178 10
2 10179 70
2 10180 64
2 10181 377
2 10182 104
2 10183 121
2 10184 64
2 10185 43
2 10186 55
2 10187 7
2 10188 984
2 10189 5
2 10190 7
2 10191 10
2 10192 82
2 10193 46
2 10194 6
2 10195 60
2 10196 4
2 10197 106
2 10198 51
2 10199 13
2 10200 32
2 10201 10
2 10202 53
2 10203 8
2 10204 113
2 10205 105
2 10206 3
2 10207 7
2 10208 51
2 10209 81
2 10210 32
2 10211 5
2 10212 2
2 10213 101
2 10214 59
2 10215 109
2 10216 2
2 10217 47
2 10218 31
2 10219 2
2 10220 45
2 10221 6
2 10222 4
2 10223 6
2 10224 61
2 10225 67
2 10226 54
2 10227 43
2 10228 36
2 10229 56
2 10230 49
2 10231 95
2 10232 1
2 10233 81
2 10234 1
2 10235 3
2 10236 64
2 10237 2
2 10238 3
2 10239 80
2 10240 1
2 10241 4
2 10242 671
2 10243 17
2 10244 49
2 10245 9
2 10246 2
2 10247 1
2 10248 1
2 10249 3
2 10250 65
2 10251 4
2 10252 45
2 10253 14
2 10254 21
2 10255 68
2 10256 111
2 10257 116
2 10258 76
2 10259 118
2 10260 5
2 10261 37
2 10262 7
2 10263 29
2 10264 21
2 10265 81
2 10266 85
2 10267 39
2 10268 14
2 10269 18
2 10270 40
2 10271 8
2 10272 37
2 10273 653
2 10274 3
2 10275 4
2 10276 6
2 10277 39
2 10278 1
2 10279 56
2 10280 92
2 10281 6
2 10282 5
2 10283 4
2 10284 75
2 10285 8
2 10286 98
2 10287 6
2 10288 4
2 10289 137
2 10290 11
2 10291 81
2 10292 44
2 10293 94
2 10294 676
2 10295 40
2 10296 7
2 10297 1
2 10298 6
2 10299 4
2 10300 36
2 10301 52
2 10302 43
2 10303 7
2 10304 4
2 10305 2
2 10306 48
2 10307 5
2 10308 101
2 10309 131
2 10310 26
2 10311 4
2 10312 17
2 10313 71
2 10314 57
2 10315 3
2 10316 104
2 10317 51
2 10318 71
2 10319 42
2 10320 59
2 10321 14
2 10322 6
2 10323 86
2 10324 56
2 10325 6
2 10326 30
2 10327 6
2 10328 22
2 10329 62
2 10330 3
2 10331 1
2 10332 3
2 10333 133
2 10334 1032
2 10335 65
2 10336 87
2 10337 60
2 10338 57
2 10339 97
2 10340 42
2 10341 52
2 10342 44
2 10343 1
2 10344 3
2 10345 22
2 10346 46
2 10347 2
2 10348 70
2 10349 5
2 10350 8
2 10351 40
2 10352 5
2 10353 22
2 10354 2
2 10355 70
2 10356 48
2 10357 3
2 10358 27
2 10359 70
2 10360 53
2 10361 24
2 10362 39
2 10363 6
2 10364 140
2 10365 2
2 10366 12
2 10367 10
2 10368 81
2 10369 38
2 10370 34
2 10371 6
2 10372 157
2 10373 48
2 10374 79
2 10375 32
2 10376 3
2 10377 68
2 10378 1
2 10379 52
2 10380 37
2 10381 90
2 10382 3
2 10383 3
2 10384 87
2 10385 47
2 10386 4
2 10387 6
2 10388 6
2 10389 46
2 10390 810
2 10391 2
2 10392 653
2 10393 121
2 10394 173
2 10395 976
2 10396 4
2 10397 199
2 10398 724
2 10399 56
2 10400 62
2 10401 56
2 10402 76
2 10403 23
2 10404 33
2 10406 85
2 10407 14
2 10408 787
2 10409 3
2 10410 122
2 10411 5
2 10412 85
2 10413 56
2 10414 102
2 10415 102
2 10416 2
2 10417 3
2 10418 3
2 10419 726
2 10420 9
2 10421 43
2 10422 10
2 10423 115
2 10424 29
2 10425 2
2 10426 35
2 10427 59
2 10428 5
2 10429 8
2 10430 104
2 10431 50
2 10432 71
2 10433 12
2 10434 71
2 10435 132
2 10436 5
2 10437 8
2 10438 4
2 10439 6
2 10440 106
2 10441 6
2 10442 83
2 10443 8
2 10444 45
2 10445 81
2 10446 8
2 10447 104
2 10448 71
2 10449 4
2 10450 6
2 10451 104
2 10452 11
2 10453 11
2 10454 7
2 10455 44
2 10456 14
2 10457 7
2 10458 789
2 10459 4
2 10460 4
2 10461 6
2 10462 8
2 10463 5
2 10464 1
2 10465 171
2 10466 9
2 10467 47
2 10468 146
2 10469 964
2 10470 76
2 10471 49
2 10472 3
2 10473 60
2 10474 32
2 10475 11
2 10476 89
2 10477 6
2 10478 42
2 10479 297
2 10480 4
2 10481 4
2 10482 6
2 10483 6
2 10484 31
2 10485 7
2 10486 11
2 10487 773
2 10488 124
2 10489 10
2 10490 6
2 10491 199
2 10492 7
2 10493 42
2 10494 110
2 10495 130
2 10496 5
2 10497 698
2 10498 4
2 10499 230
2 10500 113
2 10501 123
2 10502 45
2 10503 28
2 10504 89
2 10505 61
2 10506 682
2 10507 375
2 10508 53
2 10509 94
2 10510 4
2 10511 405
2 10512 6
2 10513 38
2 10514 78
2 10515 10
2 10516 92
2 10517 5
2 10518 4
2 10519 6
2 10520 9
2 10521 30
2 10522 57
2 10523 65
2 10524 4
2 10525 34
2 10526 34
2 10527 126
2 10528 692
2 10529 60
2 10530 84
2 10531 1001
2 10532 22
2 10533 56
2 10534 57
2 10535 6
2 10536 85
2 10537 25
2 10538 21
2 10539 66
2 10540 76
2 10541 2
2 10542 4
2 10543 77
2 10544 54
2 10545 23
2 10546 63
2 10547 21
2 10548 2
2 10549 3
2 10550 35
2 10551 29
2 10552 4
2 10553 5
2 10554 6
2 10555 3
2 10556 11
2 10557 3
2 10559 4
2 10560 143
2 10561 7
2 10562 25
2 10563 15
2 10564 14
2 10565 283
2 10566 81
2 10567 6
2 10568 70
2 10569 52
2 10570 103
2 10571 8
2 10572 8
2 10573 11
2 10574 3
2 10575 97
2 10576 36
2 10577 82
2 10578 57
2 10579 7
2 10580 42
2 10581 87
2 10582 36
2 10583 39
2 10584 3
2 10585 57
2 10586 5
2 10587 6
2 10588 39
2 10589 72
2 10590 243
2 10591 3
2 10592 2
2 10593 107
2 10594 6
2 10595 2
2 10596 175
2 10597 65
2 10598 34
2 10599 96
2 10600 8
2 10601 7
2 10602 30
2 10603 7
2 10604 8
2 10605 75
2 10606 7
2 10607 43
2 10608 63
2 10609 6
2 10610 4
2 10611 105
2 10612 150
2 10613 7
2 10614 24
2 10615 30
2 10616 60
2 10617 139
2 10618 2
2 10619 76
2 10620 2
2 10621 6
2 10622 98
2 10623 57
2 10624 98
2 10625 17
2 10626 26
2 10627 5
2 10628 46
2 10629 2
2 10630 130
2 10631 3
2 10632 3
2 10633 27
2 10634 4
2 10635 36
2 10636 38
2 10637 23
2 10638 461
2 10639 2
2 10640 50
2 10641 4
2 10642 29
2 10643 2
2 10644 172
2 10645 6
2 10646 4
2 10647 5
2 10648 17
2 10649 101
2 10650 3
2 10651 16
2 10652 6
2 10653 5
2 10654 94
2 10655 4
2 10656 59
2 10657 4
2 10658 93
2 10659 79
2 10660 85
2 10661 10
2 10662 18
2 10663 15
2 10664 9
2 10665 22
2 10666 3
2 10667 8
2 10668 53
2 10669 388
2 10670 95
2 10671 67
2 10672 61
2 10673 125
2 10674 7
2 10675 35
2 10676 123
2 10677 5
2 10678 3
2 10679 8
2 10680 4
2 10681 54
2 10682 65
2 10683 77
2 10684 800
2 10685 23
2 10686 147
2 10687 15
2 10688 43
2 10689 10
2 10690 86
2 10691 51
2 10692 10
2 10693 5
2 10694 7
2 10695 6
2 10696 7
2 10697 5
2 10698 1
2 10699 4
2 10700 13
2 10701 3
2 10702 75
2 10703 46
2 10704 73
2 10705 71
2 10706 65
2 10707 1
2 10708 7
2 10709 84
2 10710 50
2 10711 6
2 10712 12
2 10713 5
2 10714 7
2 10715 4
2 10716 34
2 10717 43
2 10718 93
2 10719 4
2 10720 62
2 10721 43
2 10722 30
2 10723 7
2 10724 11
2 10725 69
2 10726 72
2 10727 6
2 10728 4
2 10729 103
2 10730 54
2 10731 42
2 10732 28
2 10733 4
2 10734 130
2 10735 3
2 10736 3
2 10737 57
2 10738 2
2 10739 1
2 10740 10
2 10741 12
2 10742 77
2 10743 6
2 10744 2
2 10745 44
2 10746 3
2 10747 42
2 10748 91
2 10749 136
2 10750 44
2 10751 9
2 10752 113
2 10753 7
2 10754 2
2 10755 202
2 10756 56
2 10757 27
2 10758 7
2 10759 135
2 10760 4
2 10761 14
2 10762 60
2 10763 7
2 10764 40
2 10765 115
2 10766 64
2 10767 8
2 10768 107
2 10769 627
2 10770 2
2 10771 9
2 10772 150
2 10773 39
2 10774 3
2 10775 7
2 10776 50
2 10777 5
2 10778 146
2 10779 37
2 10780 34
2 10781 26
2 10782 3
2 10783 63
2 10784 4
2 10785 12
2 10786 134
2 10787 4
2 10788 169
2 10789 7
2 10790 36
2 10791 6
2 10792 149
2 10793 124
2 10794 57
2 10795 1
2 10796 4
2 10797 8
2 10798 91
2 10799 104
2 10800 8
2 10801 8
2 10802 4
2 10803 6
2 10804 10
2 10805 6
2 10806 8
2 10807 95
2 10808 8
2 10809 113
2 10810 104
2 10811 1
2 10812 122
2 10813 67
2 10814 6
2 10815 9
2 10816 5
2 10817 96
2 10818 6
2 10819 94
2 10820 6
2 10821 8
2 10822 109
2 10823 114
2 10824 1
2 10825 6
2 10826 125
2 10827 68
2 10828 3
2 10829 43
2 10830 174
2 10831 7
2 10832 44
2 10833 6
2 10834 37
2 10835 106
2 10836 1
2 10837 22
2 10838 6
2 10839 9
2 10840 1
2 10841 110
2 10842 6
2 10843 10
2 10844 3
2 10845 147
2 10846 56
2 10847 27
2 10848 92
2 10849 39
2 10850 8
2 10851 133
2 10852 42
2 10853 2
2 10854 3
2 10855 13
2 10856 69
2 10857 965
2 10858 187
2 10859 47
2 10860 5
2 10861 7
2 10862 5
2 10863 44
2 10864 5
2 10865 25
2 10866 8
2 10867 227
2 10868 5
2 10869 7
2 10870 9
2 10871 66
2 10872 83
2 10873 16
2 10874 18
2 10875 2
2 10876 127
2 10877 94
2 10878 5
2 10879 77
2 10880 9
2 10881 6
2 10882 20
2 10883 4
2 10884 8
2 10885 4
2 10886 169
2 10887 49
2 10888 45
2 10889 45
2 10890 5
2 10891 77
2 10892 51
2 10893 93
2 10894 8
2 10895 1003
2 10896 9
2 10897 73
2 10898 31
2 10899 13
2 10900 6
2 10901 25
2 10902 9
2 10903 72
2 10904 8
2 10905 6
2 10906 5
2 10907 3
2 10908 81
2 10909 46
2 10910 3
2 10911 6
2 10912 186
2 10913 144
2 10914 99
2 10915 4
2 10916 8
2 10917 122
2 10918 79
2 10919 54
2 10920 13
2 10921 116
2 10922 5
2 10923 7
2 10924 65
2 10925 34
2 10926 82
2 10927 108
2 10928 44
2 10929 3
2 10930 4
2 10931 109
2 10932 205
2 10933 82
2 10934 4
2 10935 7
2 10936 2
2 10937 76
2 10938 15
2 10939 47
2 10940 3
2 10941 3
2 10942 93
2 10943 101
2 10944 117
2 10945 51
2 10946 3
2 10947 40
2 10948 7
2 10949 78
2 10950 4
2 10951 4
2 10952 44
2 10953 8
2 10954 115
2 10955 50
2 10956 15
2 10957 332
2 10958 165
2 10959 67
2 10960 3
2 10961 2
2 10962 390
2 10963 103
2 10964 6
2 10965 91
2 10966 36
2 10967 26
2 10968 4
2 10969 989
2 10970 90
2 10971 3
2 10972 154
2 10973 1
2 10974 10
2 10975 60
2 10976 6
2 10977 8
2 10978 11
2 10979 4
2 10980 90
2 10981 71
2 10982 51
2 10983 36
2 10984 13
2 10985 1
2 10986 32
2 10987 3
2 10988 5
2 10989 1013
2 10990 993
2 10991 2
2 10992 5
2 10993 132
2 10994 8
2 10995 6
2 10996 6
2 10997 9
2 10998 42
2 10999 37
2 11000 6
2 11001 7
2 11002 96
2 11003 767
2 11004 120
2 11005 39
2 11006 96
2 11007 110
2 11008 2
2 11009 8
2 11010 92
2 11011 20
2 11012 96
2 11013 8
2 11014 62
2 11015 9
2 11016 53
2 11017 5
2 11018 2
2 11019 17
2 11020 7
2 11021 2
2 11022 4
2 11023 6
2 11024 37
2 11025 7
2 11026 146
2 11027 8
2 11028 73
2 11029 43
2 11031 9
2 11032 42
2 11033 111
2 11034 4
2 11035 647
2 11036 999
2 11037 1
2 11038 3
2 11039 5
2 11040 4
2 11041 9
2 11042 4
2 11043 74
2 11044 68
2 11045 2
2 11046 580
2 11047 858
2 11048 1033
2 11049 104
2 11050 121
2 11051 58
2 11052 124
2 11053 1020
2 11054 7
2 11055 11
2 11056 91
2 11057 87
2 11058 4
2 11059 95
2 11061 85
2 11062 8
2 11063 1024
2 11064 26
2 11065 68
2 11066 159
2 11067 6
2 11068 3
2 11069 34
2 11070 73
2 11071 8
2 11072 3
2 11073 12
2 11074 5
2 11075 7
2 11076 5
2 11077 49
2 11078 5
2 11079 50
2 11080 22
2 11081 88
2 11082 128
2 11083 6
2 11084 5
2 11085 217
2 11086 7
2 11087 21
2 11088 4
2 11089 7
2 11090 4
2 11091 5
2 11092 39
2 11093 51
2 11094 65
2 11095 91
2 11096 90
2 11097 6
2 11098 6
2 11099 54
2 11100 56
2 11101 7
2 11102 125
2 11103 4
2 11104 4
2 11105 5
2 11106 2
2 11107 257
2 11108 85
2 11109 5
2 11110 5
2 11111 6
2 11112 66
2 11113 10
2 11114 1
2 11115 7
2 11116 7
2 11117 6
2 11118 5
2 11119 70
2 11120 30
2 11121 47
2 11122 5
2 11123 4
2 11124 291
2 11125 116
2 11126 56
2 11127 91
2 11128 890
2 11129 55
2 11130 98
2 11131 5
2 11132 54
2 11133 162
2 11134 129
2 11135 59
2 11136 24
2 11137 5
2 11138 9
2 11139 87
2 11140 17
2 11141 5
2 11142 35
2 11143 10
2 11144 100
2 11145 82
2 11147 8
2 11148 7
2 11149 29
2 11150 1
2 11151 4
2 11152 72
2 11153 7
2 11154 85
2 11155 7
2 11156 54
2 11157 79
2 11158 5
2 11159 3
2 11160 5
2 11161 118
2 11162 1
2 11163 512
2 11164 11
2 11165 86
2 11166 1124
2 11167 145
2 11168 6
2 11169 61
2 11170 4
2 11171 6
2 11172 7
2 11173 6
2 11174 78
2 11175 9
2 11176 19
2 11177 1118
2 11178 10
2 11179 9
2 11180 135
2 11181 107
2 11182 73
2 11183 89
2 11184 68
2 11185 88
2 11186 6
2 11187 3
2 11188 7
2 11189 80
2 11190 8
2 11191 10
2 11192 5
2 11193 6
2 11194 10
2 11195 58
2 11196 139
2 11197 6
2 11198 70
2 11199 157
2 11200 66
2 11201 66
2 11202 151
2 11203 64
2 11204 977
2 11205 89
2 11206 3
2 11207 8
2 11208 996
2 11209 124
2 11210 35
2 11211 134
2 11212 65
2 11213 87
2 11214 9
2 11215 75
2 11216 114
2 11217 9
2 11218 9
2 11219 3
2 11220 7
2 11221 8
2 11222 6
2 11223 23
2 11224 6
2 11225 45
2 11226 6
2 11227 70
2 11228 83
2 11229 10
2 11230 710
2 11231 10
2 11232 2
2 11233 8
2 11234 99
2 11235 5
2 11236 80
2 11237 143
2 11238 6
2 11239 54
2 11240 6
2 11241 5
2 11242 42
2 11243 20
2 11244 4
2 11245 1
2 11246 9
2 11247 9
2 11248 3
2 11249 60
2 11250 71
2 11251 9
2 11252 30
2 11253 42
2 11254 32
2 11255 22
2 11256 4
2 11257 2
2 11258 78
2 11259 71
2 11260 2
2 11261 5
2 11262 7
2 11263 8
2 11264 2
2 11265 6
2 11266 7
2 11267 7
2 11268 5
2 11269 13
2 11270 133
2 11271 62
2 11272 108
2 11273 133
2 11274 5
2 11275 1
2 11276 9
2 11277 118
2 11278 42
2 11279 49
2 11280 129
2 11281 91
2 11282 7
2 11283 88
2 11284 4
2 11285 4
2 11286 81
2 11287 1
2 11288 172
2 11289 707
2 11290 51
2 11291 8
2 11292 90
2 11293 326
2 11294 13
2 11295 150
2 11296 129
2 11297 75
2 11298 115
2 11299 37
2 11300 3
2 11301 10
2 11302 53
2 11303 61
2 11304 7
2 11305 6
2 11306 6
2 11307 3
2 11308 5
2 11309 3
2 11310 119
2 11311 2
2 11312 11
2 11313 141
2 11314 4
2 11315 69
2 11316 73
2 11317 48
2 11318 57
2 11319 5
2 11320 41
2 11321 20
2 11322 4
2 11323 2
2 11324 69
2 11325 4
2 11326 46
2 11327 7
2 11328 9
2 11329 10
2 11330 10
2 11331 96
2 11332 87
2 11333 3
2 11334 5
2 11335 9
2 11336 250
2 11337 401
2 11338 3
2 11339 6
2 11340 3
2 11341 3
2 11342 60
2 11343 6
2 11344 2
2 11345 1
2 11346 57
2 11347 99
2 11348 1
2 11349 39
2 11350 7
2 11351 4
2 11352 92
2 11353 98
2 11354 5
2 11355 33
2 11356 61
2 11357 1
2 11358 3
2 11359 12
2 11360 11
2 11361 58
2 11362 10
2 11363 3
2 11364 4
2 11365 76
2 11367 104
2 11368 14
2 11369 68
2 11370 162
2 11371 60
2 11372 4
2 11373 7
2 11374 8
2 11375 41
2 11376 77
2 11377 2
2 11378 10
2 11379 3
2 11380 7
2 11381 40
2 11382 798
2 11383 5
2 11384 33
2 11385 100
2 11386 344
2 11387 21
2 11388 1117
2 11389 4
2 11390 9
2 11391 5
2 11392 112
2 11393 272
2 11394 9
2 11395 5
2 11396 8
2 11397 117
2 11398 42
2 11399 3
2 11400 117
2 11401 5
2 11402 7
2 11403 9
2 11404 17
2 11405 118
2 11406 83
2 11407 7
2 11408 25
2 11409 3
2 11410 4
2 11411 34
2 11412 91
2 11413 23
2 11414 5
2 11415 2
2 11416 22
2 11417 107
2 11418 16
2 11419 2
2 11420 73
2 11421 59
2 11422 4
2 11423 145
2 11424 47
2 11425 88
2 11426 64
2 11427 6
2 11428 6
2 11429 104
2 11430 1
2 11431 52
2 11432 84
2 11433 43
2 11434 254
2 11435 106
2 11436 101
2 11437 26
2 11438 104
2 11439 97
2 11440 135
2 11441 6
2 11442 5
2 11443 178
2 11444 46
2 11446 5
2 11447 75
2 11448 92
2 11449 5
2 11450 144
2 11451 5
2 11452 264
2 11453 155
2 11454 11
2 11455 3
2 11456 5
2 11457 5
2 11458 49
2 11459 3
2 11460 7
2 11461 52
2 11462 6
2 11463 4
2 11464 9
2 11465 128
2 11466 59
2 11467 5
2 11468 3
2 11469 21
2 11470 4
2 11471 1
2 11472 86
2 11473 80
2 11474 10
2 11475 3
2 11476 140
2 11477 84
2 11478 101
2 11479 2
2 11480 54
2 11481 84
2 11482 67
2 11483 75
2 11484 4
2 11485 113
2 11486 7
2 11487 4
2 11488 30
2 11489 66
2 11490 2
2 11491 71
2 11492 67
2 11493 4
2 11494 55
2 11495 56
2 11496 4
2 11497 83
2 11498 111
2 11499 62
2 11500 10
2 11501 4
2 11502 8
2 11503 7
2 11504 123
2 11505 4
2 11506 44
2 11507 9
2 11508 64
2 11509 1
2 11510 54
2 11511 2
2 11512 996
2 11513 170
2 11514 5
2 11515 27
2 11516 71
2 11517 5
2 11518 27
2 11519 2
2 11520 38
2 11521 3
2 11522 31
2 11523 73
2 11524 16
2 11525 3
2 11526 50
2 11527 4
2 11528 8
2 11529 10
2 11530 10
2 11531 95
2 11532 38
2 11533 459
2 11534 2
2 11535 34
2 11536 20
2 11537 4
2 11538 84
2 11539 11
2 11540 45
2 11541 92
2 11542 34
2 11543 4
2 11544 37
2 11545 7
2 11546 3
2 11547 80
2 11548 3
2 11549 9
2 11550 142
2 11551 4
2 11552 724
2 11553 69
2 11554 4
2 11555 52
2 11556 33
2 11557 82
2 11558 73
2 11559 11
2 11560 99
2 11561 45
2 11562 6
2 11563 80
2 11564 47
2 11565 4
2 11566 8
2 11567 71
2 11568 9
2 11569 128
2 11570 65
2 11571 7
2 11572 40
2 11573 6
2 11574 7
2 11575 4
2 11576 95
2 11577 8
2 11578 57
2 11579 4
2 11580 132
2 11581 118
2 11582 16
2 11583 80
2 11584 5
2 11585 67
2 11586 143
2 11587 71
2 11588 7
2 11589 7
2 11590 61
2 11591 39
2 11592 100
2 11593 3
2 11594 17
2 11595 72
2 11596 8
2 11597 88
2 11598 35
2 11599 5
2 11600 5
2 11601 11
2 11602 10
2 11603 88
2 11604 5
2 11605 10
2 11606 7
2 11607 61
2 11608 9
2 11609 1
2 11610 9
2 11611 178
2 11612 7
2 11613 820
2 11614 49
2 11615 64
2 11616 105
2 11617 34
2 11618 7
2 11619 2
2 11620 2
2 11621 64
2 11622 7
2 11623 94
2 11624 7
2 11625 85
2 11626 9
2 11627 98
2 11628 2
2 11629 7
2 11630 105
2 11631 10
2 11632 8
2 11633 18
2 11634 7
2 11635 4
2 11636 17
2 11637 86
2 11638 52
2 11639 10
2 11640 3
2 11641 57
2 11642 5
2 11643 4
2 11644 2
2 11645 35
2 11646 59
2 11647 89
2 11648 68
2 11649 138
2 11650 31
2 11651 83
2 11652 82
2 11653 88
2 11654 47
2 11655 6
2 11656 99
2 11657 3
2 11658 66
2 11659 2
2 11660 41
2 11661 86
2 11662 125
2 11663 424
2 11664 38
2 11665 7
2 11666 5
2 11667 90
2 11668 9
2 11669 12
2 11670 6
2 11671 141
2 11672 54
2 11673 96
2 11674 115
2 11675 64
2 11676 15
2 11677 4
2 11678 8
2 11679 8
2 11680 4
2 11681 6
2 11682 49
2 11683 2
2 11684 48
2 11685 66
2 11686 82
2 11687 6
2 11688 111
2 11689 69
2 11690 77
2 11691 93
2 11692 87
2 11693 11
2 11694 4
2 11695 78
2 11696 42
2 11697 45
2 11698 7
2 11699 42
2 11700 6
2 11701 58
2 11702 84
2 11703 186
2 11704 23
2 11705 97
2 11706 114
2 11707 103
2 11708 10
2 11709 11
2 11710 109
2 11711 7
2 11712 20
2 11713 5
2 11714 6
2 11715 131
2 11716 77
2 11717 9
2 11718 90
2 11719 7
2 11720 4
2 11721 6
2 11722 13
2 11723 4
2 11724 5
2 11725 8
2 11726 108
2 11727 61
2 11728 107
2 11729 18
2 11730 85
2 11731 41
2 11732 71
2 11733 8
2 11734 6
2 11735 51
2 11736 182
2 11737 63
2 11738 72
2 11739 30
2 11740 96
2 11741 81
2 11742 4
2 11743 35
2 11744 94
2 11745 26
2 11746 49
2 11747 712
2 11748 8
2 11749 15
2 11750 80
2 11751 81
2 11752 33
2 11753 42
2 11754 92
2 11755 46
2 11756 5
2 11757 4
2 11758 43
2 11759 37
2 11760 6
2 11761 7
2 11762 7
2 11763 92
2 11764 4
2 11765 6
2 11766 12
2 11767 4
2 11768 101
2 11769 96
2 11770 11
2 11771 5
2 11772 8
2 11773 22
2 11774 7
2 11775 135
2 11776 144
2 11777 4
2 11778 38
2 11779 6
2 11780 8
2 11781 67
2 11782 4
2 11784 7
2 11785 4
2 11786 38
2 11787 67
2 11788 3
2 11789 49
2 11790 6
2 11791 6
2 11792 41
2 11793 8
2 11794 100
2 11795 8
2 11796 99
2 11797 67
2 11798 59
2 11799 8
2 11800 4
2 11801 46
2 11802 36
2 11803 5
2 11804 90
2 11805 91
2 11806 109
2 11807 44
2 11808 5
2 11809 117
2 11810 50
2 11811 64
2 11812 75
2 11813 20
2 11814 5
2 11815 5
2 11816 45
2 11817 970
2 11818 86
2 11819 60
2 11820 6
2 11821 7
2 11822 7
2 11823 5
2 11824 68
2 11825 15
2 11826 6
2 11827 4
2 11828 7
2 11829 53
2 11830 124
2 11831 77
2 11832 121
2 11833 3
2 11834 611
2 11835 58
2 11836 106
2 11837 59
2 11838 4
2 11839 1038
2 11840 7
2 11841 59
2 11842 51
2 11843 89
2 11844 118
2 11845 16
2 11846 135
2 11847 62
2 11848 69
2 11849 196
2 11850 7
2 11851 5
2 11852 3
2 11853 3
2 11854 25
2 11855 3
2 11856 8
2 11857 73
2 11858 6
2 11859 41
2 11860 4
2 11861 6
2 11862 93
2 11863 6
2 11864 9
2 11865 6
2 11866 79
2 11867 5
2 11868 41
2 11869 42
2 11870 11
2 11871 5
2 11872 21
2 11873 4
2 11874 83
2 11875 50
2 11876 4
2 11877 103
2 11878 5
2 11879 47
2 11880 4
2 11881 746
2 11882 99
2 11883 36
2 11884 50
2 11885 117
2 11886 1
2 11887 129
2 11888 2
2 11889 4
2 11890 93
2 11891 20
2 11892 108
2 11893 32
2 11894 68
2 11895 11
2 11896 98
2 11897 3
2 11898 73
2 11899 4
2 11900 6
2 11901 9
2 11902 9
2 11903 50
2 11904 5
2 11905 68
2 11906 40
2 11907 74
2 11908 90
2 11909 54
2 11910 60
2 11911 108
2 11912 11
2 11913 5
2 11914 6
2 11915 2
2 11916 11
2 11917 158
2 11918 1137
2 11919 57
2 11920 83
2 11921 45
2 11922 89
2 11923 7
2 11924 7
2 11925 87
2 11926 4
2 11927 74
2 11928 60
2 11929 3
2 11930 99
2 11931 36
2 11932 5
2 11933 76
2 11934 6
2 11935 7
2 11936 40
2 11937 61
2 11938 15
2 11939 78
2 11940 57
2 11941 48
2 11942 86
2 11943 9
2 11944 58
2 11945 3
2 11946 193
2 11947 6
2 11948 73
2 11949 3
2 11950 125
2 11951 76
2 11952 3
2 11953 84
2 11954 58
2 11955 54
2 11956 130
2 11957 88
2 11958 32
2 11959 3
2 11960 7
2 11961 97
2 11962 33
2 11963 163
2 11964 74
2 11965 64
2 11966 25
2 11967 3
2 11968 6
2 11969 34
2 11970 7
2 11971 46
2 11972 89
2 11973 11
2 11974 85
2 11975 4
2 11976 539
2 11977 3
2 11978 69
2 11979 4
2 11980 132
2 11981 35
2 11982 7
2 11983 93
2 11984 91
2 11985 11
2 11986 8
2 11987 11
2 11988 23
2 11989 7
2 11990 52
2 11991 167
2 11992 10
2 11993 56
2 11994 30
2 11995 6
2 11996 6
2 11997 12
2 11998 26
2 11999 3
2 12000 191
2 12001 10
2 12002 11
2 12003 5
2 12004 4
2 12005 45
2 12006 49
2 12007 53
2 12008 26
2 12009 6
2 12010 63
2 12011 10
2 12012 60
2 12013 6
2 12014 47
2 12015 2
2 12016 56
2 12017 81
2 12018 8
2 12019 62
2 12020 9
2 12021 8
2 12022 3
2 12023 62
2 12024 30
2 12025 6
2 12026 175
2 12027 93
2 12028 28
2 12029 25
2 12030 66
2 12031 5
2 12032 4
2 12033 8
2 12034 42
2 12035 9
2 12036 3
2 12037 179
2 12038 162
2 12039 10
2 12040 4
2 12041 7
2 12042 70
2 12043 3
2 12044 64
2 12045 6
2 12046 115
2 12047 40
2 12048 44
2 12049 11
2 12050 5
2 12051 52
2 12052 6
2 12053 7
2 12054 34
2 12055 37
2 12056 3
2 12057 67
2 12058 75
2 12059 228
2 12060 50
2 12061 6
2 12062 10
2 12063 4
2 12064 7
2 12065 5
2 12066 5
2 12067 46
2 12068 3
2 12069 4
2 12070 7
2 12071 6
2 12072 8
2 12073 63
2 12074 8
2 12075 7
2 12076 4
2 12077 167
2 12078 152
2 12079 61
2 12080 195
2 12081 116
2 12082 65
2 12083 51
2 12084 105
2 12085 58
2 12086 5
2 12087 109
2 12088 68
2 12089 39
2 12090 116
2 12091 7
2 12092 8
2 12093 6
2 12094 5
2 12095 10
2 12096 142
2 12097 2
2 12098 2
2 12099 7
2 12100 4
2 12101 33
2 12102 2
2 12103 7
2 12104 94
2 12105 60
2 12106 9
2 12107 24
2 12108 34
2 12109 4
2 12110 4
2 12111 124
2 12112 5
2 12113 44
2 12114 39
2 12115 9
2 12116 5
2 12117 3
2 12118 3
2 12119 8
2 12120 10
2 12121 22
2 12122 82
2 12123 33
2 12124 3
2 12125 64
2 12126 5
2 12127 89
2 12128 504
2 12129 7
2 12130 3
2 12131 298
2 12132 56
2 12133 17
2 12134 1
2 12135 53
2 12136 19
2 12137 4
2 12138 111
2 12139 8
2 12140 59
2 12141 9
2 12142 59
2 12143 8
2 12144 9
2 12145 7
2 12146 5
2 12147 78
2 12148 3
2 12149 4
2 12150 10
2 12151 58
2 12152 50
2 12153 32
2 12154 4
2 12155 60
2 12156 7
2 12157 1
2 12158 4
2 12159 33
2 12160 8
2 12161 147
2 12162 7
2 12163 5
2 12164 58
2 12165 25
2 12166 49
2 12167 6
2 12168 176
2 12169 138
2 12170 15
2 12171 57
2 12172 96
2 12173 38
2 12174 862
2 12175 11
2 12176 6
2 12177 22
2 12178 15
2 12179 9
2 12180 30
2 12181 209
2 12182 44
2 12183 100
2 12184 2
2 12185 106
2 12186 6
2 12187 10
2 12188 100
2 12189 44
2 12190 4
2 12191 58
2 12192 7
2 12193 102
2 12194 19
2 12195 5
2 12196 56
2 12197 887
2 12198 9
2 12199 84
2 12200 6
2 12201 9
2 12202 171
2 12203 126
2 12204 14
2 12205 9
2 12206 63
2 12207 54
2 12208 19
2 12209 29
2 12210 18
2 12211 2
2 12212 109
2 12213 3
2 12214 74
2 12215 120
2 12216 4
2 12217 6
2 12218 53
2 12219 66
2 12220 6
2 12221 66
2 12222 15
2 12223 54
2 12224 6
2 12225 60
2 12226 13
2 12227 12
2 12228 46
2 12229 5
2 12230 108
2 12231 5
2 12232 43
2 12233 5
2 12234 62
2 12235 69
2 12236 3
2 12237 80
2 12238 49
2 12239 101
2 12240 4
2 12241 21
2 12242 376
2 12243 76
2 12244 103
2 12245 89
2 12246 13
2 12247 9
2 12248 88
2 12249 8
2 12250 47
2 12251 9
2 12252 92
2 12253 33
2 12254 37
2 12255 5
2 12256 64
2 12257 25
2 12258 204
2 12259 5
2 12260 1
2 12261 8
2 12262 47
2 12263 145
2 12264 7
2 12265 108
2 12266 126
2 12267 39
2 12268 104
2 12269 81
2 12270 12
2 12271 89
2 12272 4
2 12273 50
2 12274 8
2 12275 146
2 12276 47
2 12277 42
2 12278 7
2 12279 36
2 12280 64
2 12281 4
2 12282 27
2 12283 14
2 12284 49
2 12285 42
2 12286 8
2 12287 22
2 12288 69
2 12289 7
2 12290 5
2 12291 78
2 12292 3
2 12293 68
2 12294 7
2 12295 21
2 12296 2
2 12297 3
2 12298 58
2 12299 3
2 12301 79
2 12302 93
2 12303 7
2 12304 66
2 12305 5
2 12306 8
2 12307 33
2 12308 3
2 12309 112
2 12310 36
2 12311 31
2 12312 6
2 12313 83
2 12314 9
2 12315 504
2 12316 2
2 12317 215
2 12318 77
2 12319 2
2 12320 10
2 12321 36
2 12322 4
2 12323 14
2 12324 986
2 12325 12
2 12326 99
2 12327 11
2 12328 8
2 12329 11
2 12330 76
2 12331 935
2 12332 78
2 12333 3
2 12334 5
2 12335 90
2 12336 6
2 12337 65
2 12338 120
2 12339 37
2 12340 5
2 12341 140
2 12342 116
2 12343 124
2 12344 78
2 12345 54
2 12346 65
2 12347 59
2 12348 84
2 12349 12
2 12350 71
2 12351 6
2 12352 112
2 12353 4
2 12354 5
2 12355 53
2 12356 78
2 12357 10
2 12358 99
2 12359 58
2 12360 123
2 12361 113
2 12362 113
2 12363 9
2 12364 11
2 12365 95
2 12366 97
2 12367 4
2 12368 68
2 12369 24
2 12370 14
2 12371 71
2 12372 62
2 12373 32
2 12374 4
2 12375 31
2 12376 4
2 12377 741
2 12378 18
2 12379 837
2 12380 34
2 12381 25
2 12382 726
2 12383 6
2 12384 140
2 12385 71
2 12386 6
2 12387 34
2 12388 4
2 12389 4
2 12390 58
2 12391 9
2 12392 73
2 12393 10
2 12394 11
2 12395 63
2 12396 33
2 12397 34
2 12398 1
2 12399 4
2 12400 7
2 12401 57
2 12402 6
2 12403 50
2 12404 3
2 12405 9
2 12406 8
2 12407 6
2 12408 39
2 12409 9
2 12410 70
2 12411 56
2 12412 3
2 12413 92
2 12414 8
2 12415 7
2 12416 8
2 12417 37
2 12418 4
2 12419 146
2 12420 6
2 12421 15
2 12422 48
2 12423 4
2 12424 98
2 12425 41
2 12426 941
2 12427 12
2 12428 13
2 12429 68
2 12430 55
2 12431 844
2 12432 489
2 12433 41
2 12434 36
2 12435 7
2 12436 150
2 12437 72
2 12438 714
2 12439 30
2 12440 6
2 12441 80
2 12442 69
2 12443 49
2 12444 181
2 12445 38
2 12446 36
2 12447 108
2 12448 71
2 12449 60
2 12450 10
2 12451 10
2 12452 7
2 12453 59
2 12454 1109
2 12455 10
2 12456 6
2 12457 7
2 12458 78
2 12459 121
2 12460 464
2 12461 97
2 12462 3
2 12463 98
2 12464 98
2 12465 140
2 12466 8
2 12467 69
2 12468 266
2 12469 102
2 12470 81
2 12471 5
2 12472 3
2 12473 52
2 12474 94
2 12475 5
2 12476 94
2 12477 5
2 12478 2
2 12479 111
2 12480 7
2 12481 3
2 12482 52
2 12483 86
2 12484 47
2 12485 43
2 12486 7
2 12487 78
2 12488 60
2 12489 7
2 12490 98
2 12491 10
2 12492 8
2 12493 85
2 12494 5
2 12495 4
2 12496 82
2 12497 71
2 12498 116
2 12499 9
2 12500 78
2 12501 22
2 12502 111
2 12503 62
2 12504 4
2 12505 6
2 12506 6
2 12507 39
2 12508 9
2 12509 219
2 12510 30
2 12511 52
2 12512 928
2 12513 112
2 12514 6
2 12515 101
2 12516 8
2 12517 124
2 12518 87
2 12519 10
2 12520 6
2 12521 5
2 12522 7
2 12523 32
2 12524 4
2 12525 27
2 12526 70
2 12527 12
2 12528 20
2 12529 7
2 12530 2
2 12531 22
2 12532 18
2 12533 34
2 12534 8
2 12535 5
2 12536 67
2 12537 110
2 12538 94
2 12539 36
2 12540 94
2 12541 8
2 12542 13
2 12543 9
2 12544 5
2 12545 4
2 12546 13
2 12547 1
2 12548 6
2 12549 66
2 12550 4
2 12551 2
2 12552 8
2 12553 62
2 12554 5
2 12555 7
2 12556 4
2 12557 109
2 12558 138
2 12559 26
2 12560 4
2 12561 27
2 12562 6
2 12563 44
2 12564 5
2 12565 5
2 12566 151
2 12567 3
2 12568 5
2 12569 74
2 12570 40
2 12571 61
2 12572 4
2 12573 83
2 12574 70
2 12575 291
2 12576 7
2 12577 104
2 12578 127
2 12579 35
2 12580 6
2 12581 13
2 12582 4
2 12583 64
2 12584 3
2 12585 7
2 12586 13
2 12587 5
2 12588 4
2 12589 191
2 12590 134
2 12591 104
2 12592 107
2 12593 9
2 12594 97
2 12595 141
2 12596 25
2 12597 41
2 12598 2
2 12599 13
2 12600 68
2 12601 6
2 12602 4
2 12603 14
2 12604 36
2 12605 6
2 12606 83
2 12607 4
2 12608 10
2 12609 5
2 12610 95
2 12611 6
2 12612 8
2 12613 8
2 12614 5
2 12615 3
2 12616 12
2 12617 56
2 12618 16
2 12619 100
2 12620 8
2 12621 4
2 12622 128
2 12623 61
2 12624 12
2 12625 143
2 12626 5
2 12627 76
2 12628 41
2 12629 50
2 12630 89
2 12631 6
2 12632 5
2 12633 95
2 12634 5
2 12635 167
2 12636 146
2 12637 21
2 12638 32
2 12639 8
2 12640 67
2 12641 40
2 12642 6
2 12643 65
2 12644 8
2 12645 90
2 12646 138
2 12647 120
2 12648 5
2 12649 42
2 12650 96
2 12651 130
2 12652 122
2 12653 121
2 12654 20
2 12655 71
2 12656 79
2 12657 7
2 12658 5
2 12659 9
2 12660 117
2 12661 7
2 12662 33
2 12663 5
2 12664 58
2 12665 59
2 12666 8
2 12667 47
2 12668 16
2 12669 38
2 12670 32
2 12671 93
2 12672 65
2 12673 651
2 12674 31
2 12675 10
2 12676 75
2 12677 65
2 12678 54
2 12679 53
2 12680 1
2 12681 50
2 12682 116
2 12683 85
2 12684 3
2 12685 132
2 12686 88
2 12687 10
2 12688 593
2 12689 83
2 12690 334
2 12691 3
2 12692 117
2 12693 61
2 12694 30
2 12695 6
2 12696 726
2 12697 4
2 12698 42
2 12699 4
2 12700 110
2 12701 6
2 12702 38
2 12703 38
2 12704 29
2 12705 3
2 12706 4
2 12707 6
2 12708 91
2 12709 10
2 12710 39
2 12711 13
2 12712 1
2 12713 45
2 12714 5
2 12715 7
2 12716 6
2 12717 143
2 12718 71
2 12719 42
2 12720 54
2 12721 100
2 12722 99
2 12723 105
2 12724 74
2 12725 7
2 12726 86
2 12727 6
2 12728 102
2 12729 2
2 12730 8
2 12731 6
2 12732 49
2 12733 85
2 12734 2
2 12735 38
2 12736 5
2 12737 18
2 12738 7
2 12739 100
2 12740 4
2 12741 36
2 12742 2
2 12743 3
2 12744 89
2 12745 59
2 12746 4
2 12747 3
2 12748 73
2 12749 72
2 12750 3
2 12751 4
2 12752 453
2 12753 138
2 12754 135
2 12755 50
2 12756 96
2 12757 55
2 12758 4
2 12759 3
2 12760 7
2 12761 9
2 12762 141
2 12763 105
2 12764 2
2 12765 4
2 12766 3
2 12767 8
2 12768 89
2 12769 74
2 12770 10
2 12771 260
2 12772 166
2 12773 1062
2 12774 1
2 12775 83
2 12776 56
2 12777 7
2 12778 2
2 12779 66
2 12780 103
2 12781 47
2 12782 11
2 12783 32
2 12784 8
2 12785 100
2 12786 1
2 12787 6
2 12788 55
2 12789 100
2 12790 4
2 12791 10
2 12792 5
2 12793 71
2 12794 145
2 12795 5
2 12796 4
2 12797 3
2 12798 85
2 12799 2
2 12800 6
2 12801 57
2 12802 3
2 12803 14
2 12804 7
2 12805 4
2 12806 116
2 12807 4
2 12808 15
2 12809 8
2 12810 8
2 12811 50
2 12812 33
2 12813 124
2 12814 7
2 12815 29
2 12816 117
2 12817 8
2 12818 33
2 12819 26
2 12820 77
2 12821 6
2 12822 40
2 12823 18
2 12824 7
2 12825 4
2 12826 80
2 12827 5
2 12828 8
2 12829 104
2 12830 30
2 12831 8
2 12832 4
2 12833 5
2 12834 105
2 12835 83
2 12836 157
2 12837 6
2 12838 4
2 12839 7
2 12840 38
2 12841 76
2 12842 6
2 12843 4
2 12844 4
2 12845 71
2 12846 66
2 12847 77
2 12848 3
2 12849 8
2 12850 143
2 12851 262
2 12852 1
2 12853 58
2 12854 8
2 12855 4
2 12856 3
2 12857 59
2 12858 10
2 12859 47
2 12860 2
2 12861 167
2 12862 3
2 12863 695
2 12864 6
2 12865 136
2 12866 14
2 12867 81
2 12868 51
2 12869 3
2 12870 79
2 12871 79
2 12872 5
2 12873 53
2 12874 3
2 12875 746
2 12876 126
2 12877 270
2 12878 5
2 12879 8
2 12880 10
2 12881 12
2 12882 35
2 12883 811
2 12884 35
2 12885 42
2 12886 50
2 12887 5
2 12888 129
2 12889 130
2 12890 117
2 12891 5
2 12892 24
2 12893 10
2 12894 48
2 12895 2
2 12896 431
2 12897 68
2 12898 65
2 12899 63
2 12900 16
2 12901 1
2 12902 10
2 12903 54
2 12904 10
2 12905 134
2 12906 43
2 12907 137
2 12908 11
2 12909 3
2 12910 4
2 12911 4
2 12912 133
2 12913 3
2 12914 8
2 12915 68
2 12916 63
2 12917 14
2 12918 7
2 12919 11
2 12920 4
2 12921 6
2 12922 4
2 12923 51
2 12924 64
2 12925 10
2 12926 3
2 12927 78
2 12928 9
2 12929 11
2 12930 27
2 12931 70
2 12932 94
2 12933 11
2 12934 15
2 12935 10
2 12936 4
2 12937 7
2 12938 7
2 12939 73
2 12940 7
2 12941 7
2 12942 70
2 12943 45
2 12944 64
2 12945 4
2 12946 105
2 12947 81
2 12948 103
2 12949 38
2 12950 91
2 12951 41
2 12952 3
2 12953 90
2 12954 5
2 12955 20
2 12956 15
2 12957 29
2 12958 48
2 12959 41
2 12960 10
2 12961 6
2 12962 85
2 12963 70
2 12964 9
2 12965 14
2 12966 33
2 12967 222
2 12968 253
2 12969 60
2 12970 70
2 12971 11
2 12972 14
2 12973 99
2 12974 102
2 12975 991
2 12976 7
2 12977 86
2 12978 115
2 12979 94
2 12980 967
2 12981 5
2 12982 9
2 12983 9
2 12984 93
2 12985 9
2 12986 107
2 12987 96
2 12988 123
2 12989 91
2 12990 237
2 12991 30
2 12992 6
2 12993 8
2 12994 8
2 12995 3
2 12996 25
2 12997 35
2 12998 5
2 12999 10
2 13000 23
2 13001 1
2 13002 77
2 13003 50
2 13004 12
2 13005 38
2 13006 9
2 13007 56
2 13008 59
2 13009 63
2 13010 122
2 13011 10
2 13012 4
2 13013 7
2 13014 11
2 13015 78
2 13016 7
2 13017 2
2 13018 50
2 13019 57
2 13020 5
2 13021 94
2 13022 26
2 13023 772
2 13024 75
2 13025 8
2 13026 88
2 13027 45
2 13028 49
2 13029 1
2 13030 112
2 13031 3
2 13032 116
2 13033 25
2 13034 91
2 13035 4
2 13036 5
2 13037 8
2 13038 11
2 13039 51
2 13040 96
2 13041 1
2 13042 91
2 13043 736
2 13044 89
2 13045 5
2 13046 143
2 13047 31
2 13048 9
2 13049 4
2 13050 30
2 13051 3
2 13052 101
2 13053 7
2 13054 129
2 13055 82
2 13056 7
2 13057 79
2 13058 8
2 13059 6
2 13060 5
2 13061 53
2 13062 5
2 13063 107
2 13064 85
2 13065 65
2 13066 110
2 13067 72
2 13068 2
2 13069 152
2 13070 65
2 13071 153
2 13072 7
2 13073 7
2 13074 5
2 13075 49
2 13076 107
2 13077 5
2 13078 84
2 13079 1070
2 13080 76
2 13081 43
2 13082 39
2 13083 51
2 13084 147
2 13085 13
2 13086 62
2 13087 60
2 13088 106
2 13089 71
2 13090 9
2 13091 5
2 13092 113
2 13093 5
2 13094 5
2 13095 31
2 13096 43
2 13097 22
2 13098 103
2 13099 53
2 13100 129
2 13101 90
2 13102 74
2 13103 497
2 13104 7
2 13105 6
2 13107 285
2 13108 194
2 13109 143
2 13110 4
2 13111 99
2 13112 6
2 13113 62
2 13114 2
2 13115 924
2 13116 2
2 13117 141
2 13118 53
2 13119 10
2 13120 60
2 13121 109
2 13122 63
2 13123 5
2 13124 131
2 13125 28
2 13126 55
2 13127 133
2 13128 13
2 13129 63
2 13130 47
2 13131 92
2 13132 3
2 13133 149
2 13134 21
2 13135 5
2 13136 39
2 13137 69
2 13138 7
2 13139 72
2 13140 114
2 13141 7
2 13142 10
2 13143 154
2 13144 40
2 13145 109
2 13146 9
2 13147 3
2 13148 63
2 13149 5
2 13150 1
2 13151 6
2 13152 2
2 13153 4
2 13154 2
2 13155 198
2 13156 4
2 13157 79
2 13158 35
2 13159 100
2 13160 3
2 13161 3
2 13162 74
2 13163 49
2 13164 914
2 13165 47
2 13166 170
2 13167 4
2 13168 156
2 13169 5
2 13170 85
2 13171 59
2 13172 39
2 13173 679
2 13174 8
2 13175 60
2 13176 35
2 13177 1155
2 13178 79
2 13179 31
2 13180 33
2 13181 53
2 13182 10
2 13183 94
2 13184 114
2 13185 6
2 13186 44
2 13187 78
2 13188 33
2 13189 90
2 13190 860
2 13191 6
2 13192 101
2 13193 100
2 13194 108
2 13195 4
2 13196 109
2 13197 9
2 13198 76
2 13199 31
2 13200 4
2 13201 6
2 13202 99
2 13203 11
2 13204 38
2 13205 6
2 13206 2
2 13207 104
2 13208 9
2 13209 105
2 13210 88
2 13211 3
2 13212 93
2 13213 151
2 13214 4
2 13215 70
2 13216 4
2 13217 60
2 13218 9
2 13219 99
2 13220 125
2 13221 87
2 13222 108
2 13223 7
2 13224 2
2 13225 37
2 13226 70
2 13227 77
2 13228 64
2 13229 68
2 13230 58
2 13231 2
2 13232 67
2 13233 5
2 13234 80
2 13235 809
2 13236 3
2 13237 86
2 13238 57
2 13239 10
2 13240 35
2 13241 4
2 13242 7
2 13243 4
2 13244 10
2 13245 130
2 13246 2
2 13247 125
2 13248 69
2 13249 74
2 13250 58
2 13251 50
2 13252 6
2 13253 7
2 13254 8
2 13255 118
2 13256 4
2 13257 3
2 13258 65
2 13259 1
2 13260 12
2 13261 4
2 13262 151
2 13263 95
2 13264 2
2 13265 608
2 13266 61
2 13267 12
2 13268 8
2 13269 3
2 13270 11
2 13271 31
2 13272 6
2 13273 1
2 13274 111
2 13275 12
2 13276 41
2 13277 8
2 13278 6
2 13279 4
2 13280 17
2 13281 3
2 13282 285
2 13283 105
2 13284 413
2 13285 6
2 13286 6
2 13287 70
2 13288 83
2 13289 3
2 13290 93
2 13291 183
2 13292 5
2 13293 106
2 13294 52
2 13295 55
2 13296 11
2 13297 109
2 13298 4
2 13299 41
2 13300 6
2 13301 9
2 13302 31
2 13303 85
2 13304 72
2 13305 35
2 13306 40
2 13307 5
2 13308 84
2 13309 65
2 13310 46
2 13311 56
2 13312 96
2 13313 9
2 13314 17
2 13315 2
2 13316 24
2 13317 74
2 13318 130
2 13319 64
2 13320 5
2 13321 129
2 13322 7
2 13323 51
2 13324 3
2 13325 76
2 13326 10
2 13327 114
2 13328 36
2 13329 2
2 13330 5
2 13331 68
2 13332 9
2 13333 94
2 13334 10
2 13335 85
2 13336 121
2 13337 296
2 13338 48
2 13339 5
2 13340 111
2 13341 71
2 13342 41
2 13344 45
2 13345 38
2 13346 122
2 13347 115
2 13348 29
2 13349 9
2 13350 56
2 13351 5
2 13352 5
2 13353 6
2 13354 99
2 13355 101
2 13356 46
2 13357 6
2 13358 10
2 13359 48
2 13360 86
2 13361 58
2 13362 9
2 13363 93
2 13364 81
2 13365 4
2 13366 9
2 13367 78
2 13368 8
2 13369 33
2 13370 79
2 13371 139
2 13372 3
2 13373 76
2 13374 83
2 13375 21
2 13376 74
2 13377 3
2 13378 72
2 13379 67
2 13380 85
2 13381 33
2 13382 4
2 13383 2
2 13384 117
2 13385 4
2 13386 55
2 13387 43
2 13388 7
2 13389 2
2 13390 37
2 13391 347
2 13392 36
2 13393 86
2 13394 730
2 13395 37
2 13396 4
2 13397 42
2 13398 4
2 13399 33
2 13400 2
2 13401 67
2 13402 19
2 13403 63
2 13405 54
2 13406 9
2 13407 67
2 13408 100
2 13409 67
2 13410 2
2 13411 3
2 13412 27
2 13413 2
2 13414 22
2 13415 6
2 13416 51
2 13417 38
2 13418 58
2 13419 7
2 13420 14
2 13421 80
2 13422 39
2 13423 63
2 13424 61
2 13425 12
2 13426 99
2 13427 27
2 13428 124
2 13429 266
2 13430 20
2 13431 13
2 13432 5
2 13433 5
2 13434 82
2 13435 88
2 13436 7
2 13437 7
2 13438 76
2 13439 4
2 13440 7
2 13441 59
2 13442 99
2 13443 10
2 13444 3
2 13445 6
2 13446 50
2 13447 12
2 13448 55
2 13449 72
2 13450 11
2 13451 7
2 13452 3
2 13453 110
2 13454 10
2 13455 6
2 13456 7
2 13457 35
2 13458 59
2 13459 3
2 13460 198
2 13461 25
2 13462 812
2 13463 7
2 13464 59
2 13465 14
2 13466 28
2 13467 5
2 13468 7
2 13469 60
2 13470 80
2 13471 42
2 13472 73
2 13473 46
2 13474 2
2 13475 6
2 13476 5
2 13477 13
2 13478 39
2 13479 166
2 13480 7
2 13481 4
2 13482 4
2 13483 49
2 13484 27
2 13485 58
2 13486 101
2 13487 16
2 13488 33
2 13489 110
2 13490 3
2 13491 135
2 13492 101
2 13493 217
2 13494 63
2 13495 4
2 13496 3
2 13497 96
2 13498 6
2 13499 9
2 13500 4
2 13501 9
2 13502 64
2 13503 3
2 13504 43
2 13505 113
2 13506 1
2 13507 123
2 13508 7
2 13509 151
2 13510 482
2 13511 3
2 13512 71
2 13513 3
2 13514 7
2 13515 21
2 13516 47
2 13517 8
2 13518 1
2 13519 36
2 13520 14
2 13521 118
2 13522 12
2 13523 10
2 13524 79
2 13525 4
2 13526 10
2 13527 3
2 13528 61
2 13529 29
2 13530 59
2 13531 5
2 13532 65
2 13533 82
2 13534 8
2 13535 71
2 13536 10
2 13537 136
2 13538 10
2 13539 19
2 13540 40
2 13541 44
2 13542 336
2 13543 51
2 13544 64
2 13545 96
2 13546 2
2 13547 33
2 13548 5
2 13549 5
2 13550 76
2 13551 120
2 13552 7
2 13553 7
2 13554 36
2 13555 7
2 13556 3
2 13557 24
2 13558 7
2 13559 71
2 13560 60
2 13561 12
2 13562 4
2 13563 103
2 13564 21
2 13565 65
2 13566 510
2 13567 58
2 13568 65
2 13569 108
2 13570 6
2 13571 5
2 13572 124
2 13573 31
2 13574 51
2 13575 95
2 13576 5
2 13577 7
2 13578 107
2 13579 63
2 13580 80
2 13581 86
2 13582 4
2 13583 23
2 13584 186
2 13585 4
2 13586 398
2 13587 53
2 13588 10
2 13589 581
2 13590 8
2 13591 6
2 13592 108
2 13593 50
2 13594 6
2 13595 6
2 13596 12
2 13597 5
2 13598 42
2 13599 30
2 13600 961
2 13601 5
2 13602 7
2 13603 143
2 13604 52
2 13605 3
2 13606 2
2 13607 92
2 13608 89
2 13609 55
2 13610 7
2 13612 40
2 13613 99
2 13614 2
2 13615 3
2 13616 47
2 13617 5
2 13618 85
2 13619 59
2 13620 26
2 13621 43
2 13622 102
2 13623 85
2 13624 8
2 13625 76
2 13626 8
2 13627 96
2 13628 10
2 13629 4
2 13630 6
2 13631 3
2 13632 74
2 13633 183
2 13634 181
2 13635 3
2 13636 25
2 13637 65
2 13638 10
2 13639 93
2 13640 178
2 13641 606
2 13642 98
2 13643 32
2 13644 7
2 13645 70
2 13646 195
2 13647 3
2 13648 40
2 13649 6
2 13650 11
2 13651 90
2 13652 1
2 13653 11
2 13654 48
2 13655 38
2 13656 7
2 13657 67
2 13658 5
2 13659 100
2 13660 9
2 13661 4
2 13662 151
2 13663 10
2 13664 92
2 13665 38
2 13666 6
2 13667 4
2 13668 9
2 13669 85
2 13670 9
2 13671 10
2 13672 88
2 13673 5
2 13674 198
2 13675 3
2 13676 3
2 13677 2
2 13678 9
2 13679 599
2 13680 34
2 13681 10
2 13682 64
2 13683 36
2 13684 55
2 13685 51
2 13686 5
2 13687 52
2 13688 9
2 13689 30
2 13690 4
2 13691 49
2 13692 69
2 13693 106
2 13694 131
2 13695 66
2 13696 33
2 13697 76
2 13698 11
2 13699 48
2 13700 9
2 13701 5
2 13702 5
2 13703 40
2 13704 59
2 13705 90
2 13706 1
2 13707 55
2 13708 7
2 13709 3
2 13710 9
2 13711 82
2 13712 5
2 13713 11
2 13714 3
2 13715 4
2 13716 58
2 13717 1
2 13718 10
2 13719 58
2 13720 27
2 13721 7
2 13722 35
2 13723 4
2 13724 31
2 13725 94
2 13726 66
2 13727 144
2 13728 112
2 13729 34
2 13730 53
2 13731 3
2 13732 3
2 13733 166
2 13734 37
2 13735 58
2 13736 48
2 13737 33
2 13738 8
2 13739 15
2 13740 48
2 13741 17
2 13742 1
2 13743 6
2 13744 4
2 13745 18
2 13746 135
2 13747 71
2 13748 63
2 13749 6
2 13750 73
2 13751 4
2 13752 132
2 13753 6
2 13754 31
2 13755 55
2 13756 46
2 13757 71
2 13758 1
2 13759 81
2 13760 155
2 13761 66
2 13762 8
2 13763 4
2 13764 31
2 13765 95
2 13766 58
2 13767 106
2 13768 173
2 13769 9
2 13770 37
2 13771 108
2 13772 78
2 13773 71
2 13774 7
2 13775 4
2 13776 3
2 13777 102
2 13778 134
2 13779 3
2 13780 3
2 13781 6
2 13782 152
2 13783 940
2 13784 873
2 13785 86
2 13786 3
2 13787 21
2 13788 125
2 13789 33
2 13790 122
2 13791 65
2 13792 71
2 13793 113
2 13794 444
2 13795 4
2 13796 10
2 13797 65
2 13798 6
2 13799 106
2 13800 33
2 13801 7
2 13802 88
2 13803 9
2 13804 966
2 13805 99
2 13806 4
2 13807 99
2 13808 41
2 13809 6
2 13810 169
2 13811 10
2 13812 763
2 13813 5
2 13814 33
2 13815 7
2 13816 92
2 13817 65
2 13818 37
2 13819 65
2 13820 11
2 13821 83
2 13822 77
2 13823 8
2 13824 21
2 13825 7
2 13826 4
2 13827 40
2 13828 76
2 13829 8
2 13830 10
2 13831 39
2 13832 111
2 13833 976
2 13834 4
2 13835 2
2 13836 4
2 13837 84
2 13838 101
2 13839 83
2 13840 8
2 13841 52
2 13842 58
2 13843 5
2 13844 8
2 13845 6
2 13846 44
2 13847 4
2 13848 140
2 13849 26
2 13850 52
2 13851 66
2 13852 142
2 13853 38
2 13854 5
2 13855 89
2 13856 32
2 13857 6
2 13858 103
2 13859 1
2 13860 179
2 13861 74
2 13862 63
2 13863 89
2 13864 5
2 13865 40
2 13866 6
2 13867 6
2 13868 6
2 13869 100
2 13870 47
2 13871 38
2 13872 77
2 13873 8
2 13874 103
2 13875 5
2 13876 10
2 13877 8
2 13878 789
2 13879 7
2 13880 100
2 13881 961
2 13882 10
2 13883 37
2 13884 72
2 13885 2
2 13886 101
2 13887 56
2 13888 6
2 13889 5
2 13890 7
2 13891 64
2 13892 1
2 13893 113
2 13894 52
2 13895 126
2 13896 54
2 13897 21
2 13898 45
2 13899 6
2 13900 38
2 13901 9
2 13902 282
2 13903 140
2 13904 34
2 13905 72
2 13906 33
2 13907 77
2 13908 50
2 13909 6
2 13910 30
2 13911 52
2 13912 5
2 13913 1
2 13914 114
2 13915 5
2 13916 88
2 13917 98
2 13918 63
2 13919 88
2 13920 52
2 13921 2
2 13922 5
2 13923 63
2 13924 4
2 13925 40
2 13926 34
2 13927 7
2 13928 6
2 13929 5
2 13930 5
2 13931 4
2 13932 3
2 13933 8
2 13934 35
2 13935 146
2 13936 4
2 13937 87
2 13938 28
2 13939 55
2 13940 20
2 13941 16
2 13942 107
2 13943 62
2 13944 33
2 13945 41
2 13946 55
2 13947 30
2 13948 3
2 13949 33
2 13950 3
2 13951 47
2 13952 98
2 13953 12
2 13954 3
2 13955 7
2 13956 15
2 13957 4
2 13958 123
2 13959 47
2 13960 70
2 13961 93
2 13962 6
2 13963 41
2 13964 18
2 13965 10
2 13966 145
2 13967 5
2 13968 7
2 13969 124
2 13970 131
2 13971 6
2 13972 4
2 13973 5
2 13974 4
2 13975 56
2 13976 31
2 13977 94
2 13978 64
2 13979 6
2 13980 3
2 13981 78
2 13982 2
2 13983 4
2 13984 66
2 13985 6
2 13986 51
2 13987 121
2 13988 3
2 13989 5
2 13990 10
2 13991 132
2 13992 126
2 13993 4
2 13994 45
2 13995 61
2 13996 421
2 13997 63
2 13999 26
2 14000 3
2 14001 11
2 14002 6
2 14003 8
2 14004 1
2 14005 33
2 14006 76
2 14007 4
2 14008 99
2 14009 3
2 14010 60
2 14011 48
2 14012 7
2 14014 56
2 14015 3
2 14016 3
2 14017 124
2 14018 61
2 14019 6
2 14020 24
2 14021 33
2 14022 2
2 14023 2
2 14024 71
2 14025 1
2 14026 87
2 14027 59
2 14028 109
2 14029 6
2 14030 12
2 14031 83
2 14032 34
2 14033 50
2 14034 3
2 14035 5
2 14036 109
2 14037 2
2 14038 55
2 14039 2
2 14040 3
2 14041 23
2 14042 94
2 14043 6
2 14044 96
2 14045 65
2 14046 104
2 14047 1
2 14048 50
2 14049 97
2 14050 71
2 14051 17
2 14052 8
2 14053 43
2 14054 2
2 14055 7
2 14056 3
2 14057 5
2 14058 88
2 14059 111
2 14060 34
2 14061 68
2 14062 69
2 14063 38
2 14064 141
2 14065 101
2 14066 72
2 14067 6
2 14068 38
2 14069 37
2 14070 128
2 14071 5
2 14072 79
2 14073 5
2 14074 19
2 14075 30
2 14076 4
2 14077 33
2 14078 7
2 14079 9
2 14080 878
2 14081 66
2 14082 3
2 14083 568
2 14084 86
2 14085 57
2 14086 146
2 14087 1031
2 14088 35
2 14089 48
2 14090 37
2 14091 34
2 14092 15
2 14093 82
2 14094 1
2 14095 142
2 14096 55
2 14097 4
2 14098 4
2 14099 87
2 14100 4
2 14101 140
2 14102 102
2 14103 85
2 14104 249
2 14105 5
2 14106 126
2 14107 90
2 14108 64
2 14109 166
2 14110 66
2 14111 49
2 14112 4
2 14113 91
2 14114 52
2 14115 367
2 14116 113
2 14117 1109
2 14118 4
2 14119 40
2 14120 4
2 14121 49
2 14122 8
2 14123 6
2 14124 57
2 14125 6
2 14126 8
2 14127 21
2 14128 3
2 14129 71
2 14130 380
2 14131 2
2 14132 839
2 14133 173
2 14134 3
2 14135 111
2 14136 84
2 14137 91
2 14138 121
2 14139 4
2 14140 51
2 14141 4
2 14142 12
2 14143 3
2 14144 5
2 14145 49
2 14146 8
2 14147 23
2 14148 8
2 14149 231
2 14150 5
2 14151 93
2 14152 2
2 14153 4
2 14154 5
2 14155 2
2 14156 91
2 14157 26
2 14158 3
2 14160 87
2 14161 36
2 14162 79
2 14163 46
2 14164 27
2 14165 3
2 14166 95
2 14167 86
2 14168 50
2 14169 6
2 14170 37
2 14171 4
2 14172 7
2 14173 15
2 14174 4
2 14175 3
2 14176 14
2 14177 8
2 14178 3
2 14179 11
2 14180 8
2 14181 26
2 14182 155
2 14183 5
2 14184 45
2 14185 71
2 14186 2
2 14187 48
2 14188 82
2 14189 59
2 14190 7
2 14191 72
2 14192 101
2 14193 79
2 14194 6
2 14195 5
2 14196 158
2 14197 7
2 14198 60
2 14199 44
2 14201 45
2 14202 9
2 14203 91
2 14204 20
2 14205 7
2 14206 42
2 14207 84
2 14208 761
2 14209 70
2 14210 3
2 14211 57
2 14212 1
2 14213 87
2 14214 13
2 14215 48
2 14216 1
2 14217 7
2 14218 107
2 14219 7
2 14220 2
2 14221 5
2 14222 40
2 14223 7
2 14224 98
2 14225 95
2 14226 5
2 14227 4
2 14228 16
2 14229 5
2 14230 87
2 14231 12
2 14232 5
2 14233 24
2 14234 9
2 14235 13
2 14236 3
2 14237 7
2 14238 40
2 14239 4
2 14240 5
2 14241 2
2 14242 5
2 14243 6
2 14244 1
2 14245 93
2 14246 52
2 14247 91
2 14248 3
2 14249 6
2 14250 11
2 14251 70
2 14252 14
2 14253 5
2 14254 6
2 14255 6
2 14256 52
2 14257 97
2 14258 33
2 14259 5
2 14260 782
2 14261 11
2 14262 37
2 14263 40
2 14264 5
2 14265 41
2 14266 32
2 14267 12
2 14268 6
2 14269 12
2 14270 1
2 14271 9
2 14272 32
2 14273 38
2 14274 4
2 14275 119
2 14276 65
2 14277 137
2 14278 3
2 14279 5
2 14280 95
2 14281 7
2 14282 5
2 14283 104
2 14284 45
2 14285 8
2 14286 2
2 14287 6
2 14288 91
2 14289 57
2 14290 7
2 14291 71
2 14292 5
2 14293 2
2 14294 859
2 14295 4
2 14296 30
2 14297 1
2 14298 10
2 14299 5
2 14300 4
2 14301 53
2 14302 13
2 14303 5
2 14304 144
2 14305 3
2 14306 58
2 14307 55
2 14308 121
2 14309 7
2 14310 5
2 14311 61
2 14312 92
2 14313 5
2 14314 92
2 14315 80
2 14316 663
2 14317 16
2 14318 7
2 14319 64
2 14320 35
2 14321 5
2 14322 849
2 14323 3
2 14324 4
2 14325 6
2 14326 102
2 14327 440
2 14328 4
2 14329 75
2 14330 8
2 14331 8
2 14332 62
2 14333 89
2 14334 9
2 14335 44
2 14336 25
2 14337 50
2 14338 131
2 14339 80
2 14340 685
2 14341 40
2 14342 5
2 14343 65
2 14344 65
2 14345 67
2 14346 89
2 14347 4
2 14348 3
2 14349 56
2 14350 210
2 14351 2
2 14352 71
2 14353 13
2 14354 1
2 14355 18
2 14356 48
2 14357 39
2 14358 8
2 14359 7
2 14360 50
2 14361 89
2 14362 293
2 14363 1068
2 14364 58
2 14365 3
2 14366 4
2 14367 4
2 14368 14
2 14369 2
2 14370 128
2 14371 122
2 14372 67
2 14373 42
2 14374 115
2 14375 78
2 14376 4
2 14377 104
2 14378 93
2 14379 29
2 14380 10
2 14381 99
2 14382 5
2 14383 26
2 14384 1
2 14385 42
2 14386 9
2 14387 10
2 14388 41
2 14389 6
2 14390 72
2 14391 33
2 14392 962
2 14393 5
2 14394 28
2 14395 1
2 14396 4
2 14397 17
2 14398 111
2 14400 75
2 14401 6
2 14402 56
2 14403 128
2 14404 7
2 14405 77
2 14406 110
2 14407 51
2 14408 89
2 14409 3
2 14410 8
2 14411 16
2 14412 27
2 14413 26
2 14414 72
2 14415 6
2 14416 110
2 14417 134
2 14418 594
2 14419 4
2 14420 779
2 14421 5
2 14422 113
2 14423 88
2 14424 4
2 14425 10
2 14426 64
2 14427 6
2 14428 31
2 14429 4
2 14430 6
2 14431 37
2 14432 87
2 14433 7
2 14434 4
2 14435 115
2 14436 4
2 14437 95
2 14438 52
2 14439 120
2 14440 7
2 14441 59
2 14442 88
2 14443 5
2 14444 380
2 14445 62
2 14446 11
2 14447 10
2 14448 4
2 14449 65
2 14450 57
2 14451 7
2 14452 4
2 14453 50
2 14454 150
2 14455 126
2 14456 5
2 14457 79
2 14458 131
2 14459 8
2 14460 243
2 14461 10
2 14462 91
2 14463 46
2 14464 96
2 14465 7
2 14466 119
2 14467 6
2 14468 47
2 14469 988
2 14470 56
2 14471 64
2 14472 61
2 14473 9
2 14474 49
2 14475 123
2 14476 18
2 14477 9
2 14478 4
2 14479 86
2 14480 8
2 14481 102
2 14482 6
2 14483 44
2 14484 30
2 14485 11
2 14486 102
2 14487 6
2 14488 107
2 14489 61
2 14490 3
2 14491 91
2 14492 39
2 14493 6
2 14494 4
2 14495 5
2 14496 5
2 14497 4
2 14498 1
2 14499 5
2 14500 15
2 14501 7
2 14502 94
2 14503 69
2 14504 364
2 14505 28
2 14506 4
2 14507 71
2 14508 130
2 14509 36
2 14510 111
2 14511 98
2 14512 75
2 14513 114
2 14514 98
2 14515 5
2 14516 5
2 14517 8
2 14518 8
2 14519 6
2 14520 43
2 14521 10
2 14522 135
2 14523 25
2 14524 6
2 14525 6
2 14526 99
2 14527 99
2 14528 9
2 14529 91
2 14530 51
2 14531 59
2 14532 80
2 14533 61
2 14534 147
2 14535 4
2 14536 63
2 14537 78
2 14538 4
2 14539 130
2 14540 7
2 14541 99
2 14542 101
2 14543 643
2 14544 8
2 14545 70
2 14546 134
2 14547 75
2 14548 4
2 14549 6
2 14550 96
2 14551 87
2 14552 56
2 14553 4
2 14554 38
2 14555 5
2 14556 5
2 14557 823
2 14558 9
2 14559 4
2 14560 39
2 14561 14
2 14562 140
2 14563 5
2 14564 9
2 14565 7
2 14566 3
2 14567 63
2 14568 5
2 14569 87
2 14570 2
2 14571 8
2 14572 50
2 14573 59
2 14574 3
2 14575 8
2 14576 4
2 14577 124
2 14578 3
2 14579 45
2 14580 56
2 14581 12
2 14582 55
2 14583 60
2 14584 5
2 14585 39
2 14586 6
2 14587 70
2 14588 74
2 14589 51
2 14590 69
2 14591 63
2 14592 49
2 14593 77
2 14594 20
2 14595 101
2 14596 2
2 14597 119
2 14598 6
2 14599 5
2 14600 3
2 14601 65
2 14602 4
2 14603 85
2 14604 4
2 14605 4
2 14606 13
2 14607 36
2 14608 4
2 14609 175
2 14610 114
2 14611 3
2 14612 68
2 14613 4
2 14614 79
2 14615 76
2 14616 108
2 14617 36
2 14618 5
2 14619 110
2 14620 66
2 14621 7
2 14622 27
2 14623 43
2 14624 7
2 14625 134
2 14626 10
2 14627 65
2 14628 39
2 14629 26
2 14630 10
2 14631 101
2 14632 47
2 14633 1
2 14634 100
2 14635 14
2 14636 90
2 14637 86
2 14638 51
2 14639 88
2 14640 85
2 14641 3
2 14642 39
2 14643 91
2 14644 12
2 14645 20
2 14646 100
2 14647 159
2 14648 3
2 14649 23
2 14650 43
2 14651 181
2 14652 9
2 14653 75
2 14654 583
2 14655 1044
2 14656 6
2 14657 1
2 14658 2
2 14659 5
2 14660 839
2 14661 36
2 14662 15
2 14663 6
2 14664 127
2 14665 7
2 14666 8
2 14667 47
2 14668 9
2 14669 4
2 14670 196
2 14671 6
2 14672 5
2 14673 6
2 14674 5
2 14675 57
2 14676 7
2 14677 6
2 14678 15
2 14679 15
2 14680 7
2 14681 39
2 14682 58
2 14683 87
2 14684 90
2 14685 74
2 14686 8
2 14687 8
2 14688 127
2 14689 89
2 14690 43
2 14691 102
2 14692 144
2 14693 9
2 14694 2
2 14695 5
2 14696 1117
2 14697 132
2 14698 5
2 14699 130
2 14700 4
2 14701 40
2 14702 3
2 14703 16
2 14704 7
2 14705 42
2 14706 91
2 14707 67
2 14708 50
2 14709 10
2 14710 5
2 14711 9
2 14712 144
2 14713 72
2 14714 123
2 14715 9
2 14716 86
2 14717 7
2 14718 152
2 14719 3
2 14720 52
2 14721 3
2 14722 3
2 14723 1034
2 14724 169
2 14725 4
2 14726 6
2 14727 963
2 14728 108
2 14729 153
2 14730 53
2 14731 101
2 14732 5
2 14733 5
2 14734 2
2 14735 3
2 14736 24
2 14737 3
2 14738 1
2 14739 171
2 14740 6
2 14741 105
2 14742 55
2 14743 4
2 14744 62
2 14745 65
2 14746 2
2 14747 10
2 14748 5
2 14749 44
2 14750 6
2 14751 185
2 14752 136
2 14753 107
2 14754 9
2 14755 5
2 14756 14
2 14757 127
2 14758 60
2 14759 4
2 14760 85
2 14761 28
2 14762 7
2 14763 9
2 14764 3
2 14765 5
2 14766 167
2 14767 49
2 14768 5
2 14769 5
2 14770 40
2 14771 1103
2 14772 5
2 14773 63
2 14774 6
2 14775 1045
2 14776 56
2 14777 85
2 14778 10
2 14779 140
2 14780 2
2 14781 13
2 14782 34
2 14783 89
2 14784 9
2 14785 9
2 14786 5
2 14787 6
2 14788 4
2 14789 96
2 14790 4
2 14791 4
2 14792 3
2 14793 15
2 14794 119
2 14795 2
2 14796 68
2 14797 8
2 14798 37
2 14799 47
2 14800 5
2 14801 44
2 14802 47
2 14803 61
2 14804 3
2 14805 4
2 14806 104
2 14807 60
2 14808 6
2 14809 110
2 14810 5
2 14811 108
2 14812 3
2 14813 90
2 14814 23
2 14815 3
2 14816 17
2 14817 57
2 14818 6
2 14819 50
2 14820 80
2 14821 6
2 14822 14
2 14823 7
2 14824 68
2 14825 90
2 14826 63
2 14827 10
2 14828 4
2 14829 96
2 14830 90
2 14831 6
2 14832 7
2 14833 37
2 14834 58
2 14835 2
2 14836 73
2 14837 65
2 14838 40
2 14839 8
2 14840 12
2 14841 149
2 14842 137
2 14843 115
2 14844 13
2 14845 50
2 14846 88
2 14847 1
2 14848 1090
2 14849 99
2 14850 63
2 14851 72
2 14852 4
2 14853 43
2 14854 125
2 14855 134
2 14856 246
2 14857 4
2 14858 6
2 14859 43
2 14860 5
2 14861 7
2 14862 58
2 14863 54
2 14864 6
2 14865 55
2 14866 6
2 14867 131
2 14868 3
2 14869 26
2 14870 67
2 14871 45
2 14872 65
2 14873 90
2 14874 58
2 14875 1070
2 14876 4
2 14877 95
2 14878 4
2 14879 46
2 14880 4
2 14881 98
2 14882 5
2 14883 7
2 14884 220
2 14885 326
2 14886 166
2 14887 18
2 14888 7
2 14889 47
2 14890 102
2 14891 6
2 14892 6
2 14893 36
2 14894 151
2 14895 27
2 14896 71
2 14897 45
2 14898 91
2 14899 13
2 14900 3
2 14901 48
2 14902 8
2 14903 6
2 14904 122
2 14905 82
2 14906 182
2 14907 9
2 14908 117
2 14909 48
2 14910 90
2 14911 54
2 14912 7
2 14913 35
2 14914 41
2 14915 11
2 14916 93
2 14917 4
2 14918 71
2 14919 119
2 14920 130
2 14921 65
2 14922 4
2 14923 51
2 14924 7
2 14925 76
2 14926 3
2 14927 93
2 14928 7
2 14929 70
2 14930 6
2 14931 80
2 14932 13
2 14933 8
2 14934 91
2 14935 104
2 14936 7
2 14937 8
2 14938 8
2 14939 52
2 14940 7
2 14941 95
2 14942 10
2 14943 85
2 14944 12
2 14945 48
2 14946 3
2 14947 12
2 14948 3
2 14949 62
2 14950 55
2 14951 5
2 14952 108
2 14953 31
2 14954 6
2 14955 4
2 14956 6
2 14957 7
2 14958 78
2 14959 67
2 14960 4
2 14961 99
2 14962 10
2 14963 60
2 14964 4
2 14965 7
2 14966 162
2 14967 75
2 14968 37
2 14969 49
2 14970 7
2 14971 42
2 14972 4
2 14973 83
2 14974 40
2 14975 660
2 14976 87
2 14977 98
2 14978 8
2 14979 56
2 14980 63
2 14981 60
2 14982 2
2 14983 9
2 14984 32
2 14985 4
2 14986 165
2 14987 103
2 14988 2
2 14989 6
2 14990 925
2 14991 78
2 14992 5
2 14993 76
2 14994 80
2 14995 9
2 14996 91
2 14997 121
2 14998 93
2 14999 1
2 15000 5
2 15001 6
2 15002 2
2 15003 58
2 15004 134
2 15005 7
2 15006 10
2 15007 11
2 15008 3
2 15009 4
2 15010 80
2 15011 105
2 15012 5
2 15013 704
2 15014 106
2 15015 838
2 15016 29
2 15017 9
2 15018 38
2 15019 26
2 15020 4
2 15021 101
2 15022 56
2 15023 91
2 15024 99
2 15025 144
2 15026 68
2 15027 5
2 15028 30
2 15029 60
2 15030 61
2 15031 47
2 15032 37
2 15033 5
2 15034 45
2 15035 133
2 15036 6
2 15037 117
2 15038 83
2 15039 12
2 15040 26
2 15041 5
2 15042 53
2 15043 4
2 15044 6
2 15045 11
2 15046 19
2 15047 4
2 15048 9
2 15049 177
2 15050 6
2 15051 143
2 15052 6
2 15054 32
2 15055 12
2 15056 41
2 15057 63
2 15058 73
2 15059 3
2 15060 22
2 15061 75
2 15062 4
2 15063 5
2 15064 61
2 15065 103
2 15066 66
2 15067 64
2 15068 5
2 15069 8
2 15070 2
2 15071 124
2 15072 43
2 15073 79
2 15074 2
2 15075 4
2 15076 70
2 15077 75
2 15078 62
2 15079 5
2 15080 5
2 15081 4
2 15082 127
2 15083 6
2 15084 5
2 15085 101
2 15086 4
2 15087 76
2 15088 30
2 15089 2
2 15090 4
2 15091 71
2 15092 566
2 15093 74
2 15094 38
2 15095 5
2 15096 2
2 15097 5
2 15098 70
2 15099 112
2 15100 86
2 15101 41
2 15102 8
2 15103 6
2 15104 122
2 15105 6
2 15106 114
2 15107 39
2 15108 63
2 15109 98
2 15110 5
2 15111 65
2 15112 89
2 15113 6
2 15114 105
2 15115 141
2 15116 76
2 15117 5
2 15118 57
2 15119 3
2 15120 67
2 15121 2
2 15122 7
2 15123 3
2 15124 31
2 15125 69
2 15126 5
2 15127 4
2 15128 72
2 15129 93
2 15130 71
2 15131 68
2 15132 3
2 15133 129
2 15134 3
2 15135 187
2 15136 70
2 15137 101
2 15138 92
2 15139 35
2 15140 16
2 15141 3
2 15142 906
2 15143 5
2 15144 57
2 15145 13
2 15146 11
2 15147 128
2 15148 81
2 15149 4
2 15150 16
2 15151 9
2 15152 116
2 15153 81
2 15154 126
2 15155 141
2 15156 11
2 15157 12
2 15158 61
2 15159 99
2 15160 4
2 15161 107
2 15162 5
2 15163 215
2 15164 90
2 15165 10
2 15166 2
2 15167 11
2 15168 2
2 15169 10
2 15170 38
2 15171 1135
2 15172 9
2 15173 67
2 15174 161
2 15175 40
2 15176 50
2 15177 112
2 15178 20
2 15179 6
2 15180 3
2 15181 4
2 15182 64
2 15183 67
2 15184 58
2 15185 113
2 15186 7
2 15187 105
2 15188 78
2 15189 3
2 15190 8
2 15191 71
2 15192 821
2 15193 44
2 15194 149
2 15195 126
2 15196 9
2 15197 56
2 15198 109
2 15199 8
2 15200 159
2 15201 103
2 15202 37
2 15203 11
2 15204 59
2 15205 10
2 15206 4
2 15207 23
2 15208 4
2 15209 5
2 15210 770
2 15211 25
2 15212 6
2 15213 138
2 15214 5
2 15215 5
2 15216 5
2 15217 9
2 15218 56
2 15219 70
2 15220 9
2 15221 59
2 15222 59
2 15223 33
2 15224 72
2 15225 61
2 15226 114
2 15227 21
2 15228 75
2 15229 3
2 15230 33
2 15231 6
2 15232 1
2 15233 22
2 15234 8
2 15235 6
2 15236 107
2 15237 67
2 15238 64
2 15239 111
2 15240 7
2 15241 665
2 15242 116
2 15243 5
2 15244 1
2 15245 8
2 15246 666
2 15247 4
2 15248 60
2 15249 73
2 15250 7
2 15251 86
2 15252 47
2 15253 3
2 15254 6
2 15255 26
2 15256 326
2 15257 6
2 15258 14
2 15259 5
2 15260 115
2 15261 6
2 15262 2
2 15263 4
2 15264 41
2 15265 13
2 15266 5
2 15267 81
2 15268 79
2 15269 158
2 15270 70
2 15271 51
2 15272 2
2 15273 58
2 15274 63
2 15275 4
2 15276 69
2 15277 54
2 15278 2
2 15279 4
2 15280 31
2 15281 8
2 15282 24
2 15283 30
2 15284 8
2 15285 83
2 15286 78
2 15287 137
2 15288 99
2 15289 107
2 15290 9
2 15291 3
2 15292 13
2 15293 59
2 15294 5
2 15295 111
2 15296 7
2 15297 1
2 15298 23
2 15299 111
2 15300 6
2 15301 18
2 15302 11
2 15303 10
2 15304 5
2 15305 6
2 15306 4
2 15307 116
2 15308 44
2 15309 198
2 15310 34
2 15311 51
2 15312 7
2 15313 110
2 15314 46
2 15315 1
2 15316 7
2 15317 5
2 15318 2
2 15319 95
2 15320 43
2 15321 835
2 15322 140
2 15323 47
2 15324 93
2 15325 7
2 15326 1
2 15327 3
2 15328 7
2 15329 38
2 15330 73
2 15331 6
2 15332 26
2 15333 3
2 15334 4
2 15335 76
2 15336 58
2 15337 8
2 15338 4
2 15339 77
2 15340 9
2 15341 95
2 15342 3
2 15343 3
2 15344 172
2 15345 132
2 15346 90
2 15347 6
2 15348 54
2 15349 9
2 15350 67
2 15351 115
2 15352 39
2 15353 7
2 15354 5
2 15355 442
2 15356 6
2 15357 135
2 15358 5
2 15359 36
2 15360 5
2 15361 75
2 15362 613
2 15363 50
2 15364 112
2 15365 77
2 15366 158
2 15367 86
2 15368 4
2 15369 125
2 15370 110
2 15371 10
2 15372 113
2 15373 49
2 15374 1077
2 15375 1086
2 15376 1
2 15377 63
2 15378 10
2 15379 79
2 15380 8
2 15381 8
2 15382 6
2 15383 8
2 15384 50
2 15385 11
2 15386 9
2 15387 123
2 15388 9
2 15389 82
2 15390 54
2 15391 107
2 15392 7
2 15393 59
2 15394 7
2 15395 6
2 15396 7
2 15397 68
2 15398 88
2 15399 86
2 15400 71
2 15401 77
2 15402 682
2 15403 61
2 15404 71
2 15405 204
2 15406 85
2 15407 25
2 15408 57
2 15409 6
2 15410 117
2 15411 32
2 15412 4
2 15413 9
2 15414 48
2 15415 87
2 15416 8
2 15417 39
2 15418 45
2 15419 74
2 15420 73
2 15421 27
2 15422 5
2 15423 192
2 15424 1063
2 15425 18
2 15426 3
2 15427 83
2 15428 2
2 15429 7
2 15430 6
2 15431 26
2 15432 3
2 15433 13
2 15434 92
2 15435 62
2 15436 72
2 15437 77
2 15438 125
2 15439 46
2 15440 4
2 15441 56
2 15442 44
2 15443 6
2 15444 70
2 15445 9
2 15446 54
2 15447 45
2 15448 3
2 15449 90
2 15450 7
2 15451 113
2 15452 128
2 15453 48
2 15454 79
2 15455 12
2 15456 5
2 15457 96
2 15458 6
2 15459 2
2 15460 578
2 15461 7
2 15462 45
2 15463 3
2 15464 160
2 15465 162
2 15466 179
2 15467 20
2 15468 1138
2 15469 4
2 15470 50
2 15471 35
2 15472 7
2 15473 3
2 15474 126
2 15475 58
2 15476 20
2 15477 11
2 15478 19
2 15479 78
2 15480 9
2 15481 3
2 15482 10
2 15483 5
2 15484 86
2 15485 3
2 15486 36
2 15487 46
2 15488 64
2 15489 4
2 15490 52
2 15491 44
2 15492 58
2 15493 102
2 15494 10
2 15495 3
2 15496 3
2 15497 33
2 15498 44
2 15499 58
2 15500 5
2 15501 15
2 15502 11
2 15503 8
2 15504 101
2 15505 62
2 15506 104
2 15507 108
2 15508 59
2 15509 7
2 15510 552
2 15511 110
2 15512 5
2 15513 5
2 15514 56
2 15515 94
2 15516 90
2 15517 59
2 15518 9
2 15519 6
2 15520 72
2 15521 95
2 15522 10
2 15523 6
2 15524 6
2 15525 38
2 15526 6
2 15527 56
2 15528 2
2 15529 6
2 15530 50
2 15531 19
2 15532 33
2 15533 6
2 15534 33
2 15536 28
2 15537 80
2 15538 331
2 15539 7
2 15540 761
2 15541 3
2 15542 3
2 15543 3
2 15544 7
2 15545 5
2 15546 6
2 15547 75
2 15548 5
2 15549 86
2 15550 572
2 15551 3
2 15553 4
2 15554 23
2 15555 11
2 15556 53
2 15557 30
2 15558 2
2 15559 64
2 15560 1111
2 15561 2
2 15562 3
2 15563 62
2 15564 79
2 15565 6
2 15566 2
2 15567 72
2 15568 51
2 15569 29
2 15570 57
2 15571 98
2 15572 97
2 15573 9
2 15574 6
2 15575 10
2 15576 63
2 15577 105
2 15578 4
2 15579 171
2 15580 4
2 15581 5
2 15582 7
2 15583 101
2 15584 5
2 15585 68
2 15586 4
2 15587 767
2 15588 4
2 15589 68
2 15590 7
2 15591 97
2 15592 46
2 15593 64
2 15594 616
2 15595 112
2 15596 8
2 15597 2
2 15598 52
2 15599 31
2 15600 1
2 15601 32
2 15602 680
2 15603 34
2 15604 8
2 15605 78
2 15606 5
2 15607 76
2 15608 5
2 15609 58
2 15610 2
2 15611 160
2 15612 77
2 15613 139
2 15614 102
2 15615 56
2 15616 118
2 15617 2
2 15618 70
2 15619 10
2 15620 5
2 15621 114
2 15622 79
2 15623 222
2 15624 65
2 15625 53
2 15626 2
2 15627 117
2 15628 104
2 15629 3
2 15630 122
2 15631 41
2 15632 26
2 15633 7
2 15634 501
2 15635 1
2 15636 7
2 15637 8
2 15638 116
2 15639 139
2 15640 54
2 15641 107
2 15642 6
2 15643 3
2 15644 5
2 15645 72
2 15646 6
2 15647 91
2 15648 6
2 15649 58
2 15650 50
2 15651 40
2 15652 5
2 15653 8
2 15654 127
2 15655 41
2 15656 15
2 15657 41
2 15658 2
2 15659 37
2 15660 2
2 15661 76
2 15662 7
2 15663 4
2 15664 40
2 15665 40
2 15666 975
2 15667 8
2 15668 11
2 15669 6
2 15670 58
2 15671 4
2 15672 111
2 15673 57
2 15674 8
2 15675 58
2 15676 20
2 15677 136
2 15678 81
2 15679 73
2 15680 33
2 15681 134
2 15682 1
2 15683 69
2 15684 12
2 15685 20
2 15686 38
2 15687 93
2 15688 4
2 15689 47
2 15690 5
2 15691 3
2 15692 44
2 15693 269
2 15694 38
2 15695 2
2 15696 33
2 15697 75
2 15698 7
2 15699 107
2 15700 80
2 15701 67
2 15702 39
2 15703 141
2 15704 81
2 15705 109
2 15706 6
2 15707 3
2 15708 5
2 15709 3
2 15710 48
2 15711 29
2 15712 2
2 15713 5
2 15714 4
2 15715 1
2 15716 68
2 15717 7
2 15718 142
2 15719 8
2 15720 120
2 15721 8
2 15722 36
2 15723 123
2 15724 29
2 15725 30
2 15726 7
2 15727 6
2 15728 148
2 15729 5
2 15730 36
2 15731 77
2 15732 41
2 15733 229
2 15734 74
2 15735 30
2 15736 25
2 15737 33
2 15738 9
2 15739 11
2 15740 2
2 15741 29
2 15742 72
2 15743 7
2 15744 135
2 15745 8
2 15746 162
2 15747 8
2 15748 89
2 15749 112
2 15750 7
2 15751 70
2 15752 33
2 15753 9
2 15754 6
2 15755 5
2 15756 53
2 15757 8
2 15758 6
2 15759 27
2 15760 70
2 15761 79
2 15762 31
2 15763 8
2 15764 790
2 15765 5
2 15766 39
2 15767 34
2 15768 8
2 15769 1
2 15770 1
2 15771 86
2 15772 3
2 15773 34
2 15774 6
2 15775 8
2 15776 9
2 15777 77
2 15778 45
2 15779 86
2 15780 1
2 15781 13
2 15782 1
2 15783 34
2 15784 17
2 15785 3
2 15786 82
2 15787 699
2 15788 62
2 15789 36
2 15790 27
2 15791 62
2 15792 2
2 15793 11
2 15794 9
2 15795 109
2 15796 6
2 15797 5
2 15798 4
2 15799 79
2 15800 52
2 15801 3
2 15802 8
2 15803 40
2 15804 6
2 15805 45
2 15806 4
2 15807 1
2 15808 5
2 15809 75
2 15810 30
2 15811 675
2 15812 7
2 15813 7
2 15814 16
2 15815 5
2 15816 130
2 15817 87
2 15818 8
2 15819 5
2 15820 612
2 15821 34
2 15822 93
2 15823 5
2 15824 73
2 15825 125
2 15826 42
2 15827 62
2 15828 89
2 15829 42
2 15830 74
2 15831 3
2 15832 39
2 15833 4
2 15834 2
2 15835 23
2 15836 5
2 15837 56
2 15838 4
2 15839 43
2 15840 38
2 15841 21
2 15842 95
2 15843 5
2 15844 54
2 15845 7
2 15846 91
2 15847 63
2 15848 49
2 15849 65
2 15850 52
2 15851 70
2 15852 67
2 15853 4
2 15854 55
2 15855 1
2 15856 6
2 15857 5
2 15858 4
2 15859 125
2 15860 45
2 15861 9
2 15862 3
2 15863 66
2 15864 67
2 15865 3
2 15866 491
2 15867 89
2 15868 4
2 15869 74
2 15870 88
2 15871 41
2 15872 26
2 15873 4
2 15874 7
2 15875 42
2 15876 5
2 15877 50
2 15878 2
2 15879 7
2 15880 203
2 15881 65
2 15882 75
2 15883 3
2 15884 30
2 15885 3
2 15886 8
2 15887 129
2 15888 8
2 15889 77
2 15890 89
2 15891 101
2 15892 9
2 15893 47
2 15894 84
2 15895 3
2 15896 4
2 15897 100
2 15898 135
2 15899 40
2 15900 5
2 15901 55
2 15902 61
2 15903 64
2 15904 10
2 15905 13
2 15906 43
2 15907 66
2 15908 64
2 15909 83
2 15910 61
2 15911 7
2 15912 7
2 15913 66
2 15914 4
2 15915 2
2 15916 12
2 15917 7
2 15918 7
2 15919 30
2 15920 5
2 15922 64
2 15923 3
2 15924 78
2 15925 5
2 15926 18
2 15927 6
2 15928 248
2 15929 10
2 15930 9
2 15931 674
2 15932 7
2 15933 3
2 15934 7
2 15935 60
2 15936 120
2 15937 9
2 15938 158
2 15939 145
2 15940 35
2 15941 56
2 15942 94
2 15943 10
2 15944 88
2 15945 44
2 15946 89
2 15947 75
2 15948 9
2 15949 97
2 15950 9
2 15951 10
2 15952 4
2 15953 29
2 15954 6
2 15955 88
2 15956 1
2 15957 6
2 15958 65
2 15959 40
2 15960 55
2 15961 7
2 15962 52
2 15963 17
2 15964 10
2 15965 6
2 15966 8
2 15967 25
2 15968 4
2 15969 78
2 15970 37
2 15971 105
2 15972 59
2 15973 104
2 15974 76
2 15975 4
2 15976 14
2 15977 5
2 15978 71
2 15979 3
2 15980 96
2 15981 103
2 15982 93
2 15983 3
2 15984 41
2 15985 9
2 15986 21
2 15987 45
2 15988 165
2 15989 4
2 15990 6
2 15991 10
2 15992 168
2 15993 68
2 15994 12
2 15995 22
2 15996 70
2 15997 9
2 15998 60
2 15999 61
2 16000 59
2 16001 97
2 16002 81
2 16003 7
2 16004 27
2 16005 7
2 16006 61
2 16007 9
2 16008 8
2 16009 526
2 16010 41
2 16011 55
2 16012 5
2 16013 30
2 16014 5
2 16015 58
2 16016 3
2 16017 9
2 16018 3
2 16019 49
2 16020 8
2 16021 33
2 16022 83
2 16023 8
2 16024 8
2 16025 4
2 16026 3
2 16027 338
2 16028 10
2 16029 88
2 16031 34
2 16032 1
2 16033 61
2 16034 3
2 16035 8
2 16036 85
2 16037 120
2 16038 2
2 16039 53
2 16040 55
2 16041 3
2 16042 3
2 16043 32
2 16044 12
2 16045 167
2 16046 9
2 16047 2
2 16048 7
2 16049 4
2 16050 71
2 16051 161
2 16052 55
2 16053 5
2 16054 77
2 16055 98
2 16056 104
2 16057 8
2 16058 85
2 16059 135
2 16060 83
2 16061 6
2 16062 166
2 16063 6
2 16064 953
2 16066 996
2 16067 5
2 16068 16
2 16069 6
2 16070 6
2 16071 3
2 16072 249
2 16073 99
2 16074 140
2 16075 65
2 16076 4
2 16077 6
2 16078 5
2 16079 6
2 16080 100
2 16081 7
2 16082 73
2 16083 32
2 16084 7
2 16085 39
2 16086 158
2 16087 4
2 16088 9
2 16089 103
2 16090 121
2 16091 3
2 16092 8
2 16093 2
2 16094 4
2 16095 5
2 16096 8
2 16097 680
2 16098 56
2 16100 81
2 16101 63
2 16102 8
2 16103 8
2 16104 11
2 16105 4
2 16106 2
2 16107 10
2 16108 28
2 16109 4
2 16110 4
2 16111 2
2 16112 241
2 16113 7
2 16114 65
2 16115 53
2 16116 18
2 16117 939
2 16118 5
2 16119 8
2 16120 102
2 16121 7
2 16122 6
2 16123 74
2 16124 111
2 16125 73
2 16126 6
2 16127 6
2 16128 6
2 16129 22
2 16130 183
2 16131 50
2 16133 67
2 16134 67
2 16135 7
2 16136 3
2 16137 78
2 16138 7
2 16139 6
2 16140 4
2 16141 50
2 16142 65
2 16143 118
2 16144 92
2 16145 5
2 16146 56
2 16147 5
2 16148 8
2 16149 64
2 16150 7
2 16151 11
2 16152 543
2 16153 3
2 16154 296
2 16155 68
2 16156 96
2 16157 3
2 16158 113
2 16159 55
2 16160 10
2 16161 4
2 16162 42
2 16163 94
2 16164 20
2 16165 1
2 16166 3
2 16167 6
2 16168 173
2 16169 87
2 16170 5
2 16171 102
2 16172 29
2 16173 4
2 16174 125
2 16175 980
2 16176 7
2 16177 7
2 16178 91
2 16179 18
2 16180 9
2 16181 5
2 16182 7
2 16183 69
2 16184 5
2 16185 3
2 16186 6
2 16187 6
2 16188 85
2 16189 1
2 16190 543
2 16191 8
2 16192 59
2 16193 5
2 16194 111
2 16195 7
2 16196 41
2 16197 5
2 16198 59
2 16199 884
2 16200 11
2 16201 5
2 16202 5
2 16203 65
2 16204 9
2 16205 239
2 16206 108
2 16207 16
2 16208 156
2 16209 3
2 16210 78
2 16211 2
2 16212 65
2 16213 53
2 16214 30
2 16215 489
2 16216 4
2 16217 51
2 16218 39
2 16219 3
2 16220 5
2 16221 80
2 16222 125
2 16223 41
2 16224 2
2 16225 892
2 16226 60
2 16227 3
2 16228 56
2 16229 280
2 16230 50
2 16231 49
2 16232 45
2 16233 62
2 16234 73
2 16235 55
2 16236 47
2 16237 18
2 16238 67
2 16239 7
2 16240 419
2 16241 2
2 16242 5
2 16243 2
2 16244 1
2 16245 61
2 16246 95
2 16247 8
2 16248 71
2 16249 77
2 16250 60
2 16251 82
2 16252 7
2 16253 68
2 16254 4
2 16255 88
2 16256 4
2 16257 143
2 16258 74
2 16259 604
2 16260 52
2 16261 40
2 16262 44
2 16263 8
2 16264 3
2 16265 41
2 16266 134
2 16267 9
2 16268 66
2 16269 5
2 16270 6
2 16271 12
2 16272 6
2 16273 73
2 16274 5
2 16275 3
2 16276 27
2 16277 39
2 16278 8
2 16279 35
2 16280 74
2 16281 4
2 16282 70
2 16283 88
2 16284 3
2 16285 5
2 16286 5
2 16287 74
2 16288 9
2 16290 82
2 16291 26
2 16292 3
2 16293 4
2 16294 7
2 16295 89
2 16296 63
2 16297 116
2 16298 827
2 16299 6
2 16300 50
2 16301 6
2 16302 14
2 16303 93
2 16304 1
2 16305 31
2 16306 6
2 16307 89
2 16308 1
2 16309 2
2 16310 23
2 16311 47
2 16312 3
2 16313 69
2 16314 542
2 16315 48
2 16316 7
2 16317 6
2 16318 32
2 16319 1025
2 16320 524
2 16321 9
2 16322 2
2 16323 16
2 16324 6
2 16325 5
2 16326 92
2 16327 50
2 16328 6
2 16329 10
2 16330 83
2 16331 55
2 16332 70
2 16333 124
2 16334 63
2 16335 46
2 16336 13
2 16337 77
2 16338 57
2 16339 7
2 16340 54
2 16341 125
2 16342 5
2 16343 4
2 16344 24
2 16345 6
2 16346 4
2 16347 6
2 16348 106
2 16349 7
2 16350 96
2 16351 7
2 16352 4
2 16353 6
2 16354 1
2 16355 60
2 16356 3
2 16357 117
2 16358 4
2 16359 6
2 16360 183
2 16361 18
2 16362 79
2 16363 81
2 16364 65
2 16365 978
2 16366 6
2 16367 3
2 16368 3
2 16369 8
2 16370 58
2 16371 7
2 16372 49
2 16373 44
2 16374 22
2 16375 326
2 16376 76
2 16377 5
2 16378 5
2 16379 8
2 16380 25
2 16381 94
2 16382 79
2 16383 7
2 16384 110
2 16385 7
2 16386 72
2 16387 9
2 16388 58
2 16389 73
2 16390 34
2 16391 5
2 16392 159
2 16393 35
2 16394 42
2 16395 6
2 16396 14
2 16397 8
2 16398 112
2 16399 103
2 16400 95
2 16401 6
2 16402 54
2 16403 71
2 16404 2
2 16405 55
2 16406 8
2 16407 6
2 16408 2
2 16409 30
2 16410 9
2 16411 84
2 16412 4
2 16413 102
2 16414 2
2 16415 92
2 16416 3
2 16417 62
2 16418 6
2 16419 90
2 16420 8
2 16421 45
2 16422 4
2 16423 6
2 16424 8
2 16425 9
2 16426 54
2 16427 8
2 16428 61
2 16429 86
2 16430 5
2 16431 8
2 16432 3
2 16433 9
2 16434 25
2 16435 5
2 16436 19
2 16437 71
2 16438 114
2 16439 85
2 16440 88
2 16441 6
2 16442 9
2 16443 74
2 16444 4
2 16445 111
2 16446 92
2 16447 44
2 16448 81
2 16449 85
2 16450 7
2 16451 6
2 16452 5
2 16453 8
2 16454 8
2 16455 7
2 16456 138
2 16457 7
2 16458 87
2 16459 69
2 16460 3
2 16461 711
2 16462 1
2 16463 5
2 16464 3
2 16465 48
2 16466 5
2 16467 41
2 16468 3
2 16469 20
2 16470 2
2 16471 1
2 16472 5
2 16473 10
2 16474 8
2 16475 6
2 16476 10
2 16477 68
2 16478 2
2 16479 7
2 16480 7
2 16481 78
2 16482 62
2 16483 9
2 16484 4
2 16485 10
2 16486 55
2 16487 56
2 16488 53
2 16489 8
2 16490 65
2 16491 26
2 16492 88
2 16493 11
2 16494 7
2 16495 7
2 16496 47
2 16497 24
2 16498 63
2 16499 4
2 16500 9
2 16501 18
2 16502 58
2 16503 4
2 16504 2
2 16505 9
2 16506 5
2 16507 114
2 16508 38
2 16510 4
2 16511 13
2 16512 386
2 16513 9
2 16514 128
2 16515 170
2 16516 8
2 16517 8
2 16518 67
2 16519 5
2 16520 4
2 16521 76
2 16522 48
2 16523 2
2 16524 722
2 16525 4
2 16526 8
2 16527 110
2 16528 3
2 16529 74
2 16530 11
2 16531 72
2 16532 55
2 16533 2
2 16534 883
2 16535 4
2 16536 124
2 16537 10
2 16538 7
2 16539 3
2 16540 150
2 16541 35
2 16542 5
2 16543 48
2 16544 54
2 16545 82
2 16546 4
2 16547 111
2 16548 89
2 16549 7
2 16550 112
2 16551 4
2 16552 4
2 16553 13
2 16554 4
2 16555 6
2 16556 4
2 16557 96
2 16558 91
2 16559 5
2 16560 75
2 16561 53
2 16562 4
2 16563 108
2 16564 10
2 16565 83
2 16566 23
2 16567 77
2 16568 85
2 16569 6
2 16570 5
2 16571 43
2 16572 4
2 16573 110
2 16574 10
2 16575 2
2 16576 128
2 16577 98
2 16578 39
2 16579 79
2 16580 77
2 16581 57
2 16582 9
2 16583 40
2 16584 50
2 16585 8
2 16586 49
2 16587 22
2 16588 90
2 16589 79
2 16590 6
2 16591 5
2 16592 7
2 16593 115
2 16594 910
2 16595 3
2 16596 121
2 16597 5
2 16598 56
3 1 11
3 2 69
3 3 11
3 4 122
3 5 61
3 6 4
3 7 84
3 8 17
3 9 15
3 10 14
3 11 10
3 12 27
3 13 15
3 14 24
3 15 12
3 16 9
3 17 17
3 18 218
3 19 17
3 20 14
3 21 130
3 22 17
3 23 17
3 24 19
3 25 17
3 26 20
3 27 97
3 28 3
3 29 17
3 30 12
3 31 11
3 32 11
3 33 20
3 34 15
3 35 16
3 36 63
3 37 8
3 38 13
3 39 13
3 40 27
3 41 16
3 42 6
3 43 11
3 44 8
3 45 8
3 46 12
3 47 14
3 48 16
3 49 12
3 50 11
3 51 13
3 52 26
3 53 22
3 54 23
3 55 99
3 56 18
3 57 11
3 58 12
3 59 117
3 60 57
3 61 9
3 62 42
3 63 35
3 64 11
3 65 13
3 66 15
3 67 14
3 68 15
3 69 15
3 70 13
3 71 9
3 72 13
3 73 15
3 74 12
3 75 23
3 76 10
3 77 53
3 78 12
3 79 1059
3 80 4
3 81 51
3 82 69
3 83 29
3 84 25
3 85 11
3 86 14
3 87 32
3 88 93
3 89 7
3 90 14
3 91 76
3 92 5
3 93 22
3 94 12
3 95 9
3 96 4
3 97 17
3 98 119
3 99 30
3 100 6
3 101 16
3 102 64
3 103 12
3 104 22
3 105 42
3 106 25
3 107 23
3 108 42
3 109 111
3 110 15
3 111 11
3 112 87
3 113 13
3 114 8
3 115 38
3 116 9
3 117 12
3 118 13
3 119 14
3 120 18
3 121 17
3 122 26
3 123 14
3 124 133
3 125 19
3 126 43
3 127 73
3 128 8
3 129 24
3 130 4
3 131 3
3 132 15
3 133 13
3 134 16
3 135 11
3 136 9
3 137 7
3 138 17
3 139 19
3 140 40
3 141 11
3 142 7
3 143 7
3 144 101
3 145 14
3 146 22
3 147 9
3 148 20
3 149 16
3 150 11
3 151 12
3 152 16
3 153 20
3 154 44
3 155 64
3 156 13
3 157 13
3 158 53
3 159 31
3 160 9
3 161 51
3 162 25
3 163 31
3 164 15
3 165 8
3 166 12
3 167 16
3 168 11
3 169 50
3 170 14
3 171 10
3 172 30
3 173 11
3 174 171
3 175 13
3 176 9
3 177 68
3 178 23
3 179 29
3 180 38
3 181 128
3 182 14
3 183 8
3 184 62
3 185 14
3 186 31
3 187 19
3 188 13
3 189 7
3 190 15
3 191 5
3 192 8
3 193 6
3 194 48
3 195 15
3 196 52
3 197 64
3 198 13
3 199 16
3 200 26
3 201 10
3 202 11
3 203 5
3 204 17
3 205 935
3 206 146
3 207 13
3 208 10
3 209 17
3 210 17
3 211 6
3 212 11
3 213 7
3 214 73
3 215 10
3 216 51
3 217 15
3 218 15
3 219 24
3 220 45
3 221 13
3 222 12
3 223 15
3 224 35
3 225 15
3 226 63
3 227 33
3 228 19
3 229 14
3 230 9
3 231 34
3 232 11
3 233 85
3 234 15
3 235 65
3 236 40
3 237 20
3 238 15
3 239 91
3 240 22
3 241 25
3 242 93
3 243 21
3 244 14
3 245 18
3 246 89
3 247 8
3 248 28
3 249 7
3 250 38
3 251 71
3 252 72
3 253 13
3 254 67
3 255 17
3 256 50
3 257 90
3 258 13
3 259 2
3 260 28
3 261 18
3 262 11
3 263 48
3 264 45
3 265 12
3 266 25
3 267 59
3 268 79
3 269 37
3 270 15
3 271 11
3 272 48
3 273 18
3 274 10
3 275 43
3 276 18
3 277 12
3 278 30
3 279 45
3 280 18
3 281 24
3 282 52
3 283 9
3 284 12
3 285 16
3 286 14
3 287 10
3 288 9
3 289 17
3 290 18
3 291 37
3 292 12
3 293 81
3 294 15
3 295 39
3 296 29
3 297 4
3 298 4
3 299 9
3 300 12
3 301 8
3 302 21
3 303 8
3 304 22
3 305 45
3 306 16
3 307 12
3 308 39
3 309 11
3 310 12
3 311 15
3 312 9
3 313 12
3 314 71
3 315 8
3 316 72
3 317 6
3 318 9
3 319 8
3 320 19
3 321 58
3 322 13
3 323 148
3 324 5
3 325 120
3 326 21
3 327 17
3 328 40
3 329 19
3 330 12
3 331 15
3 332 13
3 333 21
3 334 11
3 335 52
3 336 15
3 337 27
3 338 13
3 339 13
3 340 18
3 341 19
3 342 13
3 343 16
3 344 11
3 345 15
3 346 7
3 347 12
3 348 19
3 349 68
3 350 21
3 351 10
3 352 86
3 353 25
3 354 120
3 355 11
3 356 9
3 357 45
3 358 28
3 359 25
3 360 18
3 361 9
3 362 98
3 363 85
3 364 19
3 365 50
3 366 33
3 367 112
3 368 81
3 369 10
3 370 58
3 371 13
3 372 79
3 373 10
3 374 13
3 375 4
3 376 16
3 377 10
3 378 5
3 379 19
3 380 15
3 381 141
3 382 10
3 383 7
3 384 9
3 385 20
3 386 23
3 387 13
3 388 21
3 389 39
3 390 14
3 391 6
3 392 18
3 393 25
3 394 7
3 395 7
3 396 27
3 397 8
3 398 7
3 399 25
3 400 16
3 401 16
3 402 15
3 403 10
3 404 79
3 405 17
3 406 66
3 407 15
3 408 42
3 409 12
3 410 124
3 411 17
3 412 18
3 413 41
3 414 13
3 415 160
3 416 16
3 417 19
3 418 30
3 419 15
3 420 108
3 421 14
3 422 9
3 423 24
3 424 8
3 425 9
3 426 10
3 427 20
3 428 18
3 429 70
3 430 12
3 431 99
3 432 12
3 433 62
3 434 83
3 435 47
3 436 16
3 437 13
3 438 44
3 439 16
3 440 921
3 441 17
3 442 21
3 443 14
3 444 91
3 445 15
3 446 121
3 447 20
3 448 26
3 449 19
3 450 66
3 451 21
3 452 11
3 453 170
3 454 52
3 455 77
3 456 9
3 457 7
3 458 17
3 459 23
3 460 15
3 461 36
3 462 98
3 463 110
3 464 57
3 465 29
3 466 15
3 467 11
3 468 41
3 469 17
3 470 28
3 471 15
3 472 52
3 473 11
3 474 11
3 475 61
3 476 15
3 477 26
3 478 11
3 479 10
3 480 13
3 481 64
3 482 14
3 483 6
3 484 12
3 485 34
3 486 11
3 487 18
3 488 14
3 489 9
3 490 12
3 491 7
3 492 12
3 493 19
3 494 17
3 495 23
3 496 49
3 497 52
3 498 16
3 499 15
3 500 101
3 501 21
3 502 3
3 503 107
3 504 15
3 505 84
3 506 10
3 507 50
3 508 72
3 509 77
3 510 23
3 511 18
3 512 37
3 513 14
3 514 81
3 515 42
3 516 7
3 517 30
3 518 90
3 519 11
3 520 12
3 521 65
3 522 38
3 523 11
3 524 11
3 525 8
3 526 8
3 527 84
3 528 12
3 529 16
3 530 32
3 531 16
3 532 12
3 533 16
3 534 17
3 535 16
3 536 14
3 537 8
3 538 12
3 539 24
3 540 21
3 541 29
3 542 13
3 543 28
3 544 33
3 545 13
3 546 14
3 547 13
3 548 76
3 549 842
3 550 13
3 551 29
3 552 17
3 553 28
3 554 16
3 555 40
3 556 60
3 557 8
3 558 74
3 559 23
3 560 11
3 561 65
3 562 33
3 563 49
3 564 32
3 565 84
3 566 7
3 567 25
3 568 17
3 569 14
3 570 15
3 571 15
3 572 8
3 573 103
3 574 35
3 575 13
3 576 12
3 577 95
3 578 63
3 579 66
3 580 98
3 581 14
3 582 18
3 583 17
3 584 10
3 585 12
3 586 8
3 587 107
3 588 18
3 589 8
3 590 7
3 591 6
3 592 6
3 593 10
3 594 13
3 595 10
3 596 34
3 597 10
3 598 83
3 599 10
3 600 16
3 601 9
3 602 121
3 603 43
3 604 96
3 605 46
3 606 15
3 607 81
3 608 19
3 609 59
3 610 77
3 611 15
3 612 10
3 613 27
3 614 33
3 615 15
3 616 10
3 617 18
3 618 11
3 619 13
3 620 17
3 621 16
3 622 9
3 623 17
3 624 9
3 625 45
3 626 97
3 627 11
3 628 13
3 629 19
3 630 25
3 631 14
3 632 71
3 633 15
3 634 26
3 635 18
3 636 11
3 637 6
3 638 11
3 639 7
3 640 17
3 641 20
3 642 15
3 643 72
3 644 12
3 645 171
3 646 25
3 647 16
3 648 97
3 649 18
3 650 19
3 651 19
3 652 53
3 653 68
3 654 7
3 655 107
3 656 13
3 657 14
3 658 10
3 659 65
3 660 78
3 661 10
3 662 7
3 663 11
3 664 60
3 665 12
3 666 13
3 667 12
3 668 55
3 669 25
3 670 59
3 671 25
3 672 14
3 673 13
3 674 4
3 675 19
3 676 25
3 677 19
3 678 6
3 679 10
3 680 10
3 681 28
3 682 21
3 683 4
3 684 18
3 685 8
3 686 7
3 687 37
3 688 14
3 689 41
3 690 73
3 691 9
3 692 41
3 693 106
3 694 94
3 695 13
3 696 11
3 697 17
3 698 7
3 699 34
3 700 6
3 701 24
3 702 14
3 703 6
3 704 33
3 705 17
3 706 20
3 707 19
3 708 20
3 709 13
3 710 9
3 711 10
3 712 61
3 713 40
3 714 14
3 715 15
3 716 26
3 717 93
3 718 34
3 719 9
3 720 174
3 721 14
3 722 13
3 723 21
3 724 18
3 725 24
3 726 7
3 727 16
3 728 57
3 729 7
3 730 8
3 731 17
3 732 13
3 733 15
3 734 18
3 735 10
3 736 51
3 737 13
3 738 26
3 739 16
3 740 124
3 741 34
3 742 44
3 743 65
3 744 44
3 745 18
3 746 9
3 747 10
3 748 42
3 749 90
3 750 1062
3 751 27
3 752 22
3 753 13
3 754 21
3 755 51
3 756 12
3 757 19
3 758 16
3 759 100
3 760 42
3 761 66
3 762 11
3 763 1062
3 764 11
3 765 10
3 766 10
3 767 17
3 768 68
3 769 13
3 770 27
3 771 21
3 772 6
3 773 10
3 774 29
3 775 94
3 776 25
3 777 89
3 778 11
3 779 91
3 780 57
3 781 42
3 782 45
3 783 5
3 784 78
3 785 6
3 786 52
3 787 17
3 788 29
3 789 49
3 790 16
3 791 13
3 792 99
3 793 10
3 794 4
3 795 37
3 796 41
3 797 8
3 798 26
3 799 80
3 800 55
3 801 21
3 802 24
3 803 16
3 804 10
3 805 18
3 806 62
3 807 13
3 808 18
3 809 22
3 810 9
3 811 10
3 812 11
3 813 28
3 814 11
3 815 23
3 816 11
3 817 51
3 818 14
3 819 12
3 820 11
3 821 25
3 822 17
3 823 13
3 824 16
3 825 46
3 826 13
3 827 78
3 828 2
3 829 61
3 830 14
3 831 16
3 832 5
3 833 44
3 834 8
3 835 11
3 836 14
3 837 10
3 838 14
3 839 31
3 840 21
3 841 12
3 842 66
3 843 10
3 844 11
3 845 5
3 846 34
3 847 9
3 848 6
3 849 89
3 850 12
3 851 11
3 852 14
3 853 9
3 854 20
3 855 49
3 856 18
3 857 16
3 858 21
3 859 13
3 860 58
3 861 18
3 862 66
3 863 20
3 864 15
3 865 17
3 866 41
3 867 21
3 868 17
3 869 134
3 870 62
3 871 14
3 872 13
3 873 23
3 874 16
3 875 94
3 876 49
3 877 94
3 878 19
3 879 15
3 880 23
3 881 15
3 882 10
3 883 13
3 884 14
3 885 10
3 886 46
3 887 13
3 888 43
3 889 81
3 890 19
3 891 49
3 892 18
3 893 29
3 894 8
3 895 16
3 896 17
3 897 9
3 898 16
3 899 29
3 900 17
3 901 23
3 902 147
3 903 189
3 904 38
3 905 50
3 906 23
3 907 32
3 908 1300
3 909 13
3 910 21
3 911 32
3 912 52
3 913 19
3 914 25
3 915 14
3 916 35
3 917 12
3 918 54
3 919 24
3 920 17
3 921 102
3 922 90
3 923 17
3 924 34
3 925 157
3 926 25
3 927 27
3 928 18
3 929 134
3 930 35
3 931 22
3 932 29
3 933 19
3 934 23
3 935 18
3 936 174
3 937 25
3 938 45
3 939 28
3 940 283
3 941 31
3 942 24
3 943 31
3 944 24
3 945 135
3 946 49
3 947 18
3 948 7
3 949 8
3 950 7
3 951 24
3 952 10
3 953 8
3 954 34
3 955 18
3 956 15
3 957 112
3 958 35
3 959 10
3 960 18
3 961 33
3 962 7
3 963 119
3 964 43
3 965 48
3 966 18
3 967 18
3 968 21
3 969 22
3 970 26
3 971 13
3 972 17
3 973 8
3 974 13
3 975 18
3 976 23
3 977 24
3 978 18
3 979 88
3 980 54
3 981 10
3 982 14
3 983 15
3 984 40
3 985 10
3 986 12
3 987 12
3 988 203
3 989 17
3 990 13
3 991 44
3 992 8
3 993 12
3 994 22
3 995 16
3 996 6
3 997 51
3 998 15
3 999 10
3 1000 13
3 1001 83
3 1002 18
3 1003 9
3 1004 25
3 1005 35
3 1006 6
3 1007 17
3 1008 56
3 1009 24
3 1010 22
3 1011 100
3 1012 11
3 1013 17
3 1014 48
3 1015 70
3 1016 11
3 1017 16
3 1018 121
3 1019 92
3 1020 19
3 1021 10
3 1022 15
3 1023 14
3 1024 20
3 1025 14
3 1026 904
3 1027 21
3 1028 9
3 1029 4
3 1030 51
3 1031 11
3 1032 86
3 1033 27
3 1034 14
3 1035 85
3 1036 21
3 1037 77
3 1038 16
3 1039 6
3 1040 18
3 1041 34
3 1042 24
3 1043 1033
3 1044 11
3 1045 11
3 1046 13
3 1047 1
3 1048 11
3 1049 45
3 1050 10
3 1051 20
3 1052 10
3 1053 16
3 1054 13
3 1055 427
3 1056 11
3 1057 25
3 1058 17
3 1059 23
3 1060 25
3 1061 10
3 1062 13
3 1063 17
3 1064 22
3 1065 67
3 1066 30
3 1067 13
3 1068 151
3 1069 31
3 1070 18
3 1071 7
3 1072 24
3 1073 9
3 1074 51
3 1075 11
3 1076 106
3 1077 37
3 1078 14
3 1079 59
3 1080 24
3 1081 7
3 1082 14
3 1083 41
3 1084 8
3 1085 15
3 1086 18
3 1087 113
3 1088 16
3 1089 61
3 1090 50
3 1091 13
3 1092 21
3 1093 21
3 1094 13
3 1095 17
3 1096 11
3 1097 8
3 1098 10
3 1099 38
3 1100 64
3 1101 8
3 1102 13
3 1103 19
3 1104 103
3 1105 19
3 1106 10
3 1107 113
3 1108 5
3 1109 16
3 1110 11
3 1111 79
3 1112 122
3 1113 18
3 1114 37
3 1115 70
3 1116 11
3 1117 9
3 1118 20
3 1119 19
3 1120 14
3 1121 18
3 1122 12
3 1123 148
3 1124 76
3 1125 54
3 1126 138
3 1127 8
3 1128 12
3 1129 15
3 1130 5
3 1131 7
3 1132 9
3 1133 12
3 1134 28
3 1135 9
3 1136 70
3 1137 16
3 1138 159
3 1139 13
3 1140 134
3 1141 22
3 1142 16
3 1143 9
3 1144 72
3 1145 14
3 1146 14
3 1147 27
3 1148 11
3 1149 13
3 1150 26
3 1151 9
3 1152 147
3 1153 19
3 1154 31
3 1155 19
3 1156 64
3 1157 13
3 1158 17
3 1159 12
3 1160 13
3 1161 50
3 1162 86
3 1163 11
3 1164 20
3 1165 16
3 1166 94
3 1167 83
3 1168 42
3 1169 23
3 1170 9
3 1171 12
3 1172 12
3 1173 15
3 1174 18
3 1175 12
3 1176 93
3 1177 61
3 1178 11
3 1179 13
3 1180 61
3 1181 161
3 1182 8
3 1183 18
3 1184 5
3 1185 6
3 1186 15
3 1187 75
3 1188 9
3 1189 15
3 1190 9
3 1191 16
3 1192 9
3 1193 9
3 1194 13
3 1195 125
3 1196 10
3 1197 16
3 1198 10
3 1199 15
3 1200 9
3 1201 10
3 1202 10
3 1203 51
3 1204 75
3 1205 248
3 1206 19
3 1207 13
3 1208 61
3 1209 14
3 1210 6
3 1211 109
3 1212 23
3 1213 9
3 1214 6
3 1215 21
3 1216 24
3 1217 11
3 1218 49
3 1219 24
3 1220 15
3 1221 14
3 1222 23
3 1223 11
3 1224 15
3 1225 44
3 1226 59
3 1227 85
3 1228 55
3 1229 44
3 1230 6
3 1231 11
3 1232 96
3 1233 107
3 1234 21
3 1235 8
3 1236 19
3 1237 14
3 1238 17
3 1239 40
3 1240 8
3 1241 80
3 1242 13
3 1243 16
3 1244 23
3 1245 13
3 1246 17
3 1247 18
3 1248 21
3 1249 27
3 1250 82
3 1251 15
3 1252 21
3 1253 21
3 1254 114
3 1255 16
3 1256 16
3 1257 71
3 1258 14
3 1259 11
3 1260 13
3 1261 9
3 1262 38
3 1263 17
3 1264 27
3 1265 21
3 1266 20
3 1267 11
3 1268 58
3 1269 46
3 1270 49
3 1271 15
3 1272 16
3 1273 9
3 1274 11
3 1275 9
3 1276 9
3 1277 22
3 1278 68
3 1279 14
3 1280 17
3 1281 17
3 1282 12
3 1283 88
3 1284 14
3 1285 15
3 1286 15
3 1287 14
3 1288 62
3 1289 22
3 1290 15
3 1291 14
3 1292 28
3 1293 16
3 1294 14
3 1295 160
3 1296 14
3 1297 6
3 1298 91
3 1299 16
3 1300 14
3 1301 42
3 1302 8
3 1303 10
3 1304 76
3 1305 31
3 1306 11
3 1307 15
3 1308 10
3 1309 83
3 1310 9
3 1311 29
3 1312 21
3 1313 39
3 1314 10
3 1315 11
3 1316 51
3 1317 9
3 1318 16
3 1319 154
3 1320 11
3 1321 12
3 1322 12
3 1323 7
3 1324 9
3 1325 64
3 1326 12
3 1327 10
3 1328 96
3 1329 21
3 1330 11
3 1331 45
3 1332 10
3 1333 40
3 1334 9
3 1335 74
3 1336 5
3 1337 28
3 1338 7
3 1339 20
3 1340 12
3 1341 70
3 1342 24
3 1343 35
3 1344 12
3 1345 21
3 1346 9
3 1347 75
3 1348 17
3 1349 10
3 1350 14
3 1351 89
3 1352 12
3 1353 17
3 1354 23
3 1355 4
3 1356 4
3 1357 6
3 1358 8
3 1359 11
3 1360 16
3 1361 15
3 1362 10
3 1363 11
3 1364 14
3 1365 16
3 1366 29
3 1367 11
3 1368 20
3 1369 18
3 1370 22
3 1371 36
3 1372 105
3 1373 14
3 1374 10
3 1375 9
3 1376 5
3 1377 38
3 1378 110
3 1379 17
3 1380 9
3 1381 15
3 1382 5
3 1383 12
3 1384 24
3 1385 12
3 1386 59
3 1387 49
3 1388 11
3 1389 51
3 1390 28
3 1391 10
3 1392 52
3 1393 10
3 1394 5
3 1395 4
3 1396 61
3 1397 135
3 1398 13
3 1399 16
3 1400 15
3 1401 16
3 1402 1055
3 1403 9
3 1404 12
3 1405 32
3 1406 32
3 1407 39
3 1408 28
3 1409 11
3 1410 15
3 1411 9
3 1412 21
3 1413 18
3 1414 204
3 1415 11
3 1416 15
3 1417 11
3 1418 15
3 1419 74
3 1420 25
3 1421 10
3 1422 16
3 1423 20
3 1424 25
3 1425 114
3 1426 10
3 1427 68
3 1428 37
3 1429 16
3 1430 34
3 1431 16
3 1432 16
3 1433 28
3 1434 10
3 1435 62
3 1436 46
3 1437 9
3 1438 37
3 1439 11
3 1440 10
3 1441 37
3 1442 11
3 1443 11
3 1444 7
3 1445 13
3 1446 12
3 1447 18
3 1448 169
3 1449 13
3 1450 26
3 1451 37
3 1452 20
3 1453 141
3 1454 17
3 1455 45
3 1456 11
3 1457 10
3 1458 9
3 1459 57
3 1460 17
3 1461 7
3 1462 6
3 1463 12
3 1464 16
3 1465 20
3 1466 96
3 1467 17
3 1468 37
3 1469 98
3 1470 17
3 1471 12
3 1472 9
3 1473 13
3 1474 904
3 1475 16
3 1476 26
3 1477 43
3 1478 65
3 1479 15
3 1480 35
3 1481 7
3 1482 149
3 1483 13
3 1484 11
3 1485 69
3 1486 29
3 1487 8
3 1488 12
3 1489 61
3 1490 16
3 1491 12
3 1492 18
3 1493 52
3 1494 46
3 1495 20
3 1496 16
3 1497 15
3 1498 106
3 1499 12
3 1500 9
3 1501 18
3 1502 53
3 1503 13
3 1504 17
3 1505 27
3 1506 14
3 1507 89
3 1508 9
3 1509 133
3 1510 99
3 1511 7
3 1512 8
3 1513 24
3 1514 9
3 1515 9
3 1516 23
3 1517 10
3 1518 14
3 1519 32
3 1520 166
3 1521 14
3 1522 76
3 1523 59
3 1524 105
3 1525 31
3 1526 18
3 1527 26
3 1528 10
3 1529 16
3 1530 13
3 1531 22
3 1532 103
3 1533 25
3 1534 6
3 1535 15
3 1536 49
3 1537 19
3 1538 9
3 1539 59
3 1540 11
3 1541 7
3 1542 13
3 1543 8
3 1544 9
3 1545 151
3 1546 13
3 1547 19
3 1548 9
3 1549 57
3 1550 13
3 1551 7
3 1552 4
3 1553 39
3 1554 88
3 1555 8
3 1556 7
3 1557 11
3 1558 8
3 1559 12
3 1560 9
3 1561 21
3 1562 7
3 1563 12
3 1564 11
3 1565 5
3 1566 15
3 1567 18
3 1568 13
3 1569 22
3 1570 13
3 1571 14
3 1572 10
3 1573 10
3 1574 15
3 1575 16
3 1576 9
3 1577 32
3 1578 15
3 1579 7
3 1580 11
3 1581 6
3 1582 793
3 1583 70
3 1584 9
3 1585 36
3 1586 5
3 1587 18
3 1588 24
3 1589 11
3 1590 13
3 1591 10
3 1592 133
3 1593 5
3 1594 184
3 1595 13
3 1596 26
3 1597 13
3 1598 23
3 1599 9
3 1600 15
3 1601 22
3 1602 36
3 1603 6
3 1604 62
3 1605 67
3 1606 39
3 1607 13
3 1608 12
3 1609 88
3 1610 11
3 1611 21
3 1612 27
3 1613 15
3 1614 12
3 1615 23
3 1616 33
3 1617 47
3 1618 19
3 1619 166
3 1620 23
3 1621 19
3 1622 14
3 1623 14
3 1624 11
3 1625 69
3 1626 96
3 1627 43
3 1628 11
3 1629 11
3 1630 17
3 1631 63
3 1632 20
3 1633 15
3 1634 84
3 1635 10
3 1636 11
3 1637 34
3 1638 58
3 1639 14
3 1640 14
3 1641 12
3 1642 9
3 1643 83
3 1644 14
3 1645 14
3 1646 956
3 1647 76
3 1648 43
3 1649 13
3 1650 406
3 1651 17
3 1652 9
3 1653 13
3 1654 10
3 1655 18
3 1656 16
3 1657 12
3 1658 86
3 1659 4
3 1660 13
3 1661 48
3 1662 20
3 1663 67
3 1664 75
3 1665 8
3 1666 7
3 1667 24
3 1668 8
3 1669 13
3 1670 236
3 1671 15
3 1672 20
3 1673 8
3 1674 12
3 1675 10
3 1676 12
3 1677 30
3 1678 16
3 1679 17
3 1680 11
3 1681 12
3 1682 8
3 1683 10
3 1684 12
3 1685 12
3 1686 14
3 1687 7
3 1688 76
3 1689 13
3 1690 11
3 1691 21
3 1692 18
3 1693 16
3 1694 21
3 1695 6
3 1696 54
3 1697 10
3 1698 9
3 1699 109
3 1700 10
3 1701 41
3 1702 17
3 1703 12
3 1704 35
3 1705 7
3 1706 48
3 1707 92
3 1708 7
3 1709 13
3 1710 9
3 1711 47
3 1712 19
3 1713 9
3 1714 22
3 1715 19
3 1716 11
3 1717 20
3 1718 63
3 1719 248
3 1720 73
3 1721 236
3 1722 19
3 1723 6
3 1724 32
3 1725 11
3 1726 15
3 1727 13
3 1728 10
3 1729 11
3 1730 6
3 1731 878
3 1732 17
3 1733 14
3 1734 15
3 1735 16
3 1736 26
3 1737 19
3 1738 14
3 1739 95
3 1740 59
3 1741 10
3 1742 5
3 1743 72
3 1744 40
3 1745 11
3 1746 23
3 1747 37
3 1748 81
3 1749 84
3 1750 18
3 1751 42
3 1752 48
3 1753 8
3 1754 8
3 1755 49
3 1756 12
3 1757 18
3 1758 21
3 1759 5
3 1760 7
3 1761 51
3 1762 10
3 1763 6
3 1764 51
3 1765 26
3 1766 13
3 1767 36
3 1768 11
3 1769 7
3 1770 14
3 1771 13
3 1772 72
3 1773 18
3 1774 21
3 1775 19
3 1776 34
3 1777 353
3 1778 33
3 1779 71
3 1780 9
3 1781 20
3 1782 34
3 1783 10
3 1784 35
3 1785 12
3 1786 7
3 1787 14
3 1788 16
3 1789 18
3 1790 33
3 1791 98
3 1792 30
3 1793 13
3 1794 13
3 1795 8
3 1796 13
3 1797 11
3 1798 14
3 1799 7
3 1800 17
3 1801 9
3 1802 300
3 1803 19
3 1804 5
3 1805 10
3 1806 55
3 1807 13
3 1808 5
3 1809 11
3 1810 7
3 1811 91
3 1812 35
3 1813 41
3 1814 12
3 1815 8
3 1816 46
3 1817 16
3 1818 25
3 1819 17
3 1820 181
3 1821 96
3 1822 63
3 1823 23
3 1824 10
3 1825 16
3 1826 11
3 1827 78
3 1828 18
3 1829 21
3 1830 37
3 1831 13
3 1832 45
3 1833 30
3 1834 11
3 1835 674
3 1836 10
3 1837 137
3 1838 14
3 1839 49
3 1840 59
3 1841 11
3 1842 7
3 1843 14
3 1844 15
3 1845 16
3 1846 18
3 1847 15
3 1848 10
3 1849 25
3 1850 35
3 1851 14
3 1852 12
3 1853 55
3 1854 23
3 1855 12
3 1856 9
3 1857 4
3 1858 15
3 1859 33
3 1860 43
3 1861 18
3 1862 16
3 1863 21
3 1864 15
3 1865 37
3 1866 16
3 1867 1083
3 1868 123
3 1869 11
3 1870 59
3 1871 65
3 1872 33
3 1873 14
3 1874 10
3 1875 15
3 1876 73
3 1877 95
3 1878 10
3 1879 16
3 1880 43
3 1881 14
3 1882 10
3 1883 16
3 1884 8
3 1885 71
3 1886 22
3 1887 14
3 1888 92
3 1889 39
3 1890 279
3 1891 15
3 1892 13
3 1893 18
3 1894 8
3 1895 70
3 1896 86
3 1897 15
3 1898 20
3 1899 14
3 1900 4
3 1901 11
3 1902 16
3 1903 101
3 1904 122
3 1905 14
3 1906 13
3 1907 10
3 1908 967
3 1909 12
3 1910 8
3 1911 11
3 1912 110
3 1913 20
3 1914 36
3 1915 6
3 1916 8
3 1917 8
3 1918 8
3 1919 12
3 1920 966
3 1921 11
3 1922 9
3 1923 74
3 1924 113
3 1925 11
3 1926 12
3 1927 4
3 1928 17
3 1929 8
3 1930 19
3 1931 17
3 1932 87
3 1933 19
3 1934 9
3 1935 107
3 1936 1054
3 1937 60
3 1938 13
3 1939 22
3 1940 16
3 1941 10
3 1942 10
3 1943 14
3 1944 9
3 1945 55
3 1946 12
3 1947 11
3 1948 42
3 1949 40
3 1950 22
3 1951 22
3 1952 5
3 1953 17
3 1954 8
3 1955 21
3 1956 54
3 1957 13
3 1958 20
3 1959 13
3 1960 34
3 1961 14
3 1962 20
3 1963 9
3 1964 10
3 1965 8
3 1966 40
3 1967 6
3 1968 9
3 1969 10
3 1970 10
3 1971 122
3 1972 22
3 1973 17
3 1974 16
3 1975 8
3 1976 17
3 1977 8
3 1978 18
3 1979 25
3 1980 76
3 1981 18
3 1982 11
3 1983 39
3 1984 80
3 1985 53
3 1986 121
3 1987 8
3 1988 49
3 1989 15
3 1990 7
3 1991 20
3 1992 21
3 1993 10
3 1994 81
3 1995 5
3 1996 45
3 1997 42
3 1998 16
3 1999 9
3 2000 86
3 2001 22
3 2002 13
3 2003 18
3 2004 15
3 2005 13
3 2006 8
3 2007 34
3 2008 13
3 2009 4
3 2010 19
3 2011 37
3 2012 16
3 2013 39
3 2014 10
3 2015 7
3 2016 13
3 2017 12
3 2018 240
3 2019 8
3 2020 86
3 2021 12
3 2022 15
3 2023 17
3 2024 10
3 2025 55
3 2026 14
3 2027 16
3 2028 31
3 2029 17
3 2030 52
3 2031 11
3 2032 10
3 2033 3
3 2034 31
3 2035 19
3 2036 23
3 2037 14
3 2038 14
3 2039 18
3 2040 8
3 2041 10
3 2042 14
3 2043 14
3 2044 12
3 2045 90
3 2046 68
3 2047 18
3 2048 43
3 2049 11
3 2050 11
3 2051 12
3 2052 12
3 2053 24
3 2054 32
3 2055 16
3 2056 5
3 2057 212
3 2058 20
3 2059 14
3 2060 8
3 2061 26
3 2062 85
3 2063 89
3 2064 13
3 2065 58
3 2066 84
3 2067 7
3 2068 41
3 2069 9
3 2070 90
3 2071 72
3 2072 7
3 2073 16
3 2074 39
3 2075 17
3 2076 42
3 2077 22
3 2078 15
3 2079 9
3 2080 7
3 2081 17
3 2082 32
3 2083 7
3 2084 15
3 2085 10
3 2086 15
3 2087 15
3 2088 7
3 2089 18
3 2090 21
3 2091 32
3 2092 16
3 2093 31
3 2094 60
3 2095 19
3 2096 39
3 2097 17
3 2098 14
3 2099 17
3 2100 34
3 2101 29
3 2102 44
3 2103 9
3 2104 10
3 2105 92
3 2106 93
3 2107 14
3 2108 17
3 2109 69
3 2110 40
3 2111 16
3 2112 19
3 2113 146
3 2114 13
3 2115 21
3 2116 6
3 2117 32
3 2118 40
3 2119 49
3 2120 49
3 2121 17
3 2122 10
3 2123 24
3 2124 16
3 2125 7
3 2126 53
3 2127 12
3 2128 8
3 2129 18
3 2130 2
3 2131 20
3 2132 23
3 2133 21
3 2134 10
3 2135 89
3 2136 113
3 2137 21
3 2138 57
3 2139 13
3 2140 8
3 2141 19
3 2142 12
3 2143 24
3 2144 11
3 2145 13
3 2146 62
3 2147 9
3 2148 12
3 2149 15
3 2150 8
3 2151 60
3 2152 85
3 2153 102
3 2154 12
3 2155 9
3 2156 71
3 2157 22
3 2158 33
3 2159 4
3 2160 11
3 2161 74
3 2162 13
3 2163 85
3 2164 45
3 2165 82
3 2166 9
3 2167 5
3 2168 18
3 2169 11
3 2170 111
3 2171 31
3 2172 40
3 2173 67
3 2174 67
3 2175 79
3 2176 6
3 2177 10
3 2178 27
3 2179 87
3 2180 124
3 2181 60
3 2182 15
3 2183 17
3 2184 54
3 2185 5
3 2186 207
3 2187 44
3 2188 23
3 2189 11
3 2190 10
3 2191 63
3 2192 33
3 2193 17
3 2194 13
3 2195 15
3 2196 17
3 2197 39
3 2198 3
3 2199 40
3 2200 8
3 2201 17
3 2202 111
3 2203 11
3 2204 6
3 2205 17
3 2206 14
3 2207 6
3 2208 10
3 2209 13
3 2210 12
3 2211 12
3 2212 21
3 2213 31
3 2214 7
3 2215 65
3 2216 34
3 2217 12
3 2218 60
3 2219 130
3 2220 16
3 2221 77
3 2222 15
3 2223 408
3 2224 150
3 2225 55
3 2226 20
3 2227 22
3 2228 15
3 2229 12
3 2230 4
3 2231 56
3 2232 45
3 2233 48
3 2234 9
3 2235 32
3 2236 42
3 2237 9
3 2238 54
3 2239 10
3 2240 22
3 2241 18
3 2242 13
3 2243 9
3 2244 12
3 2245 10
3 2246 18
3 2247 13
3 2248 22
3 2249 12
3 2250 20
3 2251 5
3 2252 1
3 2253 20
3 2254 4
3 2255 11
3 2256 13
3 2257 32
3 2258 27
3 2259 27
3 2260 5
3 2261 2
3 2262 19
3 2263 16
3 2264 4
3 2265 10
3 2266 203
3 2267 54
3 2268 3
3 2269 3
3 2270 94
3 2271 89
3 2272 87
3 2273 41
3 2274 14
3 2275 21
3 2276 16
3 2277 59
3 2278 11
3 2279 20
3 2280 18
3 2281 105
3 2282 62
3 2283 94
3 2284 13
3 2285 12
3 2286 24
3 2287 81
3 2288 87
3 2289 13
3 2290 15
3 2291 36
3 2292 8
3 2293 12
3 2294 37
3 2295 13
3 2296 16
3 2297 7
3 2298 57
3 2299 16
3 2300 10
3 2301 23
3 2302 147
3 2303 7
3 2304 12
3 2305 12
3 2306 40
3 2307 3
3 2308 118
3 2309 15
3 2310 13
3 2311 10
3 2312 36
3 2313 15
3 2314 14
3 2315 24
3 2316 5
3 2317 16
3 2318 5
3 2319 39
3 2320 6
3 2321 15
3 2322 13
3 2323 17
3 2324 96
3 2325 33
3 2326 7
3 2327 105
3 2328 46
3 2329 7
3 2330 36
3 2331 17
3 2332 19
3 2333 12
3 2334 10
3 2335 9
3 2336 24
3 2337 7
3 2338 29
3 2339 72
3 2340 3
3 2341 16
3 2342 5
3 2343 17
3 2344 17
3 2345 95
3 2346 11
3 2347 7
3 2348 14
3 2349 10
3 2350 98
3 2351 17
3 2352 15
3 2353 19
3 2354 27
3 2355 10
3 2356 44
3 2357 80
3 2358 12
3 2359 24
3 2360 10
3 2361 13
3 2362 12
3 2363 14
3 2364 13
3 2365 11
3 2366 10
3 2367 9
3 2368 16
3 2369 6
3 2370 14
3 2371 12
3 2372 26
3 2373 16
3 2374 9
3 2375 16
3 2376 16
3 2377 163
3 2378 46
3 2379 12
3 2380 17
3 2381 12
3 2382 13
3 2383 15
3 2384 9
3 2385 15
3 2386 22
3 2387 11
3 2388 66
3 2389 13
3 2390 4
3 2391 18
3 2392 13
3 2393 63
3 2394 49
3 2395 17
3 2396 48
3 2397 24
3 2399 8
3 2400 13
3 2401 9
3 2402 17
3 2403 71
3 2404 9
3 2405 19
3 2406 104
3 2407 26
3 2408 52
3 2409 6
3 2410 23
3 2411 69
3 2412 8
3 2413 12
3 2414 12
3 2415 15
3 2416 10
3 2417 9
3 2418 61
3 2419 20
3 2420 13
3 2421 10
3 2422 20
3 2423 23
3 2424 6
3 2425 7
3 2426 20
3 2427 18
3 2428 24
3 2429 15
3 2430 22
3 2431 15
3 2432 8
3 2433 13
3 2434 10
3 2435 11
3 2436 10
3 2437 8
3 2438 19
3 2439 267
3 2440 13
3 2441 14
3 2442 53
3 2443 1
3 2444 16
3 2445 14
3 2446 19
3 2447 16
3 2448 23
3 2449 234
3 2450 7
3 2451 60
3 2452 45
3 2453 97
3 2454 35
3 2455 34
3 2456 14
3 2457 12
3 2458 12
3 2459 5
3 2460 17
3 2461 30
3 2462 64
3 2463 13
3 2464 44
3 2465 14
3 2466 12
3 2467 110
3 2468 46
3 2469 79
3 2470 17
3 2471 9
3 2472 7
3 2473 38
3 2474 14
3 2475 15
3 2476 9
3 2477 8
3 2478 9
3 2479 46
3 2480 17
3 2481 15
3 2482 92
3 2483 16
3 2484 216
3 2485 91
3 2486 8
3 2487 77
3 2488 11
3 2489 17
3 2490 13
3 2491 36
3 2492 16
3 2493 62
3 2494 6
3 2495 1
3 2496 11
3 2497 16
3 2498 6
3 2499 7
3 2500 7
3 2501 18
3 2502 80
3 2503 7
3 2504 14
3 2505 19
3 2506 12
3 2507 13
3 2508 50
3 2509 15
3 2510 6
3 2511 8
3 2512 10
3 2513 11
3 2514 17
3 2515 12
3 2516 31
3 2517 14
3 2518 11
3 2519 98
3 2520 10
3 2521 8
3 2522 33
3 2523 33
3 2524 15
3 2525 12
3 2526 86
3 2527 6
3 2528 48
3 2529 43
3 2530 42
3 2531 93
3 2532 12
3 2533 11
3 2534 26
3 2535 6
3 2536 11
3 2537 9
3 2538 11
3 2539 13
3 2540 70
3 2541 23
3 2542 34
3 2543 16
3 2544 76
3 2545 19
3 2546 134
3 2547 27
3 2548 16
3 2549 16
3 2550 31
3 2551 9
3 2552 22
3 2553 19
3 2554 74
3 2555 11
3 2556 18
3 2557 23
3 2558 38
3 2559 11
3 2560 5
3 2561 19
3 2562 8
3 2563 8
3 2564 9
3 2565 29
3 2566 15
3 2567 365
3 2568 17
3 2569 8
3 2570 7
3 2571 14
3 2572 11
3 2573 9
3 2574 10
3 2575 83
3 2576 90
3 2577 13
3 2578 13
3 2579 97
3 2580 17
3 2581 7
3 2582 7
3 2583 10
3 2584 13
3 2585 112
3 2586 10
3 2587 12
3 2588 12
3 2589 12
3 2590 67
3 2591 16
3 2592 14
3 2593 37
3 2594 36
3 2595 16
3 2596 21
3 2597 47
3 2598 14
3 2599 15
3 2600 210
3 2601 10
3 2602 42
3 2603 53
3 2604 7
3 2605 34
3 2606 9
3 2607 18
3 2608 5
3 2609 21
3 2610 8
3 2611 19
3 2612 10
3 2613 70
3 2614 4
3 2615 76
3 2616 12
3 2617 16
3 2618 38
3 2619 15
3 2620 11
3 2621 8
3 2622 16
3 2623 7
3 2624 53
3 2625 54
3 2626 9
3 2627 72
3 2628 7
3 2629 13
3 2630 16
3 2631 7
3 2632 49
3 2633 66
3 2634 5
3 2635 38
3 2636 21
3 2637 15
3 2638 7
3 2639 44
3 2640 28
3 2641 63
3 2642 16
3 2643 97
3 2644 69
3 2645 10
3 2646 7
3 2647 94
3 2648 12
3 2649 15
3 2650 15
3 2651 22
3 2652 2
3 2653 16
3 2654 5
3 2655 13
3 2656 58
3 2657 13
3 2658 12
3 2659 7
3 2660 24
3 2661 8
3 2662 13
3 2663 14
3 2664 20
3 2665 12
3 2666 10
3 2667 31
3 2668 153
3 2669 27
3 2670 11
3 2671 9
3 2672 10
3 2673 27
3 2674 47
3 2675 43
3 2676 15
3 2677 27
3 2678 7
3 2679 17
3 2680 62
3 2681 29
3 2682 9
3 2683 11
3 2684 10
3 2685 102
3 2686 9
3 2687 7
3 2688 17
3 2689 12
3 2690 98
3 2691 10
3 2692 12
3 2693 21
3 2694 8
3 2695 20
3 2696 8
3 2697 30
3 2698 57
3 2699 10
3 2700 44
3 2701 104
3 2702 12
3 2703 55
3 2704 9
3 2705 18
3 2706 21
3 2707 22
3 2708 22
3 2709 98
3 2710 17
3 2711 24
3 2712 21
3 2713 14
3 2714 47
3 2715 20
3 2716 11
3 2717 46
3 2718 39
3 2719 15
3 2720 104
3 2721 95
3 2722 11
3 2723 44
3 2724 83
3 2725 9
3 2726 18
3 2727 14
3 2728 11
3 2729 23
3 2730 14
3 2731 33
3 2732 7
3 2733 18
3 2734 158
3 2735 7
3 2736 61
3 2737 18
3 2738 19
3 2739 12
3 2740 22
3 2741 23
3 2742 13
3 2743 77
3 2744 9
3 2745 10
3 2746 12
3 2747 14
3 2748 52
3 2749 17
3 2750 6
3 2751 25
3 2752 11
3 2753 18
3 2754 41
3 2755 30
3 2756 27
3 2757 114
3 2758 31
3 2759 14
3 2760 13
3 2761 25
3 2762 60
3 2763 29
3 2764 80
3 2765 7
3 2766 12
3 2767 73
3 2768 55
3 2769 6
3 2770 14
3 2771 115
3 2772 19
3 2773 36
3 2774 5
3 2775 13
3 2776 10
3 2777 13
3 2778 17
3 2779 15
3 2780 10
3 2781 10
3 2782 10
3 2783 7
3 2784 22
3 2785 9
3 2786 49
3 2787 17
3 2788 102
3 2789 22
3 2790 33
3 2791 10
3 2792 9
3 2793 10
3 2794 1024
3 2795 10
3 2796 20
3 2797 12
3 2798 21
3 2799 9
3 2800 106
3 2801 20
3 2802 11
3 2803 16
3 2804 22
3 2805 10
3 2806 10
3 2807 10
3 2808 12
3 2809 15
3 2810 16
3 2811 18
3 2812 31
3 2813 13
3 2814 17
3 2815 14
3 2816 16
3 2817 21
3 2818 22
3 2819 12
3 2820 95
3 2821 16
3 2822 15
3 2823 75
3 2824 34
3 2825 21
3 2826 9
3 2827 98
3 2828 35
3 2829 83
3 2830 11
3 2831 62
3 2832 15
3 2833 7
3 2834 14
3 2835 17
3 2836 29
3 2837 33
3 2838 83
3 2839 22
3 2840 12
3 2841 57
3 2842 21
3 2843 79
3 2844 16
3 2845 34
3 2846 19
3 2847 81
3 2848 19
3 2849 6
3 2850 18
3 2851 14
3 2852 48
3 2853 6
3 2854 18
3 2855 40
3 2856 16
3 2857 11
3 2858 21
3 2859 46
3 2860 11
3 2861 75
3 2862 20
3 2863 17
3 2864 65
3 2865 32
3 2866 8
3 2867 15
3 2868 9
3 2869 9
3 2870 12
3 2871 125
3 2872 28
3 2873 32
3 2874 18
3 2875 97
3 2876 33
3 2877 22
3 2878 89
3 2879 20
3 2880 11
3 2881 12
3 2882 13
3 2883 8
3 2884 6
3 2885 15
3 2886 42
3 2887 15
3 2888 127
3 2889 39
3 2890 94
3 2891 13
3 2892 11
3 2893 21
3 2894 7
3 2895 728
3 2896 82
3 2897 16
3 2898 48
3 2899 5
3 2900 33
3 2901 6
3 2902 21
3 2903 10
3 2904 7
3 2905 16
3 2906 53
3 2907 44
3 2908 53
3 2909 17
3 2910 58
3 2911 8
3 2912 53
3 2913 82
3 2914 21
3 2915 13
3 2916 9
3 2917 4
3 2918 10
3 2919 9
3 2920 6
3 2921 154
3 2922 92
3 2923 1
3 2924 13
3 2925 13
3 2926 32
3 2927 29
3 2928 15
3 2929 12
3 2930 9
3 2931 3
3 2932 83
3 2933 59
3 2934 37
3 2935 13
3 2936 50
3 2937 68
3 2938 57
3 2939 47
3 2940 13
3 2941 16
3 2942 10
3 2943 7
3 2944 10
3 2945 41
3 2946 57
3 2947 37
3 2948 12
3 2949 17
3 2950 100
3 2951 9
3 2952 99
3 2953 18
3 2954 90
3 2955 80
3 2956 15
3 2957 10
3 2958 24
3 2959 11
3 2960 13
3 2961 87
3 2962 73
3 2963 16
3 2964 22
3 2965 10
3 2966 6
3 2967 15
3 2968 6
3 2969 10
3 2970 14
3 2971 20
3 2972 6
3 2973 16
3 2974 327
3 2975 20
3 2976 8
3 2977 16
3 2978 18
3 2979 18
3 2980 11
3 2981 10
3 2982 93
3 2983 6
3 2984 88
3 2985 511
3 2986 14
3 2987 17
3 2988 94
3 2989 13
3 2990 79
3 2991 50
3 2992 18
3 2993 8
3 2994 441
3 2995 119
3 2996 73
3 2997 4
3 2998 8
3 2999 12
3 3000 50
3 3001 34
3 3002 7
3 3003 13
3 3004 17
3 3005 15
3 3006 13
3 3007 6
3 3008 103
3 3009 8
3 3010 15
3 3011 9
3 3012 8
3 3013 13
3 3014 6
3 3015 18
3 3016 11
3 3017 6
3 3018 12
3 3019 6
3 3020 15
3 3021 15
3 3022 47
3 3023 12
3 3024 11
3 3025 15
3 3026 64
3 3027 14
3 3028 28
3 3029 26
3 3030 158
3 3031 9
3 3032 25
3 3033 20
3 3034 292
3 3035 10
3 3036 9
3 3037 11
3 3038 989
3 3039 19
3 3040 7
3 3041 17
3 3042 21
3 3043 11
3 3044 14
3 3045 9
3 3046 12
3 3047 3
3 3048 13
3 3049 13
3 3050 21
3 3051 10
3 3052 18
3 3053 11
3 3054 35
3 3055 11
3 3056 18
3 3057 59
3 3058 26
3 3059 10
3 3060 62
3 3061 59
3 3062 13
3 3063 31
3 3064 4
3 3065 33
3 3066 14
3 3067 11
3 3068 8
3 3069 13
3 3070 14
3 3071 24
3 3072 38
3 3073 17
3 3074 10
3 3075 12
3 3076 89
3 3077 94
3 3078 83
3 3079 11
3 3080 399
3 3081 88
3 3082 8
3 3083 12
3 3084 17
3 3085 9
3 3086 8
3 3087 11
3 3088 9
3 3089 18
3 3090 18
3 3091 60
3 3092 52
3 3093 27
3 3094 13
3 3095 18
3 3096 76
3 3097 10
3 3098 33
3 3099 34
3 3100 14
3 3101 37
3 3102 26
3 3103 41
3 3104 22
3 3105 14
3 3106 102
3 3107 10
3 3108 10
3 3109 8
3 3110 25
3 3111 41
3 3112 8
3 3113 125
3 3114 13
3 3115 18
3 3116 16
3 3117 10
3 3118 68
3 3119 104
3 3120 20
3 3121 104
3 3122 30
3 3123 14
3 3124 106
3 3125 6
3 3126 14
3 3127 17
3 3128 8
3 3129 17
3 3130 15
3 3131 5
3 3132 9
3 3133 6
3 3134 15
3 3135 5
3 3136 17
3 3137 12
3 3138 8
3 3139 147
3 3140 80
3 3141 10
3 3142 20
3 3143 20
3 3144 12
3 3145 21
3 3146 35
3 3147 25
3 3148 8
3 3149 14
3 3150 17
3 3151 63
3 3152 28
3 3153 21
3 3154 21
3 3155 23
3 3156 49
3 3157 25
3 3158 11
3 3159 13
3 3160 14
3 3161 14
3 3162 13
3 3163 19
3 3164 9
3 3165 58
3 3166 12
3 3167 13
3 3168 73
3 3169 35
3 3170 12
3 3171 36
3 3172 16
3 3173 1051
3 3174 68
3 3175 13
3 3176 22
3 3177 77
3 3178 32
3 3179 32
3 3180 62
3 3181 123
3 3182 12
3 3183 1013
3 3184 20
3 3185 65
3 3186 16
3 3187 23
3 3188 23
3 3189 5
3 3190 15
3 3191 46
3 3192 71
3 3193 139
3 3194 13
3 3195 11
3 3196 8
3 3197 16
3 3198 13
3 3199 7
3 3200 108
3 3201 11
3 3202 12
3 3203 15
3 3204 23
3 3205 99
3 3206 17
3 3207 30
3 3208 13
3 3209 24
3 3210 41
3 3211 7
3 3212 15
3 3213 15
3 3214 53
3 3215 14
3 3216 21
3 3217 16
3 3218 42
3 3219 78
3 3220 12
3 3221 14
3 3222 12
3 3223 13
3 3224 8
3 3225 14
3 3226 7
3 3227 11
3 3228 10
3 3229 57
3 3230 31
3 3231 10
3 3232 11
3 3233 22
3 3234 12
3 3235 12
3 3236 59
3 3237 13
3 3238 57
3 3239 5
3 3240 13
3 3241 20
3 3242 14
3 3243 10
3 3244 55
3 3245 17
3 3246 12
3 3247 23
3 3248 12
3 3249 12
3 3250 3
3 3251 20
3 3252 21
3 3253 10
3 3254 10
3 3255 85
3 3256 14
3 3257 70
3 3258 81
3 3259 89
3 3260 25
3 3261 16
3 3262 5
3 3263 13
3 3264 21
3 3265 10
3 3266 21
3 3267 5
3 3268 7
3 3269 112
3 3270 22
3 3271 16
3 3272 75
3 3273 139
3 3274 39
3 3275 113
3 3276 33
3 3277 11
3 3278 5
3 3279 19
3 3280 19
3 3281 21
3 3282 11
3 3283 15
3 3284 25
3 3285 10
3 3286 36
3 3287 6
3 3288 10
3 3289 58
3 3290 24
3 3291 80
3 3292 31
3 3293 15
3 3294 108
3 3295 31
3 3296 9
3 3297 79
3 3298 7
3 3299 40
3 3300 14
3 3301 11
3 3302 10
3 3303 12
3 3304 106
3 3305 16
3 3306 29
3 3307 15
3 3308 12
3 3309 11
3 3310 13
3 3311 19
3 3312 16
3 3313 21
3 3314 28
3 3315 9
3 3316 10
3 3317 6
3 3318 63
3 3319 66
3 3320 42
3 3321 32
3 3322 9
3 3323 11
3 3324 7
3 3325 13
3 3326 180
3 3327 15
3 3328 27
3 3329 5
3 3330 9
3 3331 16
3 3332 45
3 3333 16
3 3334 34
3 3335 12
3 3336 17
3 3337 10
3 3338 9
3 3339 162
3 3340 14
3 3341 18
3 3342 10
3 3343 46
3 3344 14
3 3345 15
3 3346 23
3 3347 20
3 3348 6
3 3349 92
3 3350 18
3 3351 18
3 3352 7
3 3353 16
3 3354 16
3 3355 8
3 3356 5
3 3357 17
3 3358 8
3 3359 34
3 3360 129
3 3361 62
3 3362 23
3 3363 12
3 3364 8
3 3365 4
3 3366 67
3 3367 7
3 3368 77
3 3369 163
3 3370 12
3 3371 13
3 3372 12
3 3373 17
3 3374 154
3 3375 12
3 3376 8
3 3377 7
3 3378 87
3 3379 17
3 3380 27
3 3381 13
3 3382 70
3 3383 13
3 3384 67
3 3385 14
3 3386 19
3 3387 16
3 3388 53
3 3389 19
3 3390 38
3 3391 16
3 3392 17
3 3393 12
3 3394 23
3 3395 11
3 3396 13
3 3397 14
3 3398 58
3 3399 85
3 3400 205
3 3401 40
3 3402 15
3 3403 1080
3 3404 13
3 3405 10
3 3406 12
3 3407 1
3 3408 12
3 3409 10
3 3410 19
3 3411 72
3 3412 79
3 3413 14
3 3414 11
3 3415 20
3 3416 4
3 3417 4
3 3418 22
3 3419 9
3 3420 40
3 3421 14
3 3422 14
3 3423 7
3 3424 12
3 3425 30
3 3426 15
3 3427 10
3 3428 17
3 3429 654
3 3430 37
3 3431 9
3 3432 18
3 3433 16
3 3434 13
3 3435 17
3 3436 13
3 3437 12
3 3438 5
3 3439 6
3 3440 15
3 3441 83
3 3442 14
3 3443 11
3 3444 16
3 3445 18
3 3446 17
3 3447 9
3 3448 13
3 3449 33
3 3450 11
3 3451 9
3 3452 66
3 3453 33
3 3454 31
3 3455 12
3 3456 26
3 3457 8
3 3458 10
3 3459 19
3 3460 10
3 3461 5
3 3462 18
3 3463 12
3 3464 10
3 3465 8
3 3466 13
3 3467 23
3 3468 18
3 3469 44
3 3470 13
3 3471 54
3 3472 10
3 3473 60
3 3474 11
3 3475 20
3 3476 11
3 3477 11
3 3478 52
3 3479 79
3 3480 65
3 3481 64
3 3482 11
3 3483 14
3 3484 10
3 3485 2
3 3486 11
3 3487 9
3 3488 174
3 3489 11
3 3490 31
3 3491 42
3 3492 149
3 3493 16
3 3494 16
3 3495 9
3 3496 22
3 3497 9
3 3498 5
3 3499 18
3 3500 12
3 3501 17
3 3502 43
3 3503 7
3 3504 4
3 3505 17
3 3506 16
3 3507 28
3 3508 13
3 3509 115
3 3510 84
3 3511 107
3 3512 3
3 3513 30
3 3514 29
3 3515 68
3 3516 27
3 3517 26
3 3518 5
3 3519 11
3 3520 48
3 3522 36
3 3523 23
3 3524 21
3 3525 11
3 3526 10
3 3527 44
3 3528 38
3 3529 39
3 3530 8
3 3531 37
3 3532 57
3 3533 23
3 3534 15
3 3535 13
3 3536 19
3 3537 23
3 3538 25
3 3539 14
3 3540 172
3 3541 146
3 3542 11
3 3543 16
3 3544 8
3 3545 19
3 3546 50
3 3547 14
3 3548 5
3 3549 19
3 3550 14
3 3551 26
3 3552 17
3 3553 36
3 3554 16
3 3555 68
3 3556 11
3 3557 24
3 3558 6
3 3559 13
3 3560 22
3 3561 10
3 3562 21
3 3563 26
3 3564 94
3 3565 19
3 3566 102
3 3567 72
3 3568 22
3 3569 7
3 3570 64
3 3571 12
3 3572 45
3 3573 119
3 3574 1
3 3575 11
3 3576 11
3 3577 16
3 3578 12
3 3579 18
3 3580 80
3 3581 11
3 3582 61
3 3583 16
3 3584 19
3 3585 9
3 3586 130
3 3587 21
3 3588 16
3 3589 66
3 3590 49
3 3591 6
3 3592 17
3 3593 4
3 3594 15
3 3595 9
3 3596 120
3 3597 21
3 3598 129
3 3599 14
3 3600 74
3 3601 10
3 3602 15
3 3603 29
3 3604 13
3 3605 24
3 3606 83
3 3607 12
3 3608 11
3 3609 11
3 3610 16
3 3611 16
3 3612 15
3 3613 25
3 3614 75
3 3615 18
3 3616 5
3 3617 7
3 3618 55
3 3619 20
3 3620 13
3 3621 12
3 3622 34
3 3623 122
3 3624 11
3 3625 19
3 3626 24
3 3627 93
3 3628 34
3 3629 25
3 3630 67
3 3631 8
3 3632 9
3 3633 12
3 3634 21
3 3635 21
3 3636 8
3 3637 25
3 3638 13
3 3639 7
3 3640 5
3 3641 80
3 3642 48
3 3643 6
3 3644 11
3 3645 10
3 3646 10
3 3647 63
3 3648 16
3 3649 22
3 3650 8
3 3651 31
3 3652 8
3 3653 8
3 3654 12
3 3655 12
3 3656 9
3 3657 12
3 3658 32
3 3659 14
3 3660 57
3 3661 85
3 3662 11
3 3663 14
3 3664 10
3 3665 10
3 3666 38
3 3667 21
3 3668 11
3 3669 10
3 3670 136
3 3671 16
3 3672 15
3 3673 24
3 3674 40
3 3675 71
3 3676 8
3 3677 26
3 3678 9
3 3679 12
3 3680 16
3 3681 7
3 3682 8
3 3683 85
3 3684 45
3 3685 64
3 3686 82
3 3687 116
3 3688 7
3 3689 52
3 3690 63
3 3691 47
3 3692 15
3 3693 27
3 3694 19
3 3695 11
3 3696 17
3 3697 58
3 3698 9
3 3699 37
3 3700 65
3 3701 72
3 3702 18
3 3703 21
3 3704 11
3 3705 39
3 3706 51
3 3707 76
3 3708 44
3 3709 42
3 3710 135
3 3711 14
3 3712 48
3 3713 10
3 3714 7
3 3715 10
3 3716 36
3 3717 18
3 3718 843
3 3719 16
3 3720 15
3 3721 22
3 3722 23
3 3723 13
3 3724 23
3 3725 19
3 3726 37
3 3727 12
3 3728 20
3 3729 95
3 3730 13
3 3731 25
3 3732 3
3 3733 29
3 3734 70
3 3735 45
3 3736 7
3 3737 7
3 3738 10
3 3739 63
3 3740 28
3 3741 12
3 3742 6
3 3743 19
3 3744 17
3 3745 48
3 3746 15
3 3747 6
3 3748 12
3 3749 44
3 3750 10
3 3751 14
3 3752 16
3 3753 9
3 3754 11
3 3755 60
3 3756 6
3 3757 5
3 3758 60
3 3759 14
3 3760 7
3 3761 11
3 3762 5
3 3763 60
3 3764 42
3 3765 98
3 3766 17
3 3767 15
3 3768 14
3 3769 74
3 3770 16
3 3771 7
3 3772 7
3 3773 18
3 3774 9
3 3775 11
3 3776 4
3 3777 11
3 3778 6
3 3779 44
3 3780 17
3 3781 27
3 3782 9
3 3783 45
3 3784 9
3 3785 5
3 3786 8
3 3787 11
3 3788 19
3 3789 38
3 3790 8
3 3791 11
3 3792 12
3 3793 12
3 3794 14
3 3795 17
3 3796 18
3 3797 64
3 3798 67
3 3799 11
3 3800 6
3 3801 11
3 3802 14
3 3803 13
3 3804 9
3 3805 93
3 3806 13
3 3807 6
3 3808 17
3 3809 31
3 3810 107
3 3811 9
3 3812 80
3 3813 10
3 3814 69
3 3815 8
3 3816 11
3 3817 77
3 3818 46
3 3819 11
3 3820 4
3 3821 8
3 3822 8
3 3823 11
3 3824 103
3 3825 11
3 3826 8
3 3827 21
3 3828 11
3 3829 190
3 3830 30
3 3831 20
3 3832 14
3 3833 10
3 3834 9
3 3835 74
3 3836 16
3 3837 4
3 3838 6
3 3839 5
3 3840 33
3 3841 2
3 3842 69
3 3843 10
3 3844 11
3 3845 4
3 3846 16
3 3847 731
3 3848 28
3 3849 12
3 3850 12
3 3851 14
3 3852 7
3 3853 17
3 3854 17
3 3855 13
3 3856 70
3 3857 19
3 3858 30
3 3859 9
3 3860 10
3 3861 15
3 3862 3
3 3863 14
3 3864 9
3 3865 51
3 3866 13
3 3867 5
3 3868 59
3 3869 4
3 3870 9
3 3871 50
3 3872 6
3 3873 48
3 3874 12
3 3875 17
3 3876 13
3 3877 24
3 3878 992
3 3879 10
3 3880 15
3 3881 8
3 3882 83
3 3883 17
3 3884 28
3 3885 13
3 3886 11
3 3887 10
3 3888 15
3 3889 10
3 3890 18
3 3891 9
3 3892 18
3 3893 44
3 3894 15
3 3895 45
3 3896 9
3 3897 10
3 3898 10
3 3899 9
3 3900 12
3 3901 17
3 3902 66
3 3903 13
3 3904 18
3 3905 6
3 3906 14
3 3907 14
3 3908 14
3 3909 16
3 3910 49
3 3911 9
3 3912 10
3 3913 10
3 3914 13
3 3915 30
3 3916 49
3 3917 13
3 3918 8
3 3919 39
3 3920 8
3 3921 5
3 3922 5
3 3923 7
3 3924 30
3 3925 12
3 3926 974
3 3927 8
3 3928 20
3 3929 5
3 3930 13
3 3931 13
3 3932 10
3 3933 6
3 3934 16
3 3935 11
3 3936 17
3 3937 80
3 3938 18
3 3939 15
3 3940 67
3 3941 16
3 3942 7
3 3943 20
3 3944 180
3 3945 14
3 3946 16
3 3947 32
3 3948 12
3 3949 17
3 3950 21
3 3951 5
3 3952 121
3 3953 42
3 3954 22
3 3955 611
3 3956 18
3 3957 78
3 3958 14
3 3959 5
3 3960 90
3 3961 13
3 3962 19
3 3963 23
3 3964 71
3 3965 6
3 3966 27
3 3967 45
3 3968 14
3 3969 15
3 3970 20
3 3971 8
3 3972 7
3 3973 76
3 3974 736
3 3975 22
3 3976 18
3 3977 15
3 3978 52
3 3979 6
3 3980 15
3 3981 8
3 3982 12
3 3983 70
3 3984 14
3 3985 49
3 3986 12
3 3987 12
3 3988 9
3 3989 17
3 3990 75
3 3991 17
3 3992 45
3 3993 8
3 3994 55
3 3995 13
3 3996 11
3 3997 15
3 3998 13
3 3999 70
3 4000 8
3 4001 34
3 4002 81
3 4003 8
3 4004 39
3 4005 64
3 4006 14
3 4007 16
3 4008 14
3 4009 21
3 4010 10
3 4011 10
3 4012 13
3 4013 8
3 4014 11
3 4015 51
3 4016 22
3 4017 19
3 4018 8
3 4019 9
3 4020 19
3 4021 12
3 4022 13
3 4023 63
3 4024 11
3 4025 74
3 4026 13
3 4027 15
3 4028 10
3 4029 13
3 4030 4
3 4031 9
3 4032 22
3 4033 20
3 4034 14
3 4035 47
3 4036 13
3 4037 16
3 4038 55
3 4039 16
3 4040 12
3 4041 8
3 4042 8
3 4043 10
3 4044 16
3 4045 64
3 4046 5
3 4047 19
3 4048 21
3 4049 19
3 4050 17
3 4051 9
3 4052 156
3 4053 46
3 4054 17
3 4055 34
3 4056 26
3 4057 17
3 4058 10
3 4059 14
3 4060 89
3 4061 60
3 4062 137
3 4063 8
3 4064 5
3 4065 10
3 4066 51
3 4067 4
3 4068 20
3 4069 6
3 4070 16
3 4071 10
3 4072 10
3 4073 69
3 4074 19
3 4075 9
3 4076 26
3 4077 112
3 4078 15
3 4079 102
3 4080 74
3 4081 13
3 4082 7
3 4083 14
3 4084 91
3 4085 12
3 4086 29
3 4087 8
3 4088 25
3 4089 58
3 4090 17
3 4091 22
3 4092 18
3 4093 13
3 4094 37
3 4095 22
3 4096 7
3 4097 60
3 4098 27
3 4099 80
3 4100 10
3 4101 73
3 4102 16
3 4103 11
3 4104 11
3 4105 9
3 4106 15
3 4107 15
3 4108 14
3 4109 12
3 4110 38
3 4111 13
3 4112 67
3 4113 10
3 4114 20
3 4115 17
3 4116 23
3 4117 13
3 4118 8
3 4119 9
3 4120 30
3 4121 9
3 4122 24
3 4123 17
3 4124 57
3 4125 8
3 4126 72
3 4127 18
3 4128 18
3 4129 12
3 4130 18
3 4131 12
3 4132 21
3 4133 72
3 4134 11
3 4135 22
3 4136 43
3 4137 187
3 4138 21
3 4139 86
3 4140 4
3 4141 16
3 4142 18
3 4143 26
3 4144 11
3 4145 64
3 4146 11
3 4147 7
3 4148 56
3 4149 3
3 4150 15
3 4151 20
3 4152 104
3 4153 9
3 4154 17
3 4155 16
3 4156 7
3 4157 47
3 4158 11
3 4159 88
3 4160 10
3 4161 17
3 4162 119
3 4163 23
3 4164 10
3 4165 52
3 4166 531
3 4167 18
3 4168 15
3 4169 47
3 4170 9
3 4171 34
3 4172 9
3 4173 25
3 4174 73
3 4175 15
3 4176 15
3 4177 19
3 4178 9
3 4179 20
3 4180 60
3 4181 21
3 4182 21
3 4183 43
3 4184 5
3 4185 10
3 4186 21
3 4187 8
3 4188 13
3 4189 37
3 4190 8
3 4191 42
3 4192 8
3 4193 13
3 4194 6
3 4195 20
3 4196 8
3 4197 10
3 4198 14
3 4199 11
3 4200 6
3 4201 4
3 4202 30
3 4203 16
3 4204 12
3 4205 16
3 4206 5
3 4207 60
3 4208 13
3 4209 58
3 4210 11
3 4211 9
3 4212 40
3 4213 33
3 4214 154
3 4215 8
3 4216 8
3 4217 8
3 4218 40
3 4219 16
3 4220 10
3 4221 9
3 4222 8
3 4223 1114
3 4224 8
3 4225 46
3 4226 11
3 4227 42
3 4228 72
3 4229 12
3 4230 76
3 4231 30
3 4232 13
3 4233 14
3 4234 21
3 4235 4
3 4236 50
3 4237 104
3 4238 36
3 4239 48
3 4240 15
3 4241 59
3 4242 19
3 4243 17
3 4244 15
3 4245 27
3 4246 10
3 4247 16
3 4248 6
3 4249 49
3 4250 9
3 4251 19
3 4252 22
3 4253 2
3 4254 23
3 4255 17
3 4256 11
3 4257 5
3 4258 22
3 4259 28
3 4260 7
3 4261 86
3 4262 29
3 4263 11
3 4264 4
3 4265 22
3 4266 20
3 4267 12
3 4268 7
3 4269 108
3 4270 10
3 4271 14
3 4272 8
3 4273 3
3 4274 13
3 4275 15
3 4276 15
3 4277 56
3 4278 18
3 4279 59
3 4280 56
3 4281 17
3 4282 13
3 4283 97
3 4284 7
3 4285 26
3 4286 17
3 4287 18
3 4288 3
3 4289 21
3 4290 19
3 4291 18
3 4292 13
3 4293 11
3 4294 13
3 4295 15
3 4296 53
3 4297 17
3 4298 50
3 4299 15
3 4300 66
3 4301 11
3 4302 112
3 4303 14
3 4304 372
3 4305 146
3 4306 17
3 4307 104
3 4308 16
3 4309 48
3 4310 109
3 4311 59
3 4312 20
3 4313 91
3 4314 30
3 4315 8
3 4316 157
3 4317 27
3 4318 50
3 4319 17
3 4320 17
3 4321 125
3 4322 17
3 4323 87
3 4324 15
3 4325 13
3 4326 135
3 4327 22
3 4328 22
3 4329 11
3 4330 4
3 4331 44
3 4332 65
3 4333 36
3 4334 23
3 4335 13
3 4336 42
3 4337 35
3 4338 27
3 4339 17
3 4340 18
3 4341 15
3 4342 11
3 4343 13
3 4344 23
3 4345 44
3 4346 12
3 4347 6
3 4348 109
3 4349 18
3 4350 61
3 4351 13
3 4352 75
3 4353 12
3 4354 14
3 4355 8
3 4356 22
3 4357 43
3 4358 11
3 4359 10
3 4360 46
3 4361 21
3 4362 8
3 4363 10
3 4364 12
3 4365 9
3 4366 36
3 4367 21
3 4368 27
3 4369 27
3 4370 14
3 4371 127
3 4372 38
3 4373 9
3 4374 14
3 4375 18
3 4376 65
3 4377 20
3 4378 17
3 4379 19
3 4380 13
3 4381 9
3 4382 66
3 4383 39
3 4384 34
3 4385 13
3 4386 8
3 4387 125
3 4388 14
3 4389 12
3 4390 7
3 4391 11
3 4392 15
3 4393 5
3 4394 9
3 4395 78
3 4396 5
3 4397 81
3 4398 18
3 4399 12
3 4400 75
3 4401 8
3 4402 11
3 4403 17
3 4404 32
3 4405 19
3 4406 22
3 4407 47
3 4408 124
3 4409 24
3 4410 20
3 4411 38
3 4412 15
3 4413 106
3 4414 18
3 4415 20
3 4416 65
3 4417 27
3 4418 14
3 4419 33
3 4420 8
3 4421 9
3 4422 15
3 4423 26
3 4424 23
3 4425 13
3 4426 12
3 4427 76
3 4428 20
3 4429 12
3 4430 195
3 4431 63
3 4432 16
3 4433 24
3 4434 16
3 4435 48
3 4436 31
3 4437 47
3 4438 11
3 4439 60
3 4440 25
3 4441 74
3 4442 20
3 4443 11
3 4444 3
3 4445 24
3 4446 3
3 4447 26
3 4448 4
3 4449 45
3 4450 9
3 4451 15
3 4452 61
3 4453 73
3 4454 36
3 4455 10
3 4456 12
3 4457 14
3 4458 15
3 4459 15
3 4460 11
3 4461 9
3 4462 8
3 4463 567
3 4464 14
3 4465 14
3 4466 60
3 4467 11
3 4468 13
3 4469 9
3 4470 79
3 4471 12
3 4472 59
3 4473 13
3 4474 25
3 4475 10
3 4476 14
3 4477 62
3 4478 21
3 4479 85
3 4480 27
3 4481 32
3 4482 15
3 4483 26
3 4484 104
3 4485 28
3 4486 10
3 4487 9
3 4488 21
3 4489 10
3 4490 5
3 4491 11
3 4492 9
3 4493 36
3 4494 14
3 4495 12
3 4496 19
3 4497 97
3 4498 16
3 4499 10
3 4500 21
3 4501 71
3 4502 20
3 4503 18
3 4504 31
3 4505 81
3 4506 64
3 4507 53
3 4508 6
3 4509 20
3 4510 32
3 4511 16
3 4512 51
3 4513 44
3 4514 5
3 4515 31
3 4516 11
3 4517 80
3 4518 6
3 4519 15
3 4520 80
3 4521 8
3 4522 10
3 4523 17
3 4524 15
3 4525 19
3 4526 57
3 4527 107
3 4528 21
3 4529 19
3 4530 9
3 4531 19
3 4532 99
3 4533 7
3 4534 57
3 4535 18
3 4536 11
3 4537 10
3 4538 25
3 4539 148
3 4540 8
3 4541 13
3 4542 14
3 4543 12
3 4544 6
3 4545 16
3 4546 5
3 4547 12
3 4548 9
3 4549 20
3 4550 5
3 4551 13
3 4552 30
3 4553 9
3 4554 55
3 4555 15
3 4556 23
3 4557 39
3 4558 26
3 4559 2
3 4560 5
3 4561 13
3 4562 14
3 4563 16
3 4564 9
3 4565 10
3 4566 22
3 4567 19
3 4568 26
3 4569 58
3 4570 14
3 4571 19
3 4572 13
3 4573 11
3 4574 1022
3 4575 35
3 4576 6
3 4577 6
3 4578 11
3 4579 50
3 4580 13
3 4581 14
3 4582 21
3 4583 29
3 4584 36
3 4585 5
3 4586 21
3 4587 12
3 4588 23
3 4589 11
3 4590 28
3 4591 64
3 4592 65
3 4593 15
3 4594 17
3 4595 15
3 4596 19
3 4597 305
3 4598 8
3 4599 17
3 4600 15
3 4601 11
3 4602 7
3 4603 109
3 4604 55
3 4605 121
3 4606 36
3 4607 17
3 4608 7
3 4609 21
3 4610 16
3 4611 64
3 4612 10
3 4613 10
3 4614 121
3 4615 11
3 4616 23
3 4617 15
3 4618 242
3 4619 39
3 4620 14
3 4621 180
3 4622 16
3 4623 4
3 4624 18
3 4625 27
3 4626 15
3 4627 31
3 4628 15
3 4629 15
3 4630 137
3 4631 9
3 4632 29
3 4633 8
3 4634 6
3 4635 10
3 4636 57
3 4637 18
3 4638 76
3 4639 10
3 4640 5
3 4641 16
3 4642 18
3 4643 75
3 4644 60
3 4645 15
3 4646 10
3 4647 12
3 4648 43
3 4649 24
3 4650 10
3 4651 88
3 4652 24
3 4653 9
3 4654 45
3 4655 88
3 4656 13
3 4657 22
3 4658 12
3 4659 37
3 4660 8
3 4661 12
3 4662 16
3 4663 16
3 4664 12
3 4665 12
3 4666 9
3 4667 109
3 4668 16
3 4669 7
3 4670 579
3 4671 16
3 4672 10
3 4673 53
3 4674 27
3 4675 110
3 4676 11
3 4677 37
3 4678 59
3 4679 67
3 4680 8
3 4681 7
3 4682 13
3 4683 8
3 4684 7
3 4685 24
3 4686 45
3 4687 73
3 4688 10
3 4689 15
3 4690 61
3 4691 14
3 4692 40
3 4693 4
3 4694 15
3 4695 9
3 4696 50
3 4697 59
3 4698 24
3 4699 89
3 4700 11
3 4701 11
3 4702 10
3 4703 9
3 4704 10
3 4705 11
3 4706 19
3 4707 91
3 4708 61
3 4709 15
3 4710 37
3 4711 28
3 4712 20
3 4713 20
3 4714 12
3 4715 6
3 4716 6
3 4717 178
3 4718 19
3 4719 11
3 4720 13
3 4721 53
3 4722 11
3 4723 16
3 4724 10
3 4725 56
3 4726 20
3 4727 14
3 4728 41
3 4729 11
3 4730 6
3 4731 17
3 4732 78
3 4733 38
3 4734 45
3 4735 15
3 4736 23
3 4737 13
3 4738 47
3 4739 25
3 4740 3
3 4741 7
3 4742 32
3 4743 77
3 4744 10
3 4745 23
3 4746 10
3 4747 11
3 4748 17
3 4749 160
3 4750 15
3 4751 29
3 4752 10
3 4753 29
3 4754 78
3 4755 20
3 4756 24
3 4757 19
3 4758 8
3 4759 11
3 4760 12
3 4761 11
3 4762 10
3 4763 44
3 4764 15
3 4765 192
3 4766 226
3 4767 6
3 4768 11
3 4769 23
3 4770 16
3 4771 11
3 4772 14
3 4773 8
3 4774 46
3 4775 7
3 4776 5
3 4777 2
3 4778 66
3 4779 10
3 4780 68
3 4781 67
3 4782 11
3 4783 19
3 4784 5
3 4785 14
3 4786 20
3 4787 16
3 4788 9
3 4789 149
3 4790 21
3 4791 8
3 4792 26
3 4793 5
3 4794 17
3 4795 14
3 4796 38
3 4797 7
3 4798 8
3 4799 41
3 4800 10
3 4801 9
3 4802 7
3 4803 13
3 4804 29
3 4805 24
3 4806 11
3 4807 70
3 4808 6
3 4809 62
3 4810 13
3 4811 45
3 4812 7
3 4813 7
3 4814 15
3 4815 7
3 4816 16
3 4817 12
3 4818 6
3 4819 10
3 4820 15
3 4821 9
3 4822 12
3 4823 13
3 4824 8
3 4825 5
3 4826 16
3 4827 13
3 4828 19
3 4829 76
3 4830 26
3 4831 19
3 4832 10
3 4833 15
3 4834 19
3 4835 14
3 4836 62
3 4837 237
3 4838 6
3 4839 18
3 4840 9
3 4841 27
3 4842 17
3 4843 10
3 4844 117
3 4845 10
3 4846 18
3 4847 13
3 4848 116
3 4849 24
3 4850 19
3 4851 14
3 4852 76
3 4853 288
3 4854 15
3 4855 12
3 4856 31
3 4857 90
3 4858 14
3 4859 21
3 4860 23
3 4861 6
3 4862 11
3 4863 112
3 4864 22
3 4865 48
3 4866 8
3 4867 29
3 4868 66
3 4869 6
3 4870 11
3 4871 23
3 4872 95
3 4873 9
3 4874 18
3 4875 13
3 4876 17
3 4877 17
3 4878 59
3 4879 46
3 4880 80
3 4881 44
3 4882 40
3 4883 47
3 4884 10
3 4885 11
3 4886 13
3 4887 86
3 4888 82
3 4889 12
3 4890 10
3 4891 20
3 4892 54
3 4893 6
3 4894 8
3 4895 24
3 4896 10
3 4897 9
3 4898 17
3 4899 6
3 4900 53
3 4901 18
3 4902 4
3 4903 39
3 4904 15
3 4905 12
3 4906 9
3 4907 10
3 4908 11
3 4909 17
3 4910 6
3 4911 13
3 4912 8
3 4913 3
3 4914 8
3 4915 12
3 4916 19
3 4917 95
3 4918 55
3 4919 16
3 4920 19
3 4921 9
3 4922 20
3 4923 13
3 4924 22
3 4925 15
3 4926 37
3 4927 47
3 4928 21
3 4929 36
3 4930 12
3 4931 87
3 4932 14
3 4933 22
3 4934 100
3 4935 9
3 4936 15
3 4937 58
3 4938 46
3 4939 10
3 4940 18
3 4941 24
3 4942 7
3 4943 20
3 4944 11
3 4945 18
3 4946 7
3 4947 17
3 4948 8
3 4949 26
3 4950 6
3 4951 59
3 4952 19
3 4953 12
3 4954 50
3 4955 4
3 4956 15
3 4957 66
3 4958 15
3 4959 24
3 4960 13
3 4961 13
3 4962 4
3 4963 259
3 4964 32
3 4965 12
3 4966 14
3 4967 12
3 4968 12
3 4969 155
3 4970 17
3 4971 40
3 4972 7
3 4973 24
3 4974 24
3 4975 161
3 4976 51
3 4977 13
3 4978 5
3 4979 43
3 4980 38
3 4981 87
3 4982 101
3 4983 7
3 4984 146
3 4985 152
3 4986 20
3 4987 15
3 4988 21
3 4989 25
3 4990 31
3 4991 60
3 4992 13
3 4993 8
3 4994 14
3 4995 103
3 4996 10
3 4997 21
3 4998 9
3 4999 8
3 5000 29
3 5001 10
3 5002 11
3 5003 20
3 5004 21
3 5005 9
3 5006 17
3 5007 28
3 5008 8
3 5009 10
3 5010 10
3 5011 14
3 5012 131
3 5013 6
3 5014 63
3 5015 13
3 5016 7
3 5017 8
3 5018 12
3 5019 22
3 5020 17
3 5021 16
3 5022 13
3 5023 15
3 5024 9
3 5025 7
3 5026 10
3 5027 27
3 5028 62
3 5029 13
3 5030 10
3 5031 17
3 5032 55
3 5033 14
3 5034 8
3 5035 7
3 5036 12
3 5037 19
3 5038 12
3 5039 70
3 5040 28
3 5041 29
3 5042 114
3 5043 13
3 5044 4
3 5045 14
3 5046 10
3 5047 12
3 5048 186
3 5049 22
3 5050 8
3 5051 7
3 5052 18
3 5053 17
3 5054 16
3 5055 6
3 5056 19
3 5057 12
3 5058 11
3 5059 17
3 5060 459
3 5061 18
3 5062 15
3 5063 58
3 5064 14
3 5065 16
3 5066 28
3 5067 7
3 5068 15
3 5069 14
3 5070 7
3 5071 14
3 5072 11
3 5073 59
3 5074 18
3 5075 24
3 5076 9
3 5077 20
3 5078 44
3 5079 1013
3 5080 15
3 5081 14
3 5082 18
3 5083 14
3 5084 34
3 5085 58
3 5086 15
3 5087 6
3 5088 22
3 5089 11
3 5090 46
3 5091 8
3 5092 21
3 5093 61
3 5094 8
3 5095 10
3 5096 31
3 5097 16
3 5098 36
3 5099 19
3 5100 13
3 5101 11
3 5102 16
3 5103 9
3 5104 13
3 5105 17
3 5106 15
3 5107 68
3 5108 12
3 5109 3
3 5110 5
3 5111 11
3 5112 110
3 5113 15
3 5114 10
3 5115 34
3 5116 10
3 5117 7
3 5118 75
3 5119 14
3 5120 8
3 5121 19
3 5122 26
3 5123 16
3 5124 19
3 5125 5
3 5126 14
3 5127 16
3 5128 21
3 5129 11
3 5130 21
3 5131 13
3 5132 20
3 5133 33
3 5134 73
3 5135 27
3 5136 16
3 5137 292
3 5138 27
3 5139 14
3 5140 26
3 5141 14
3 5142 18
3 5143 25
3 5144 10
3 5145 14
3 5146 15
3 5147 68
3 5148 13
3 5149 35
3 5150 15
3 5151 31
3 5152 12
3 5153 9
3 5154 13
3 5155 53
3 5156 10
3 5157 7
3 5158 3
3 5159 10
3 5160 10
3 5161 89
3 5162 9
3 5163 16
3 5164 129
3 5165 57
3 5166 25
3 5167 12
3 5168 16
3 5169 15
3 5170 12
3 5171 9
3 5172 8
3 5173 11
3 5174 16
3 5175 98
3 5176 14
3 5177 8
3 5178 14
3 5179 11
3 5180 56
3 5181 15
3 5182 16
3 5183 7
3 5184 14
3 5185 63
3 5186 3
3 5187 10
3 5188 4
3 5189 983
3 5190 10
3 5191 9
3 5192 40
3 5193 8
3 5194 40
3 5195 16
3 5196 17
3 5197 10
3 5198 7
3 5199 15
3 5200 3
3 5201 23
3 5202 11
3 5203 12
3 5204 11
3 5205 14
3 5206 94
3 5207 12
3 5208 17
3 5209 14
3 5210 5
3 5211 141
3 5212 14
3 5213 20
3 5214 63
3 5215 9
3 5216 19
3 5217 4
3 5218 16
3 5219 20
3 5220 13
3 5221 10
3 5222 14
3 5223 19
3 5224 15
3 5225 83
3 5226 10
3 5227 16
3 5228 18
3 5229 15
3 5230 126
3 5231 11
3 5232 11
3 5233 38
3 5234 18
3 5235 47
3 5236 1
3 5237 6
3 5238 57
3 5239 57
3 5240 98
3 5241 55
3 5242 272
3 5243 32
3 5244 10
3 5245 20
3 5246 48
3 5247 66
3 5248 14
3 5249 24
3 5250 10
3 5251 12
3 5252 15
3 5253 30
3 5254 8
3 5255 15
3 5256 25
3 5257 19
3 5258 35
3 5259 15
3 5260 26
3 5261 38
3 5262 72
3 5263 15
3 5264 71
3 5265 101
3 5266 13
3 5267 47
3 5268 42
3 5269 49
3 5270 250
3 5271 19
3 5272 85
3 5273 16
3 5274 10
3 5275 12
3 5276 10
3 5277 11
3 5278 19
3 5279 14
3 5280 54
3 5281 24
3 5282 12
3 5283 33
3 5284 8
3 5285 9
3 5286 8
3 5287 9
3 5288 14
3 5289 15
3 5290 6
3 5291 4
3 5292 47
3 5293 11
3 5294 11
3 5295 55
3 5296 71
3 5297 17
3 5298 7
3 5299 9
3 5300 7
3 5301 8
3 5302 8
3 5303 14
3 5304 12
3 5305 63
3 5306 13
3 5307 43
3 5308 8
3 5309 74
3 5310 12
3 5311 9
3 5312 14
3 5313 17
3 5314 43
3 5315 24
3 5316 57
3 5317 68
3 5318 7
3 5319 15
3 5320 8
3 5321 11
3 5322 49
3 5323 57
3 5324 14
3 5325 53
3 5326 20
3 5327 20
3 5328 23
3 5329 17
3 5330 380
3 5331 127
3 5332 9
3 5333 84
3 5334 100
3 5335 14
3 5336 170
3 5337 67
3 5338 18
3 5339 10
3 5340 12
3 5341 53
3 5342 76
3 5343 6
3 5344 22
3 5345 11
3 5346 26
3 5347 16
3 5348 34
3 5349 12
3 5350 90
3 5351 15
3 5352 8
3 5353 4
3 5354 7
3 5355 12
3 5356 56
3 5357 12
3 5358 16
3 5359 6
3 5360 13
3 5361 12
3 5362 16
3 5363 11
3 5364 88
3 5365 30
3 5366 15
3 5367 174
3 5368 12
3 5369 18
3 5370 10
3 5371 20
3 5372 13
3 5373 17
3 5374 32
3 5375 9
3 5376 8
3 5377 331
3 5378 35
3 5379 139
3 5380 39
3 5381 15
3 5382 78
3 5383 25
3 5384 19
3 5385 15
3 5386 17
3 5387 7
3 5388 69
3 5389 67
3 5390 29
3 5391 14
3 5392 11
3 5393 11
3 5394 16
3 5395 225
3 5396 12
3 5397 15
3 5398 14
3 5399 8
3 5400 116
3 5401 28
3 5402 13
3 5403 212
3 5404 13
3 5405 67
3 5406 283
3 5407 6
3 5408 26
3 5409 86
3 5410 5
3 5411 62
3 5412 44
3 5413 17
3 5414 43
3 5415 14
3 5416 6
3 5417 1142
3 5418 12
3 5419 10
3 5420 18
3 5421 9
3 5422 10
3 5423 20
3 5424 11
3 5425 8
3 5426 40
3 5427 14
3 5428 8
3 5429 96
3 5430 12
3 5431 90
3 5432 88
3 5433 10
3 5434 250
3 5435 152
3 5436 41
3 5437 63
3 5438 8
3 5439 16
3 5440 89
3 5441 10
3 5442 67
3 5443 11
3 5444 11
3 5445 5
3 5446 5
3 5447 12
3 5448 31
3 5449 10
3 5450 6
3 5451 26
3 5452 24
3 5453 43
3 5454 15
3 5455 15
3 5456 43
3 5457 11
3 5458 11
3 5459 12
3 5460 41
3 5461 16
3 5462 16
3 5463 9
3 5464 10
3 5465 11
3 5466 14
3 5467 15
3 5468 12
3 5469 6
3 5470 41
3 5471 25
3 5472 28
3 5473 19
3 5474 34
3 5475 8
3 5476 15
3 5477 14
3 5478 63
3 5479 19
3 5480 9
3 5481 7
3 5482 10
3 5483 18
3 5484 88
3 5485 24
3 5486 222
3 5487 10
3 5488 24
3 5489 39
3 5490 9
3 5491 102
3 5492 8
3 5493 88
3 5494 9
3 5495 16
3 5496 9
3 5497 15
3 5498 5
3 5499 24
3 5500 70
3 5501 12
3 5502 9
3 5503 7
3 5504 12
3 5505 14
3 5506 9
3 5507 12
3 5508 62
3 5509 18
3 5510 6
3 5511 20
3 5512 11
3 5513 7
3 5514 11
3 5515 10
3 5516 5
3 5517 11
3 5518 13
3 5519 14
3 5520 31
3 5521 8
3 5522 11
3 5523 9
3 5524 19
3 5525 6
3 5526 52
3 5527 12
3 5528 14
3 5529 96
3 5530 10
3 5531 30
3 5532 121
3 5533 8
3 5534 15
3 5535 13
3 5536 10
3 5537 96
3 5538 16
3 5539 25
3 5540 16
3 5541 46
3 5542 9
3 5543 5
3 5544 31
3 5545 18
3 5546 17
3 5547 20
3 5548 10
3 5549 42
3 5550 8
3 5551 47
3 5552 11
3 5553 18
3 5554 13
3 5555 12
3 5556 60
3 5557 17
3 5558 11
3 5559 13
3 5560 40
3 5561 37
3 5562 58
3 5563 10
3 5564 49
3 5565 13
3 5566 12
3 5567 631
3 5568 13
3 5569 12
3 5570 23
3 5571 13
3 5572 13
3 5573 9
3 5574 17
3 5575 4
3 5576 40
3 5577 41
3 5578 13
3 5579 15
3 5580 63
3 5581 15
3 5582 5
3 5583 73
3 5584 5
3 5585 48
3 5586 17
3 5587 75
3 5588 13
3 5589 30
3 5590 20
3 5591 7
3 5592 9
3 5593 28
3 5594 12
3 5595 10
3 5596 8
3 5597 18
3 5598 67
3 5599 7
3 5600 265
3 5601 21
3 5602 80
3 5603 56
3 5604 61
3 5605 32
3 5606 37
3 5607 13
3 5608 136
3 5609 14
3 5610 30
3 5611 57
3 5612 9
3 5613 6
3 5614 13
3 5615 19
3 5616 23
3 5617 14
3 5618 10
3 5619 11
3 5620 32
3 5621 46
3 5622 9
3 5623 12
3 5624 91
3 5625 953
3 5626 12
3 5627 40
3 5628 19
3 5629 29
3 5630 15
3 5631 8
3 5632 8
3 5633 74
3 5634 12
3 5635 6
3 5636 15
3 5637 12
3 5638 20
3 5639 67
3 5640 15
3 5641 51
3 5642 15
3 5643 11
3 5644 16
3 5645 5
3 5646 7
3 5647 13
3 5648 23
3 5649 157
3 5650 50
3 5651 38
3 5652 54
3 5653 8
3 5654 17
3 5655 45
3 5656 10
3 5657 70
3 5658 15
3 5659 26
3 5660 7
3 5661 23
3 5662 34
3 5663 73
3 5664 17
3 5665 56
3 5666 18
3 5667 12
3 5668 8
3 5669 8
3 5670 14
3 5671 19
3 5672 89
3 5673 6
3 5674 8
3 5675 4
3 5676 24
3 5677 15
3 5678 11
3 5679 14
3 5680 9
3 5681 18
3 5682 11
3 5683 51
3 5684 5
3 5685 8
3 5686 22
3 5687 75
3 5688 55
3 5689 2
3 5690 14
3 5691 11
3 5692 14
3 5693 14
3 5694 17
3 5695 8
3 5696 5
3 5697 11
3 5698 19
3 5699 13
3 5700 26
3 5701 10
3 5702 11
3 5703 14
3 5704 13
3 5705 15
3 5706 6
3 5707 15
3 5708 15
3 5710 68
3 5711 17
3 5712 57
3 5713 47
3 5714 39
3 5715 7
3 5716 23
3 5717 48
3 5718 11
3 5719 20
3 5720 65
3 5721 16
3 5722 86
3 5723 24
3 5724 11
3 5725 14
3 5726 14
3 5727 19
3 5728 12
3 5729 27
3 5730 17
3 5731 9
3 5732 8
3 5733 14
3 5734 42
3 5735 14
3 5736 18
3 5737 35
3 5738 16
3 5739 7
3 5740 8
3 5741 21
3 5742 8
3 5743 13
3 5744 11
3 5745 118
3 5746 12
3 5747 18
3 5748 14
3 5749 8
3 5750 17
3 5751 51
3 5752 53
3 5753 11
3 5754 2
3 5755 5
3 5756 16
3 5757 62
3 5758 12
3 5759 12
3 5760 17
3 5761 6
3 5762 8
3 5763 17
3 5764 61
3 5765 8
3 5766 10
3 5767 10
3 5768 58
3 5769 14
3 5770 28
3 5771 176
3 5772 8
3 5773 18
3 5774 63
3 5775 6
3 5776 109
3 5777 12
3 5778 14
3 5779 6
3 5780 77
3 5781 11
3 5782 13
3 5783 31
3 5784 67
3 5785 60
3 5786 11
3 5787 44
3 5788 25
3 5789 77
3 5790 55
3 5791 9
3 5792 12
3 5793 14
3 5794 417
3 5795 16
3 5796 73
3 5797 9
3 5798 7
3 5799 16
3 5800 19
3 5801 11
3 5802 55
3 5803 28
3 5804 13
3 5805 17
3 5806 3
3 5807 15
3 5808 5
3 5809 22
3 5810 4
3 5811 8
3 5812 9
3 5813 20
3 5814 10
3 5815 6
3 5816 11
3 5817 16
3 5818 11
3 5819 4
3 5820 16
3 5821 25
3 5822 36
3 5823 16
3 5824 14
3 5825 7
3 5826 32
3 5827 10
3 5828 14
3 5829 44
3 5830 5
3 5831 15
3 5832 63
3 5833 28
3 5834 12
3 5835 15
3 5836 15
3 5837 11
3 5838 18
3 5839 9
3 5840 16
3 5841 9
3 5842 17
3 5843 31
3 5844 6
3 5845 17
3 5846 7
3 5847 87
3 5848 12
3 5849 6
3 5850 14
3 5851 19
3 5852 17
3 5853 12
3 5854 15
3 5855 8
3 5856 9
3 5857 47
3 5858 12
3 5859 11
3 5860 5
3 5861 18
3 5862 15
3 5863 16
3 5864 76
3 5865 26
3 5866 12
3 5867 91
3 5868 9
3 5869 19
3 5870 5
3 5871 18
3 5872 166
3 5873 7
3 5874 16
3 5875 47
3 5876 11
3 5877 7
3 5878 21
3 5879 8
3 5880 28
3 5881 18
3 5882 21
3 5883 75
3 5884 87
3 5885 13
3 5886 14
3 5887 10
3 5888 16
3 5889 8
3 5890 141
3 5891 35
3 5892 11
3 5893 23
3 5894 14
3 5895 14
3 5896 15
3 5897 82
3 5898 13
3 5899 9
3 5900 8
3 5901 6
3 5902 46
3 5903 15
3 5904 19
3 5905 21
3 5906 14
3 5907 27
3 5908 83
3 5909 16
3 5910 14
3 5911 23
3 5912 9
3 5913 15
3 5914 7
3 5915 104
3 5916 14
3 5917 70
3 5918 26
3 5919 53
3 5920 8
3 5921 6
3 5922 47
3 5923 1056
3 5924 16
3 5925 16
3 5926 17
3 5927 58
3 5928 7
3 5929 10
3 5930 103
3 5931 13
3 5932 15
3 5933 9
3 5934 41
3 5935 36
3 5936 186
3 5937 71
3 5938 7
3 5939 13
3 5940 9
3 5941 14
3 5942 115
3 5943 45
3 5944 17
3 5945 25
3 5946 16
3 5947 36
3 5948 91
3 5949 123
3 5950 24
3 5951 25
3 5952 10
3 5953 30
3 5954 131
3 5955 11
3 5956 14
3 5957 23
3 5958 9
3 5959 62
3 5960 10
3 5961 19
3 5962 7
3 5963 34
3 5964 10
3 5965 763
3 5966 16
3 5967 1237
3 5968 115
3 5969 13
3 5970 43
3 5971 34
3 5972 31
3 5973 12
3 5974 27
3 5975 12
3 5976 9
3 5977 5
3 5978 107
3 5979 66
3 5980 12
3 5981 3
3 5982 4
3 5983 6
3 5984 14
3 5985 15
3 5986 13
3 5987 8
3 5988 11
3 5989 16
3 5990 23
3 5991 21
3 5992 11
3 5993 97
3 5994 21
3 5995 11
3 5996 6
3 5997 125
3 5998 7
3 5999 25
3 6000 18
3 6001 5
3 6002 44
3 6003 69
3 6004 9
3 6005 18
3 6006 16
3 6007 18
3 6008 45
3 6009 48
3 6010 16
3 6011 27
3 6012 11
3 6013 5
3 6014 8
3 6015 8
3 6016 12
3 6017 8
3 6018 18
3 6019 29
3 6020 6
3 6021 5
3 6022 43
3 6023 10
3 6024 33
3 6025 11
3 6026 72
3 6027 147
3 6028 8
3 6029 10
3 6030 59
3 6031 13
3 6032 13
3 6033 31
3 6034 20
3 6035 11
3 6036 19
3 6037 22
3 6038 13
3 6039 20
3 6040 4
3 6041 15
3 6042 43
3 6043 14
3 6044 16
3 6045 14
3 6046 12
3 6047 16
3 6048 231
3 6049 7
3 6050 8
3 6051 20
3 6052 24
3 6053 13
3 6054 5
3 6055 16
3 6056 25
3 6057 13
3 6058 14
3 6059 10
3 6060 10
3 6061 10
3 6062 19
3 6063 90
3 6064 14
3 6065 14
3 6066 102
3 6067 22
3 6068 6
3 6069 28
3 6070 7
3 6071 9
3 6072 7
3 6073 14
3 6074 12
3 6075 9
3 6076 13
3 6077 39
3 6078 8
3 6079 106
3 6080 32
3 6081 23
3 6082 22
3 6083 30
3 6084 7
3 6085 14
3 6086 44
3 6087 13
3 6088 17
3 6089 19
3 6090 70
3 6091 21
3 6092 9
3 6093 12
3 6094 13
3 6095 12
3 6096 40
3 6097 14
3 6098 7
3 6099 32
3 6100 27
3 6101 11
3 6102 16
3 6103 123
3 6104 21
3 6105 36
3 6106 46
3 6107 14
3 6108 7
3 6109 8
3 6110 64
3 6111 9
3 6112 11
3 6113 10
3 6114 10
3 6115 37
3 6116 8
3 6117 9
3 6118 12
3 6119 18
3 6120 12
3 6121 13
3 6122 24
3 6123 12
3 6124 76
3 6125 11
3 6126 5
3 6127 44
3 6128 11
3 6129 10
3 6130 9
3 6131 12
3 6132 6
3 6133 10
3 6134 6
3 6135 13
3 6136 8
3 6137 11
3 6138 10
3 6139 14
3 6140 79
3 6141 51
3 6142 7
3 6143 29
3 6144 12
3 6145 9
3 6146 14
3 6147 14
3 6148 83
3 6149 28
3 6150 15
3 6151 18
3 6152 2
3 6153 8
3 6154 1103
3 6155 31
3 6156 16
3 6157 66
3 6158 10
3 6159 14
3 6160 64
3 6161 4
3 6162 59
3 6163 53
3 6164 7
3 6165 18
3 6166 10
3 6167 12
3 6168 12
3 6169 74
3 6170 2
3 6171 6
3 6172 13
3 6173 9
3 6174 22
3 6175 10
3 6176 15
3 6177 15
3 6178 18
3 6179 48
3 6180 36
3 6181 7
3 6182 9
3 6183 15
3 6184 9
3 6185 16
3 6186 10
3 6187 10
3 6188 8
3 6189 19
3 6190 15
3 6191 12
3 6192 10
3 6193 13
3 6194 6
3 6195 66
3 6196 14
3 6197 43
3 6198 7
3 6199 10
3 6200 15
3 6201 10
3 6202 23
3 6203 9
3 6204 20
3 6205 23
3 6206 5
3 6207 12
3 6208 915
3 6209 50
3 6210 30
3 6211 17
3 6212 18
3 6213 88
3 6214 13
3 6215 41
3 6216 23
3 6217 13
3 6218 5
3 6219 12
3 6220 42
3 6221 7
3 6222 4
3 6223 7
3 6224 29
3 6225 26
3 6226 6
3 6227 70
3 6228 9
3 6229 141
3 6230 21
3 6231 21
3 6232 32
3 6233 71
3 6234 94
3 6235 15
3 6236 8
3 6237 80
3 6238 66
3 6239 22
3 6240 90
3 6241 8
3 6242 25
3 6243 87
3 6244 73
3 6245 7
3 6246 98
3 6247 12
3 6248 10
3 6249 9
3 6250 17
3 6251 17
3 6252 10
3 6253 81
3 6254 69
3 6255 15
3 6256 12
3 6257 11
3 6258 22
3 6259 21
3 6260 14
3 6261 45
3 6262 14
3 6263 26
3 6264 27
3 6265 13
3 6266 11
3 6267 2
3 6268 86
3 6269 31
3 6270 9
3 6271 93
3 6272 13
3 6273 81
3 6274 14
3 6275 9
3 6276 13
3 6277 20
3 6278 10
3 6279 140
3 6280 9
3 6281 10
3 6282 19
3 6283 7
3 6284 27
3 6285 101
3 6286 24
3 6287 26
3 6288 180
3 6289 10
3 6290 68
3 6291 40
3 6292 5
3 6293 8
3 6294 14
3 6295 14
3 6296 15
3 6297 11
3 6298 20
3 6299 69
3 6300 13
3 6301 8
3 6302 49
3 6303 12
3 6304 18
3 6305 10
3 6306 5
3 6307 30
3 6308 25
3 6309 175
3 6310 27
3 6311 10
3 6312 14
3 6313 66
3 6314 36
3 6315 537
3 6316 7
3 6317 77
3 6318 14
3 6319 12
3 6320 8
3 6321 18
3 6322 20
3 6323 52
3 6324 8
3 6325 13
3 6326 14
3 6327 7
3 6328 13
3 6329 17
3 6331 30
3 6332 7
3 6333 7
3 6334 10
3 6335 34
3 6336 10
3 6337 41
3 6338 12
3 6339 12
3 6340 13
3 6341 45
3 6342 42
3 6343 6
3 6344 16
3 6345 8
3 6346 6
3 6347 5
3 6348 5
3 6349 5
3 6350 9
3 6351 15
3 6352 34
3 6353 15
3 6354 9
3 6355 8
3 6356 16
3 6357 247
3 6358 26
3 6359 12
3 6360 51
3 6361 103
3 6362 11
3 6363 24
3 6364 10
3 6365 11
3 6366 12
3 6367 24
3 6368 7
3 6369 94
3 6370 5
3 6371 9
3 6372 8
3 6373 8
3 6374 56
3 6375 8
3 6376 14
3 6377 93
3 6378 13
3 6379 17
3 6380 4
3 6381 7
3 6382 10
3 6383 47
3 6384 45
3 6385 9
3 6386 13
3 6387 54
3 6388 35
3 6389 5
3 6390 6
3 6391 14
3 6392 8
3 6393 21
3 6394 21
3 6395 8
3 6396 17
3 6397 84
3 6398 2
3 6399 15
3 6400 23
3 6401 11
3 6402 17
3 6403 15
3 6404 10
3 6405 430
3 6406 94
3 6407 69
3 6408 11
3 6409 59
3 6410 31
3 6411 83
3 6412 14
3 6413 7
3 6414 30
3 6415 40
3 6416 9
3 6417 13
3 6418 14
3 6419 127
3 6420 110
3 6421 35
3 6422 103
3 6423 79
3 6424 7
3 6425 31
3 6426 10
3 6427 209
3 6428 70
3 6429 45
3 6430 344
3 6431 35
3 6432 17
3 6433 55
3 6434 8
3 6435 11
3 6436 12
3 6437 38
3 6438 12
3 6439 133
3 6440 51
3 6441 5
3 6442 73
3 6443 13
3 6444 1
3 6445 76
3 6446 32
3 6447 69
3 6448 476
3 6449 57
3 6450 6
3 6451 39
3 6452 54
3 6453 727
3 6454 4
3 6455 12
3 6456 5
3 6457 41
3 6458 12
3 6459 12
3 6460 71
3 6461 159
3 6462 27
3 6463 14
3 6464 7
3 6465 5
3 6466 136
3 6467 5
3 6468 9
3 6469 5
3 6470 11
3 6471 17
3 6472 26
3 6473 36
3 6474 14
3 6475 8
3 6476 9
3 6477 7
3 6478 53
3 6479 5
3 6480 8
3 6481 7
3 6482 7
3 6483 14
3 6484 10
3 6485 11
3 6486 9
3 6487 15
3 6488 23
3 6489 61
3 6490 55
3 6491 5
3 6492 10
3 6494 11
3 6495 5
3 6496 15
3 6497 11
3 6498 6
3 6499 77
3 6500 29
3 6501 16
3 6502 7
3 6503 11
3 6504 14
3 6505 8
3 6506 9
3 6507 10
3 6508 43
3 6509 16
3 6510 13
3 6511 8
3 6512 19
3 6513 58
3 6514 5
3 6515 23
3 6516 10
3 6517 31
3 6518 5
3 6519 4
3 6520 11
3 6521 10
3 6522 10
3 6523 4
3 6524 10
3 6525 2
3 6526 43
3 6527 10
3 6528 11
3 6529 15
3 6530 10
3 6531 45
3 6532 57
3 6533 5
3 6534 13
3 6535 4
3 6536 6
3 6537 5
3 6538 13
3 6539 3
3 6540 19
3 6541 11
3 6542 20
3 6543 101
3 6544 13
3 6545 14
3 6546 6
3 6547 71
3 6548 59
3 6549 949
3 6550 11
3 6551 18
3 6552 41
3 6553 14
3 6554 7
3 6555 484
3 6556 8
3 6557 2
3 6558 45
3 6559 64
3 6560 8
3 6561 9
3 6562 4
3 6563 39
3 6564 5
3 6565 18
3 6566 12
3 6567 7
3 6568 3
3 6569 58
3 6570 126
3 6571 97
3 6572 67
3 6573 9
3 6574 25
3 6575 8
3 6576 25
3 6577 9
3 6578 12
3 6579 6
3 6580 91
3 6581 4
3 6582 10
3 6583 7
3 6584 5
3 6585 8
3 6586 67
3 6587 18
3 6588 4
3 6589 12
3 6590 52
3 6591 4
3 6592 10
3 6593 12
3 6594 8
3 6595 7
3 6596 2
3 6597 6
3 6598 21
3 6599 14
3 6600 5
3 6601 10
3 6602 55
3 6603 8
3 6604 7
3 6605 4
3 6606 8
3 6607 13
3 6608 6
3 6609 7
3 6610 11
3 6611 56
3 6612 10
3 6613 17
3 6614 11
3 6615 54
3 6616 5
3 6617 4
3 6618 23
3 6619 29
3 6620 11
3 6621 73
3 6622 6
3 6623 9
3 6624 9
3 6625 7
3 6626 13
3 6627 12
3 6628 11
3 6629 9
3 6631 17
3 6632 12
3 6633 9
3 6634 10
3 6635 63
3 6636 13
3 6637 11
3 6638 116
3 6639 13
3 6640 13
3 6641 79
3 6642 44
3 6643 7
3 6644 15
3 6645 9
3 6646 19
3 6647 4
3 6648 12
3 6649 81
3 6650 10
3 6651 5
3 6652 54
3 6653 6
3 6654 7
3 6655 44
3 6656 12
3 6657 22
3 6658 71
3 6659 14
3 6660 22
3 6661 10
3 6662 13
3 6663 51
3 6664 16
3 6665 11
3 6666 58
3 6667 39
3 6668 16
3 6669 14
3 6670 10
3 6671 16
3 6672 12
3 6673 41
3 6674 16
3 6675 23
3 6676 10
3 6677 25
3 6678 21
3 6679 88
3 6680 9
3 6681 60
3 6682 12
3 6683 36
3 6684 11
3 6685 5
3 6686 11
3 6687 13
3 6688 5
3 6689 4
3 6690 16
3 6691 17
3 6692 20
3 6693 103
3 6694 9
3 6695 81
3 6696 9
3 6697 6
3 6698 15
3 6699 13
3 6700 7
3 6701 9
3 6702 14
3 6703 44
3 6704 81
3 6705 42
3 6706 11
3 6707 11
3 6708 70
3 6709 14
3 6710 12
3 6711 84
3 6712 43
3 6713 8
3 6714 15
3 6715 128
3 6716 8
3 6717 27
3 6718 12
3 6719 21
3 6720 20
3 6721 16
3 6722 179
3 6723 8
3 6724 11
3 6725 10
3 6726 12
3 6727 12
3 6728 56
3 6729 14
3 6730 12
3 6731 19
3 6732 26
3 6733 17
3 6734 61
3 6735 15
3 6736 15
3 6737 42
3 6738 166
3 6739 58
3 6740 14
3 6741 51
3 6742 24
3 6743 14
3 6744 12
3 6745 8
3 6746 13
3 6747 2
3 6748 47
3 6749 913
3 6750 5
3 6751 13
3 6752 33
3 6753 11
3 6754 36
3 6755 27
3 6756 13
3 6757 11
3 6758 14
3 6759 80
3 6760 31
3 6761 10
3 6762 14
3 6763 34
3 6764 10
3 6765 13
3 6766 14
3 6767 14
3 6768 10
3 6769 15
3 6770 28
3 6771 12
3 6772 22
3 6773 71
3 6774 15
3 6775 20
3 6776 17
3 6777 25
3 6778 34
3 6779 27
3 6780 47
3 6781 162
3 6782 13
3 6783 13
3 6784 40
3 6785 12
3 6786 13
3 6787 75
3 6788 13
3 6789 14
3 6790 165
3 6791 14
3 6792 43
3 6793 15
3 6794 8
3 6795 16
3 6796 30
3 6797 2
3 6798 12
3 6799 5
3 6800 12
3 6801 18
3 6802 56
3 6803 36
3 6804 6
3 6805 6
3 6806 11
3 6807 45
3 6808 10
3 6809 10
3 6810 3
3 6811 9
3 6812 245
3 6813 10
3 6814 71
3 6815 7
3 6816 52
3 6817 6
3 6818 115
3 6819 7
3 6820 8
3 6821 82
3 6822 7
3 6823 4
3 6824 49
3 6825 14
3 6826 7
3 6827 9
3 6828 6
3 6829 76
3 6830 141
3 6831 23
3 6832 14
3 6833 17
3 6834 69
3 6835 3
3 6836 9
3 6837 33
3 6838 10
3 6839 15
3 6840 60
3 6841 11
3 6842 10
3 6843 238
3 6844 101
3 6845 14
3 6846 17
3 6847 13
3 6848 19
3 6849 14
3 6850 371
3 6851 89
3 6852 12
3 6853 85
3 6854 13
3 6855 18
3 6856 84
3 6857 9
3 6858 41
3 6859 16
3 6860 14
3 6861 63
3 6862 14
3 6863 8
3 6864 32
3 6865 14
3 6866 16
3 6867 48
3 6868 26
3 6869 14
3 6870 15
3 6871 13
3 6872 14
3 6873 56
3 6874 384
3 6875 6
3 6876 18
3 6877 13
3 6878 56
3 6879 12
3 6880 7
3 6881 66
3 6882 17
3 6883 13
3 6884 67
3 6885 44
3 6886 11
3 6887 16
3 6888 12
3 6889 25
3 6890 15
3 6891 9
3 6892 11
3 6893 962
3 6894 12
3 6895 70
3 6896 44
3 6897 94
3 6898 99
3 6899 54
3 6900 10
3 6901 18
3 6902 14
3 6903 1069
3 6904 15
3 6905 18
3 6906 22
3 6907 12
3 6908 46
3 6909 49
3 6910 41
3 6911 27
3 6912 6
3 6913 90
3 6914 11
3 6915 153
3 6916 109
3 6917 4
3 6918 7
3 6919 17
3 6920 58
3 6921 56
3 6922 15
3 6923 33
3 6924 107
3 6925 31
3 6926 14
3 6927 22
3 6928 18
3 6929 73
3 6930 19
3 6931 18
3 6932 5
3 6933 39
3 6934 8
3 6935 6
3 6936 39
3 6937 28
3 6938 20
3 6939 12
3 6940 44
3 6941 20
3 6942 10
3 6943 80
3 6944 14
3 6945 50
3 6946 11
3 6947 8
3 6948 11
3 6949 4
3 6950 21
3 6951 8
3 6952 12
3 6953 45
3 6954 81
3 6955 11
3 6956 16
3 6957 73
3 6958 115
3 6959 48
3 6960 7
3 6961 107
3 6962 9
3 6963 53
3 6964 15
3 6965 24
3 6966 23
3 6967 22
3 6968 77
3 6969 35
3 6970 20
3 6971 24
3 6972 39
3 6973 9
3 6974 16
3 6975 12
3 6976 20
3 6977 10
3 6978 7
3 6979 35
3 6980 19
3 6981 7
3 6982 13
3 6983 11
3 6984 16
3 6985 13
3 6986 16
3 6987 11
3 6988 8
3 6989 14
3 6990 14
3 6991 8
3 6992 10
3 6993 25
3 6994 7
3 6995 13
3 6996 6
3 6997 10
3 6998 80
3 6999 31
3 7000 23
3 7001 101
3 7002 33
3 7003 4
3 7004 21
3 7005 70
3 7006 18
3 7007 19
3 7008 78
3 7009 8
3 7010 10
3 7011 7
3 7012 10
3 7013 71
3 7014 103
3 7015 9
3 7016 32
3 7017 9
3 7018 11
3 7019 72
3 7020 45
3 7021 4
3 7022 8
3 7023 14
3 7024 11
3 7025 55
3 7026 14
3 7027 36
3 7028 11
3 7029 76
3 7030 13
3 7031 6
3 7032 172
3 7033 14
3 7034 7
3 7035 12
3 7036 18
3 7037 63
3 7038 11
3 7039 44
3 7040 43
3 7041 45
3 7042 59
3 7043 12
3 7044 16
3 7045 9
3 7046 82
3 7047 18
3 7048 15
3 7049 19
3 7050 15
3 7051 74
3 7052 85
3 7053 10
3 7054 35
3 7055 77
3 7056 10
3 7057 5
3 7058 67
3 7059 55
3 7060 64
3 7061 9
3 7062 15
3 7063 12
3 7064 13
3 7065 11
3 7066 82
3 7067 15
3 7068 12
3 7069 34
3 7070 15
3 7071 13
3 7072 9
3 7073 518
3 7074 75
3 7075 102
3 7076 18
3 7077 18
3 7078 22
3 7079 3
3 7080 44
3 7081 14
3 7082 19
3 7083 24
3 7084 11
3 7085 26
3 7086 45
3 7087 8
3 7088 6
3 7089 19
3 7090 44
3 7091 10
3 7092 30
3 7093 9
3 7094 15
3 7095 6
3 7096 26
3 7097 14
3 7098 30
3 7099 45
3 7100 37
3 7101 57
3 7102 9
3 7103 14
3 7104 19
3 7105 66
3 7106 12
3 7107 18
3 7108 10
3 7109 84
3 7110 7
3 7111 13
3 7112 15
3 7113 951
3 7114 17
3 7115 13
3 7116 10
3 7117 50
3 7118 86
3 7119 15
3 7120 30
3 7121 45
3 7122 23
3 7123 18
3 7124 74
3 7125 15
3 7126 10
3 7127 17
3 7128 17
3 7129 12
3 7130 29
3 7131 10
3 7132 19
3 7133 104
3 7134 73
3 7135 64
3 7136 11
3 7137 64
3 7138 9
3 7139 14
3 7140 16
3 7141 9
3 7142 48
3 7143 48
3 7144 95
3 7145 95
3 7146 11
3 7147 25
3 7148 18
3 7149 16
3 7150 6
3 7151 6
3 7152 13
3 7153 14
3 7154 84
3 7155 4
3 7156 19
3 7157 10
3 7158 7
3 7159 11
3 7160 10
3 7161 1057
3 7162 51
3 7163 6
3 7164 9
3 7165 31
3 7166 7
3 7167 70
3 7168 9
3 7169 16
3 7170 15
3 7171 16
3 7172 80
3 7173 24
3 7174 21
3 7175 13
3 7176 17
3 7177 12
3 7178 15
3 7179 37
3 7180 13
3 7181 10
3 7182 11
3 7183 100
3 7184 13
3 7185 51
3 7186 82
3 7187 11
3 7188 16
3 7189 20
3 7190 17
3 7191 16
3 7192 131
3 7193 11
3 7194 10
3 7195 10
3 7196 20
3 7197 15
3 7198 7
3 7199 14
3 7200 8
3 7201 11
3 7202 15
3 7203 83
3 7204 53
3 7205 24
3 7206 11
3 7207 5
3 7208 103
3 7209 10
3 7210 14
3 7211 11
3 7212 9
3 7213 19
3 7214 67
3 7215 15
3 7216 11
3 7217 93
3 7218 72
3 7219 45
3 7220 17
3 7221 9
3 7222 7
3 7223 64
3 7224 7
3 7225 88
3 7226 74
3 7227 20
3 7228 21
3 7229 13
3 7230 32
3 7231 87
3 7232 11
3 7233 16
3 7234 13
3 7235 67
3 7236 148
3 7237 19
3 7238 17
3 7239 51
3 7240 14
3 7241 14
3 7242 14
3 7243 16
3 7244 7
3 7245 56
3 7246 5
3 7247 11
3 7248 9
3 7249 79
3 7250 13
3 7251 40
3 7252 6
3 7253 64
3 7254 5
3 7255 14
3 7256 13
3 7257 15
3 7258 59
3 7259 1032
3 7260 78
3 7261 11
3 7262 14
3 7263 8
3 7264 21
3 7265 12
3 7266 25
3 7267 19
3 7268 15
3 7269 22
3 7270 16
3 7271 12
3 7272 52
3 7273 8
3 7274 10
3 7275 141
3 7276 59
3 7277 8
3 7278 88
3 7279 8
3 7280 13
3 7281 5
3 7282 13
3 7283 6
3 7284 39
3 7285 52
3 7286 8
3 7287 60
3 7288 15
3 7289 9
3 7290 31
3 7291 7
3 7292 9
3 7293 78
3 7294 77
3 7295 13
3 7296 47
3 7297 23
3 7298 38
3 7299 6
3 7300 12
3 7301 24
3 7302 515
3 7303 37
3 7304 10
3 7305 9
3 7306 81
3 7307 12
3 7308 7
3 7309 19
3 7310 31
3 7311 10
3 7312 10
3 7313 8
3 7314 53
3 7315 28
3 7316 18
3 7317 14
3 7318 68
3 7319 31
3 7320 12
3 7321 8
3 7322 8
3 7323 8
3 7324 13
3 7325 17
3 7326 12
3 7327 28
3 7328 19
3 7329 15
3 7330 80
3 7331 148
3 7332 18
3 7333 12
3 7334 33
3 7335 6
3 7336 33
3 7337 34
3 7338 5
3 7339 18
3 7340 17
3 7341 21
3 7342 28
3 7343 18
3 7344 59
3 7345 50
3 7346 42
3 7347 16
3 7348 6
3 7349 11
3 7350 13
3 7351 116
3 7352 11
3 7353 20
3 7354 11
3 7355 82
3 7356 34
3 7357 3
3 7358 58
3 7359 13
3 7360 9
3 7361 45
3 7362 8
3 7363 20
3 7364 71
3 7365 7
3 7366 17
3 7367 4
3 7368 80
3 7369 49
3 7370 27
3 7371 14
3 7372 35
3 7373 17
3 7374 7
3 7375 56
3 7376 38
3 7377 57
3 7378 8
3 7379 18
3 7380 56
3 7381 22
3 7382 14
3 7383 6
3 7384 14
3 7385 14
3 7386 9
3 7387 12
3 7388 39
3 7389 6
3 7390 45
3 7391 11
3 7392 11
3 7393 3
3 7394 13
3 7395 8
3 7396 11
3 7397 8
3 7398 84
3 7399 19
3 7400 15
3 7401 26
3 7402 18
3 7403 67
3 7404 6
3 7405 9
3 7406 16
3 7407 14
3 7408 26
3 7409 16
3 7410 27
3 7411 9
3 7412 17
3 7413 55
3 7414 17
3 7415 233
3 7416 81
3 7417 9
3 7418 51
3 7419 35
3 7420 15
3 7421 10
3 7422 35
3 7423 39
3 7424 18
3 7425 11
3 7426 12
3 7427 18
3 7428 9
3 7429 12
3 7430 35
3 7431 12
3 7432 24
3 7433 10
3 7434 7
3 7435 12
3 7436 12
3 7437 4
3 7438 8
3 7439 83
3 7440 5
3 7441 9
3 7442 13
3 7443 25
3 7444 17
3 7445 39
3 7446 18
3 7447 49
3 7448 13
3 7449 8
3 7450 91
3 7451 10
3 7452 62
3 7453 16
3 7454 104
3 7455 21
3 7456 8
3 7457 16
3 7458 7
3 7459 227
3 7460 4
3 7461 34
3 7462 13
3 7463 15
3 7464 14
3 7465 18
3 7466 68
3 7467 12
3 7468 14
3 7469 6
3 7470 23
3 7471 20
3 7472 7
3 7473 55
3 7474 17
3 7475 29
3 7476 100
3 7477 56
3 7478 16
3 7479 4
3 7480 21
3 7481 10
3 7482 69
3 7483 13
3 7484 47
3 7485 42
3 7486 15
3 7487 26
3 7488 14
3 7489 17
3 7490 23
3 7491 20
3 7492 7
3 7493 9
3 7494 31
3 7495 22
3 7496 16
3 7497 5
3 7498 6
3 7499 11
3 7500 8
3 7501 35
3 7502 6
3 7503 11
3 7504 9
3 7505 18
3 7506 29
3 7507 68
3 7508 15
3 7509 15
3 7510 24
3 7511 22
3 7512 41
3 7513 67
3 7514 1092
3 7515 112
3 7516 10
3 7517 8
3 7518 7
3 7519 7
3 7520 60
3 7521 18
3 7522 9
3 7523 19
3 7524 19
3 7525 50
3 7526 7
3 7527 13
3 7528 14
3 7529 4
3 7530 16
3 7531 15
3 7532 12
3 7533 18
3 7534 3
3 7535 11
3 7536 16
3 7537 22
3 7538 22
3 7539 50
3 7540 70
3 7541 7
3 7542 74
3 7543 16
3 7544 12
3 7545 16
3 7546 46
3 7547 21
3 7548 19
3 7549 7
3 7550 13
3 7551 63
3 7552 4
3 7553 6
3 7554 82
3 7555 49
3 7556 5
3 7557 2
3 7558 24
3 7559 23
3 7560 17
3 7561 28
3 7562 36
3 7563 7
3 7564 15
3 7565 12
3 7566 43
3 7567 7
3 7568 59
3 7569 10
3 7570 16
3 7571 27
3 7572 12
3 7573 18
3 7574 9
3 7575 11
3 7576 249
3 7577 7
3 7578 45
3 7579 13
3 7580 8
3 7581 43
3 7582 15
3 7583 8
3 7584 13
3 7585 14
3 7586 14
3 7587 11
3 7588 4
3 7589 6
3 7590 50
3 7591 34
3 7592 50
3 7593 10
3 7594 6
3 7595 8
3 7596 37
3 7597 31
3 7598 12
3 7599 16
3 7600 4
3 7601 4
3 7602 4
3 7603 16
3 7604 82
3 7605 12
3 7606 12
3 7607 18
3 7608 12
3 7609 10
3 7610 10
3 7611 7
3 7612 17
3 7613 13
3 7614 9
3 7615 3
3 7616 10
3 7617 8
3 7618 16
3 7619 9
3 7620 37
3 7621 13
3 7622 20
3 7623 75
3 7624 5
3 7625 82
3 7626 64
3 7627 14
3 7628 707
3 7629 44
3 7630 19
3 7631 15
3 7632 61
3 7633 22
3 7634 6
3 7635 84
3 7636 44
3 7637 3
3 7638 16
3 7639 43
3 7640 3
3 7641 47
3 7642 86
3 7643 20
3 7644 49
3 7645 39
3 7646 7
3 7647 30
3 7648 6
3 7649 48
3 7650 8
3 7651 18
3 7652 29
3 7653 12
3 7654 12
3 7655 1037
3 7656 14
3 7657 7
3 7658 8
3 7659 9
3 7660 64
3 7661 3
3 7662 6
3 7663 8
3 7664 13
3 7665 11
3 7666 14
3 7667 7
3 7668 20
3 7669 12
3 7670 49
3 7671 73
3 7672 5
3 7673 14
3 7674 18
3 7675 36
3 7676 10
3 7677 215
3 7678 9
3 7679 12
3 7680 49
3 7681 47
3 7682 9
3 7683 15
3 7684 12
3 7685 10
3 7686 18
3 7687 17
3 7688 9
3 7689 9
3 7690 128
3 7691 13
3 7692 7
3 7693 14
3 7694 69
3 7695 93
3 7696 13
3 7697 49
3 7698 3
3 7699 13
3 7700 10
3 7701 15
3 7702 3
3 7703 11
3 7704 20
3 7705 8
3 7706 12
3 7707 258
3 7708 88
3 7709 27
3 7710 20
3 7711 7
3 7712 46
3 7713 10
3 7714 94
3 7715 70
3 7716 47
3 7717 5
3 7718 12
3 7719 7
3 7720 11
3 7721 27
3 7722 13
3 7723 53
3 7724 8
3 7725 96
3 7726 6
3 7727 15
3 7728 40
3 7729 44
3 7730 23
3 7731 26
3 7732 1
3 7733 8
3 7734 8
3 7735 13
3 7736 11
3 7737 15
3 7738 19
3 7739 40
3 7740 12
3 7741 67
3 7742 54
3 7743 28
3 7744 13
3 7745 8
3 7746 13
3 7747 13
3 7748 19
3 7749 7
3 7750 3
3 7751 21
3 7752 7
3 7753 9
3 7754 11
3 7755 31
3 7756 3
3 7757 3
3 7758 5
3 7759 11
3 7760 6
3 7761 63
3 7762 2
3 7763 9
3 7764 12
3 7765 3
3 7766 10
3 7767 6
3 7768 67
3 7769 16
3 7770 28
3 7771 58
3 7772 18
3 7773 51
3 7774 15
3 7775 20
3 7776 14
3 7777 7
3 7778 18
3 7779 3
3 7780 9
3 7781 8
3 7782 13
3 7783 22
3 7784 14
3 7785 50
3 7786 17
3 7787 11
3 7788 88
3 7789 106
3 7790 37
3 7791 41
3 7792 21
3 7793 12
3 7794 13
3 7795 129
3 7796 9
3 7797 13
3 7798 115
3 7799 9
3 7800 17
3 7801 62
3 7802 19
3 7803 24
3 7804 14
3 7805 15
3 7806 10
3 7807 14
3 7808 13
3 7809 58
3 7810 14
3 7811 7
3 7812 4
3 7813 13
3 7814 10
3 7815 25
3 7816 14
3 7817 10
3 7818 70
3 7819 33
3 7820 13
3 7821 6
3 7822 11
3 7823 14
3 7824 900
3 7825 101
3 7826 4
3 7827 10
3 7828 16
3 7829 9
3 7830 12
3 7831 7
3 7832 14
3 7833 11
3 7834 19
3 7835 39
3 7836 16
3 7837 22
3 7838 10
3 7839 8
3 7840 9
3 7841 6
3 7842 25
3 7843 7
3 7844 12
3 7845 19
3 7846 11
3 7847 6
3 7848 16
3 7849 58
3 7850 39
3 7851 16
3 7852 11
3 7853 5
3 7854 8
3 7855 18
3 7856 10
3 7857 4
3 7858 15
3 7859 31
3 7860 9
3 7861 14
3 7862 10
3 7863 23
3 7864 16
3 7865 163
3 7866 7
3 7867 4
3 7868 43
3 7869 64
3 7870 5
3 7871 8
3 7872 14
3 7873 15
3 7874 7
3 7875 11
3 7876 10
3 7877 36
3 7878 242
3 7879 17
3 7880 10
3 7881 9
3 7882 10
3 7883 33
3 7884 23
3 7885 27
3 7886 11
3 7887 111
3 7888 10
3 7889 20
3 7890 56
3 7891 10
3 7892 9
3 7893 7
3 7894 8
3 7895 49
3 7896 6
3 7897 15
3 7898 9
3 7899 13
3 7900 152
3 7901 51
3 7902 24
3 7903 9
3 7904 22
3 7905 6
3 7906 13
3 7907 45
3 7908 79
3 7909 22
3 7910 17
3 7911 18
3 7912 33
3 7913 13
3 7914 14
3 7915 34
3 7916 45
3 7917 15
3 7918 20
3 7919 28
3 7920 94
3 7921 60
3 7922 49
3 7923 11
3 7924 19
3 7925 22
3 7926 553
3 7927 66
3 7928 10
3 7929 27
3 7930 57
3 7931 10
3 7932 8
3 7933 4
3 7934 66
3 7935 20
3 7936 43
3 7937 27
3 7938 13
3 7939 23
3 7940 10
3 7941 45
3 7942 20
3 7943 9
3 7944 10
3 7945 11
3 7946 8
3 7947 10
3 7948 24
3 7949 13
3 7950 11
3 7951 13
3 7952 6
3 7953 6
3 7954 14
3 7955 57
3 7956 10
3 7957 5
3 7958 274
3 7959 50
3 7960 16
3 7961 8
3 7962 15
3 7963 58
3 7964 9
3 7965 22
3 7966 51
3 7967 9
3 7968 7
3 7969 12
3 7970 8
3 7971 42
3 7972 10
3 7973 22
3 7974 10
3 7975 52
3 7976 13
3 7977 75
3 7978 6
3 7979 14
3 7980 17
3 7981 30
3 7982 52
3 7983 7
3 7984 9
3 7985 18
3 7986 16
3 7987 6
3 7988 33
3 7989 16
3 7990 75
3 7991 11
3 7992 51
3 7993 8
3 7994 19
3 7995 14
3 7996 60
3 7997 94
3 7998 16
3 7999 4
3 8000 51
3 8001 16
3 8002 54
3 8003 19
3 8004 9
3 8005 81
3 8006 14
3 8007 28
3 8008 52
3 8009 11
3 8010 15
3 8011 78
3 8012 10
3 8013 45
3 8014 18
3 8015 46
3 8016 70
3 8017 17
3 8018 7
3 8019 4
3 8020 26
3 8021 8
3 8022 27
3 8023 8
3 8024 27
3 8025 62
3 8026 30
3 8027 53
3 8028 17
3 8029 15
3 8030 163
3 8031 18
3 8032 15
3 8033 12
3 8034 48
3 8035 58
3 8036 10
3 8037 7
3 8038 15
3 8039 9
3 8040 65
3 8041 7
3 8042 40
3 8043 115
3 8044 36
3 8045 7
3 8046 13
3 8047 15
3 8048 10
3 8049 25
3 8050 19
3 8051 21
3 8052 12
3 8053 7
3 8054 17
3 8055 13
3 8056 10
3 8057 5
3 8058 10
3 8059 13
3 8060 17
3 8061 19
3 8062 44
3 8063 21
3 8064 9
3 8065 21
3 8066 63
3 8067 14
3 8068 108
3 8069 11
3 8070 16
3 8071 10
3 8072 9
3 8073 10
3 8074 4
3 8075 22
3 8076 7
3 8077 15
3 8078 15
3 8079 19
3 8080 16
3 8081 15
3 8082 12
3 8083 21
3 8084 43
3 8085 27
3 8086 10
3 8087 14
3 8088 70
3 8089 7
3 8090 20
3 8091 34
3 8092 13
3 8093 12
3 8094 10
3 8095 11
3 8096 11
3 8097 51
3 8098 10
3 8099 10
3 8100 84
3 8101 13
3 8102 17
3 8103 16
3 8104 6
3 8105 12
3 8106 12
3 8107 16
3 8108 12
3 8109 30
3 8110 14
3 8111 10
3 8112 4
3 8113 14
3 8114 13
3 8115 410
3 8116 24
3 8117 138
3 8118 16
3 8119 7
3 8120 39
3 8121 122
3 8122 12
3 8123 15
3 8124 21
3 8125 13
3 8126 7
3 8127 9
3 8128 8
3 8129 9
3 8130 5
3 8131 18
3 8132 14
3 8133 11
3 8134 13
3 8135 12
3 8136 16
3 8137 54
3 8138 15
3 8139 15
3 8140 45
3 8141 28
3 8142 18
3 8143 9
3 8144 14
3 8145 12
3 8146 7
3 8147 34
3 8148 67
3 8149 17
3 8150 8
3 8151 8
3 8152 14
3 8153 41
3 8154 12
3 8155 9
3 8156 10
3 8157 14
3 8158 22
3 8159 13
3 8160 15
3 8161 13
3 8162 15
3 8163 15
3 8164 10
3 8165 15
3 8166 9
3 8167 90
3 8168 23
3 8169 19
3 8170 19
3 8171 13
3 8172 47
3 8173 31
3 8174 18
3 8175 10
3 8176 16
3 8177 26
3 8178 30
3 8179 391
3 8180 38
3 8181 25
3 8182 14
3 8183 78
3 8184 191
3 8185 13
3 8186 8
3 8187 15
3 8188 9
3 8189 20
3 8190 7
3 8191 15
3 8192 38
3 8193 13
3 8195 17
3 8196 6
3 8197 21
3 8198 7
3 8199 11
3 8200 16
3 8201 62
3 8202 78
3 8203 11
3 8204 14
3 8205 9
3 8206 5
3 8207 15
3 8208 11
3 8209 81
3 8210 14
3 8211 8
3 8212 13
3 8213 15
3 8214 19
3 8215 12
3 8216 17
3 8217 12
3 8218 22
3 8219 51
3 8220 38
3 8221 132
3 8222 7
3 8223 6
3 8224 77
3 8225 17
3 8226 12
3 8227 17
3 8228 13
3 8229 115
3 8230 8
3 8231 32
3 8232 67
3 8233 15
3 8234 12
3 8235 134
3 8236 11
3 8237 126
3 8238 25
3 8239 77
3 8240 68
3 8241 27
3 8242 15
3 8243 13
3 8244 18
3 8245 22
3 8246 6
3 8247 21
3 8248 10
3 8249 17
3 8250 24
3 8251 11
3 8252 14
3 8253 69
3 8254 5
3 8255 11
3 8256 13
3 8257 40
3 8258 19
3 8259 12
3 8260 12
3 8261 52
3 8262 16
3 8263 7
3 8264 50
3 8265 11
3 8266 11
3 8267 21
3 8268 10
3 8269 15
3 8270 9
3 8271 15
3 8272 94
3 8273 142
3 8274 92
3 8275 15
3 8276 10
3 8277 19
3 8278 12
3 8279 26
3 8280 9
3 8281 12
3 8282 23
3 8283 26
3 8284 3
3 8285 36
3 8286 96
3 8287 165
3 8288 6
3 8289 48
3 8290 14
3 8291 19
3 8292 11
3 8293 10
3 8294 8
3 8295 11
3 8296 51
3 8297 9
3 8298 79
3 8299 83
3 8300 32
3 8301 87
3 8302 18
3 8303 84
3 8304 22
3 8305 30
3 8306 8
3 8307 40
3 8308 30
3 8309 40
3 8310 7
3 8311 15
3 8312 42
3 8313 85
3 8314 32
3 8315 3
3 8316 110
3 8317 248
3 8318 16
3 8319 16
3 8320 34
3 8321 8
3 8322 75
3 8323 57
3 8324 16
3 8325 10
3 8326 128
3 8327 11
3 8328 18
3 8329 16
3 8330 98
3 8331 13
3 8332 10
3 8333 6
3 8334 145
3 8335 14
3 8336 12
3 8337 11
3 8338 12
3 8339 17
3 8340 11
3 8341 9
3 8342 11
3 8343 46
3 8344 15
3 8345 10
3 8346 90
3 8347 10
3 8348 19
3 8349 42
3 8350 26
3 8351 25
3 8352 1044
3 8353 12
3 8354 18
3 8355 16
3 8356 12
3 8357 8
3 8358 89
3 8359 5
3 8360 70
3 8361 17
3 8362 12
3 8363 23
3 8364 7
3 8365 16
3 8366 12
3 8367 4
3 8368 17
3 8369 98
3 8370 79
3 8371 10
3 8372 39
3 8373 47
3 8374 106
3 8375 53
3 8376 12
3 8377 20
3 8378 18
3 8379 14
3 8380 13
3 8381 10
3 8382 15
3 8383 19
3 8384 12
3 8385 20
3 8386 9
3 8387 41
3 8388 7
3 8389 5
3 8390 84
3 8391 125
3 8392 116
3 8393 47
3 8394 41
3 8395 19
3 8396 73
3 8397 6
3 8398 17
3 8399 26
3 8400 11
3 8401 9
3 8402 82
3 8403 216
3 8404 9
3 8405 12
3 8406 54
3 8407 94
3 8408 5
3 8409 6
3 8410 14
3 8411 15
3 8412 90
3 8413 91
3 8414 12
3 8415 37
3 8416 65
3 8417 5
3 8418 10
3 8419 18
3 8420 29
3 8421 26
3 8422 40
3 8423 16
3 8424 6
3 8425 34
3 8426 17
3 8427 10
3 8428 22
3 8429 14
3 8430 12
3 8431 12
3 8432 52
3 8433 14
3 8434 256
3 8435 70
3 8436 15
3 8437 50
3 8438 15
3 8439 11
3 8440 12
3 8441 5
3 8442 23
3 8443 23
3 8444 29
3 8445 11
3 8446 14
3 8447 17
3 8448 19
3 8449 15
3 8450 2
3 8451 101
3 8452 56
3 8453 7
3 8454 12
3 8455 10
3 8456 10
3 8457 38
3 8458 15
3 8459 110
3 8460 93
3 8461 7
3 8462 14
3 8463 15
3 8464 20
3 8465 13
3 8466 59
3 8467 32
3 8468 9
3 8469 54
3 8470 183
3 8471 27
3 8472 20
3 8473 32
3 8474 12
3 8475 16
3 8476 12
3 8477 18
3 8478 27
3 8479 12
3 8480 8
3 8481 496
3 8482 40
3 8483 21
3 8484 12
3 8485 106
3 8486 80
3 8487 12
3 8488 93
3 8489 3
3 8490 53
3 8491 28
3 8492 95
3 8493 26
3 8494 14
3 8495 16
3 8496 30
3 8497 12
3 8498 7
3 8499 43
3 8500 14
3 8501 6
3 8502 5
3 8503 10
3 8504 195
3 8505 11
3 8506 54
3 8507 11
3 8508 17
3 8509 19
3 8510 6
3 8511 11
3 8512 13
3 8513 43
3 8514 20
3 8515 23
3 8516 18
3 8517 15
3 8518 40
3 8519 12
3 8520 50
3 8521 67
3 8522 5
3 8523 38
3 8524 7
3 8525 5
3 8526 53
3 8527 6
3 8528 17
3 8529 98
3 8530 15
3 8531 11
3 8532 15
3 8533 436
3 8534 71
3 8535 44
3 8536 17
3 8537 41
3 8538 62
3 8539 4
3 8540 8
3 8541 6
3 8542 90
3 8543 15
3 8544 10
3 8545 17
3 8546 11
3 8547 4
3 8548 21
3 8549 13
3 8550 31
3 8551 14
3 8552 18
3 8553 8
3 8554 13
3 8555 8
3 8556 4
3 8557 6
3 8558 6
3 8559 75
3 8560 10
3 8561 11
3 8562 28
3 8563 26
3 8564 9
3 8565 4
3 8566 58
3 8567 11
3 8568 9
3 8569 7
3 8570 8
3 8571 16
3 8572 14
3 8573 18
3 8574 11
3 8575 50
3 8576 7
3 8577 14
3 8578 20
3 8579 5
3 8580 23
3 8581 54
3 8582 10
3 8583 12
3 8584 124
3 8585 12
3 8586 13
3 8587 23
3 8588 2
3 8589 14
3 8590 22
3 8591 19
3 8592 12
3 8593 10
3 8594 8
3 8595 11
3 8596 7
3 8597 2
3 8598 88
3 8599 16
3 8600 15
3 8601 12
3 8602 9
3 8603 37
3 8604 3
3 8605 9
3 8606 7
3 8607 38
3 8608 10
3 8609 9
3 8610 25
3 8611 12
3 8612 7
3 8613 16
3 8614 14
3 8615 7
3 8616 15
3 8617 13
3 8618 13
3 8619 9
3 8620 12
3 8621 16
3 8622 48
3 8623 14
3 8624 47
3 8625 21
3 8626 9
3 8627 25
3 8628 11
3 8629 70
3 8630 17
3 8631 65
3 8632 8
3 8633 9
3 8634 10
3 8635 266
3 8636 14
3 8637 57
3 8638 19
3 8639 72
3 8640 11
3 8641 114
3 8642 4
3 8643 17
3 8644 11
3 8645 62
3 8646 23
3 8647 17
3 8648 26
3 8649 19
3 8650 52
3 8651 14
3 8652 14
3 8653 9
3 8654 9
3 8655 19
3 8656 156
3 8657 7
3 8658 11
3 8659 10
3 8660 5
3 8661 4
3 8662 5
3 8663 23
3 8664 39
3 8665 17
3 8666 9
3 8667 12
3 8668 8
3 8669 6
3 8670 12
3 8671 10
3 8672 81
3 8673 15
3 8674 20
3 8675 55
3 8676 14
3 8677 85
3 8678 54
3 8679 121
3 8680 11
3 8681 9
3 8682 73
3 8683 199
3 8684 11
3 8685 8
3 8686 18
3 8687 14
3 8688 11
3 8689 13
3 8690 986
3 8691 27
3 8692 22
3 8693 12
3 8694 18
3 8695 22
3 8696 19
3 8697 9
3 8698 10
3 8699 52
3 8700 32
3 8701 25
3 8702 15
3 8703 11
3 8704 8
3 8705 90
3 8706 65
3 8707 16
3 8708 8
3 8709 7
3 8710 14
3 8711 10
3 8712 18
3 8713 81
3 8714 19
3 8715 10
3 8716 8
3 8717 13
3 8718 6
3 8719 34
3 8720 35
3 8721 23
3 8722 17
3 8723 12
3 8724 33
3 8725 13
3 8726 9
3 8727 40
3 8728 12
3 8729 19
3 8730 10
3 8731 10
3 8732 22
3 8733 13
3 8734 10
3 8735 11
3 8736 56
3 8737 15
3 8738 64
3 8739 138
3 8740 83
3 8741 19
3 8742 115
3 8743 11
3 8744 10
3 8745 19
3 8746 9
3 8747 28
3 8748 21
3 8749 22
3 8750 23
3 8751 28
3 8752 54
3 8753 6
3 8754 11
3 8755 5
3 8756 15
3 8757 13
3 8758 15
3 8759 11
3 8760 33
3 8761 48
3 8762 12
3 8763 10
3 8764 77
3 8765 23
3 8766 14
3 8767 15
3 8768 13
3 8769 7
3 8770 20
3 8771 6
3 8772 12
3 8773 7
3 8774 907
3 8775 14
3 8776 9
3 8777 17
3 8778 30
3 8779 9
3 8780 34
3 8781 33
3 8782 121
3 8783 26
3 8784 15
3 8785 17
3 8786 135
3 8787 21
3 8788 16
3 8789 103
3 8790 61
3 8791 15
3 8792 48
3 8793 8
3 8794 8
3 8795 66
3 8796 6
3 8797 12
3 8798 7
3 8799 87
3 8800 113
3 8801 13
3 8802 22
3 8803 18
3 8804 123
3 8805 10
3 8806 4
3 8807 37
3 8808 12
3 8809 74
3 8810 14
3 8811 14
3 8812 22
3 8813 8
3 8814 67
3 8815 92
3 8816 19
3 8817 17
3 8818 6
3 8819 9
3 8820 33
3 8821 59
3 8822 15
3 8823 16
3 8824 26
3 8825 9
3 8826 14
3 8827 69
3 8828 14
3 8829 11
3 8830 9
3 8831 14
3 8832 4
3 8833 13
3 8834 59
3 8835 46
3 8836 18
3 8837 95
3 8838 72
3 8839 19
3 8840 12
3 8841 39
3 8842 24
3 8843 11
3 8844 49
3 8845 23
3 8846 10
3 8847 14
3 8848 15
3 8849 60
3 8850 81
3 8851 15
3 8852 16
3 8853 10
3 8854 10
3 8855 79
3 8856 27
3 8857 11
3 8858 14
3 8859 25
3 8860 69
3 8861 8
3 8862 41
3 8863 6
3 8864 63
3 8865 10
3 8866 16
3 8867 83
3 8868 12
3 8869 23
3 8870 5
3 8871 138
3 8872 11
3 8873 51
3 8874 9
3 8875 73
3 8876 16
3 8877 47
3 8878 31
3 8879 64
3 8880 12
3 8881 14
3 8882 8
3 8883 14
3 8884 15
3 8885 35
3 8886 9
3 8887 81
3 8888 13
3 8889 13
3 8890 13
3 8891 60
3 8892 75
3 8893 38
3 8894 89
3 8895 128
3 8896 8
3 8897 15
3 8898 10
3 8899 9
3 8900 257
3 8901 32
3 8902 1078
3 8903 13
3 8904 11
3 8905 17
3 8906 43
3 8907 51
3 8908 35
3 8909 25
3 8910 48
3 8911 10
3 8912 6
3 8913 23
3 8914 14
3 8915 7
3 8916 29
3 8917 18
3 8918 23
3 8919 9
3 8920 9
3 8921 15
3 8922 16
3 8923 8
3 8924 10
3 8925 626
3 8926 12
3 8927 126
3 8928 13
3 8929 12
3 8930 135
3 8931 12
3 8932 55
3 8933 119
3 8934 135
3 8935 12
3 8936 14
3 8937 14
3 8938 14
3 8939 11
3 8940 8
3 8941 13
3 8942 13
3 8943 13
3 8944 45
3 8945 13
3 8946 17
3 8947 86
3 8948 118
3 8949 42
3 8950 22
3 8951 19
3 8952 30
3 8953 12
3 8954 125
3 8955 15
3 8956 48
3 8957 5
3 8958 44
3 8959 4
3 8960 14
3 8961 13
3 8962 5
3 8963 16
3 8964 108
3 8965 16
3 8966 10
3 8967 11
3 8968 58
3 8969 78
3 8970 45
3 8971 16
3 8972 8
3 8973 119
3 8974 16
3 8975 27
3 8976 166
3 8977 53
3 8978 6
3 8979 10
3 8980 54
3 8981 43
3 8982 9
3 8983 41
3 8984 17
3 8985 9
3 8986 8
3 8987 6
3 8988 10
3 8989 11
3 8990 16
3 8991 10
3 8992 78
3 8993 10
3 8994 7
3 8995 11
3 8996 8
3 8997 56
3 8998 23
3 8999 64
3 9000 12
3 9001 11
3 9002 11
3 9003 65
3 9004 12
3 9005 24
3 9006 12
3 9007 19
3 9008 4
3 9009 13
3 9010 16
3 9011 8
3 9012 37
3 9013 14
3 9014 17
3 9015 66
3 9016 21
3 9017 22
3 9018 9
3 9019 61
3 9020 105
3 9021 14
3 9022 77
3 9023 86
3 9024 92
3 9025 5
3 9026 3
3 9027 24
3 9028 22
3 9029 2
3 9030 10
3 9031 38
3 9032 15
3 9033 11
3 9034 12
3 9035 8
3 9036 14
3 9037 11
3 9038 16
3 9039 63
3 9040 27
3 9041 12
3 9042 14
3 9043 14
3 9044 88
3 9045 10
3 9046 16
3 9047 11
3 9048 10
3 9049 12
3 9050 92
3 9051 18
3 9052 20
3 9053 5
3 9054 16
3 9055 91
3 9056 23
3 9057 52
3 9058 14
3 9059 18
3 9060 10
3 9061 15
3 9062 14
3 9063 46
3 9064 14
3 9065 8
3 9066 21
3 9067 19
3 9068 17
3 9069 6
3 9070 82
3 9071 7
3 9072 9
3 9073 46
3 9074 43
3 9075 8
3 9076 15
3 9077 12
3 9078 13
3 9079 9
3 9080 11
3 9081 17
3 9082 28
3 9083 124
3 9084 19
3 9085 16
3 9086 57
3 9087 56
3 9088 28
3 9089 73
3 9090 31
3 9091 106
3 9092 76
3 9093 7
3 9094 11
3 9095 12
3 9096 107
3 9097 10
3 9098 11
3 9099 83
3 9100 11
3 9101 28
3 9102 91
3 9103 11
3 9104 77
3 9105 69
3 9106 28
3 9107 10
3 9108 49
3 9109 95
3 9110 10
3 9111 14
3 9112 17
3 9113 5
3 9114 29
3 9115 83
3 9116 39
3 9117 27
3 9118 13
3 9119 115
3 9120 20
3 9121 9
3 9122 16
3 9123 14
3 9124 20
3 9125 11
3 9126 16
3 9127 13
3 9128 11
3 9129 76
3 9130 40
3 9131 8
3 9132 15
3 9133 115
3 9134 8
3 9135 15
3 9136 10
3 9137 14
3 9138 12
3 9139 36
3 9140 18
3 9141 147
3 9142 16
3 9143 106
3 9144 12
3 9145 10
3 9146 143
3 9147 14
3 9148 15
3 9149 10
3 9150 15
3 9151 18
3 9152 16
3 9153 8
3 9154 15
3 9155 28
3 9156 96
3 9157 10
3 9158 16
3 9159 14
3 9160 8
3 9161 46
3 9162 12
3 9163 7
3 9164 8
3 9165 6
3 9166 6
3 9167 53
3 9168 12
3 9169 7
3 9170 18
3 9171 14
3 9172 129
3 9173 42
3 9174 6
3 9175 13
3 9176 12
3 9177 53
3 9178 14
3 9179 63
3 9180 35
3 9181 15
3 9182 16
3 9183 20
3 9184 66
3 9185 7
3 9186 10
3 9187 11
3 9188 10
3 9189 52
3 9190 13
3 9191 16
3 9192 14
3 9193 92
3 9194 83
3 9195 14
3 9196 19
3 9197 18
3 9198 21
3 9199 62
3 9200 15
3 9201 5
3 9202 105
3 9203 58
3 9204 12
3 9205 50
3 9206 41
3 9207 17
3 9208 74
3 9209 84
3 9210 35
3 9211 54
3 9212 5
3 9213 49
3 9214 51
3 9215 9
3 9216 14
3 9217 125
3 9218 3
3 9219 1
3 9220 4
3 9221 7
3 9222 14
3 9223 11
3 9224 39
3 9225 12
3 9226 6
3 9227 60
3 9228 11
3 9229 76
3 9230 10
3 9231 72
3 9232 15
3 9233 56
3 9234 11
3 9235 23
3 9236 74
3 9237 13
3 9238 48
3 9239 55
3 9240 27
3 9241 6
3 9242 17
3 9243 29
3 9244 11
3 9245 9
3 9246 28
3 9247 17
3 9248 11
3 9249 85
3 9250 56
3 9251 9
3 9252 19
3 9253 29
3 9254 14
3 9255 20
3 9256 8
3 9257 24
3 9258 7
3 9259 11
3 9260 23
3 9261 22
3 9262 75
3 9263 15
3 9264 22
3 9265 47
3 9266 16
3 9267 42
3 9268 11
3 9269 71
3 9270 10
3 9271 8
3 9272 11
3 9273 17
3 9274 9
3 9275 25
3 9276 60
3 9277 14
3 9278 12
3 9279 7
3 9280 13
3 9281 20
3 9282 23
3 9283 31
3 9284 71
3 9285 7
3 9286 150
3 9287 4
3 9288 13
3 9289 14
3 9290 44
3 9291 46
3 9292 42
3 9293 106
3 9294 3
3 9295 35
3 9296 10
3 9297 7
3 9298 13
3 9299 47
3 9300 258
3 9301 17
3 9302 17
3 9303 12
3 9304 15
3 9305 14
3 9306 16
3 9307 12
3 9308 62
3 9309 6
3 9310 15
3 9311 20
3 9312 45
3 9313 8
3 9314 6
3 9315 20
3 9316 11
3 9317 31
3 9318 18
3 9319 7
3 9320 19
3 9321 1003
3 9322 14
3 9323 8
3 9324 6
3 9325 102
3 9326 18
3 9327 27
3 9328 51
3 9329 4
3 9330 140
3 9331 12
3 9332 5
3 9333 12
3 9334 17
3 9335 7
3 9336 19
3 9337 17
3 9338 58
3 9339 9
3 9340 20
3 9341 49
3 9342 97
3 9343 12
3 9344 24
3 9345 20
3 9346 15
3 9347 158
3 9348 10
3 9349 18
3 9350 17
3 9351 15
3 9352 37
3 9353 43
3 9354 77
3 9355 30
3 9356 37
3 9357 15
3 9358 81
3 9359 34
3 9360 13
3 9361 10
3 9362 28
3 9363 30
3 9364 12
3 9365 33
3 9366 11
3 9367 44
3 9368 17
3 9369 16
3 9370 73
3 9371 12
3 9372 8
3 9373 29
3 9374 73
3 9375 12
3 9376 9
3 9377 15
3 9378 15
3 9379 9
3 9380 8
3 9381 6
3 9382 12
3 9383 51
3 9384 8
3 9385 14
3 9386 43
3 9387 13
3 9388 11
3 9389 10
3 9390 28
3 9391 15
3 9392 15
3 9393 10
3 9394 39
3 9395 476
3 9396 8
3 9397 13
3 9398 65
3 9399 11
3 9400 8
3 9401 22
3 9402 6
3 9403 17
3 9404 19
3 9405 14
3 9406 8
3 9407 16
3 9408 9
3 9409 97
3 9410 19
3 9411 19
3 9412 46
3 9413 2
3 9414 23
3 9415 14
3 9416 11
3 9417 11
3 9418 46
3 9419 2
3 9420 750
3 9421 55
3 9422 36
3 9423 14
3 9424 16
3 9425 402
3 9426 2
3 9427 8
3 9428 21
3 9429 17
3 9430 25
3 9431 9
3 9432 8
3 9433 15
3 9434 39
3 9435 6
3 9436 73
3 9437 10
3 9438 23
3 9439 6
3 9440 46
3 9441 102
3 9442 35
3 9443 25
3 9444 15
3 9445 8
3 9446 25
3 9447 9
3 9448 5
3 9449 9
3 9450 5
3 9451 59
3 9452 10
3 9453 17
3 9454 59
3 9455 13
3 9456 27
3 9457 97
3 9458 8
3 9459 53
3 9460 9
3 9461 10
3 9462 32
3 9463 35
3 9464 5
3 9465 39
3 9466 93
3 9467 113
3 9468 42
3 9469 11
3 9470 22
3 9471 29
3 9472 10
3 9473 42
3 9474 8
3 9475 12
3 9476 8
3 9477 41
3 9478 16
3 9479 5
3 9480 15
3 9481 2
3 9482 9
3 9483 110
3 9484 70
3 9485 77
3 9486 10
3 9487 29
3 9488 30
3 9489 19
3 9490 13
3 9491 10
3 9492 125
3 9493 8
3 9494 7
3 9495 7
3 9496 8
3 9497 4
3 9498 17
3 9499 13
3 9500 17
3 9501 8
3 9502 11
3 9503 15
3 9504 16
3 9505 34
3 9506 72
3 9507 13
3 9508 134
3 9509 12
3 9510 25
3 9511 93
3 9512 19
3 9513 16
3 9514 15
3 9515 15
3 9516 10
3 9517 10
3 9518 21
3 9519 15
3 9520 24
3 9521 22
3 9522 19
3 9523 13
3 9524 21
3 9525 10
3 9526 6
3 9527 116
3 9528 42
3 9529 81
3 9530 11
3 9531 18
3 9532 39
3 9533 37
3 9534 17
3 9535 20
3 9536 63
3 9537 12
3 9538 12
3 9539 15
3 9540 3
3 9541 19
3 9542 15
3 9543 60
3 9544 8
3 9545 26
3 9546 328
3 9547 9
3 9548 7
3 9549 24
3 9550 17
3 9551 16
3 9552 40
3 9553 7
3 9554 37
3 9555 12
3 9556 15
3 9557 54
3 9558 3
3 9559 40
3 9560 17
3 9561 13
3 9562 5
3 9563 22
3 9564 12
3 9565 101
3 9566 16
3 9567 107
3 9568 41
3 9569 40
3 9570 9
3 9571 11
3 9572 54
3 9573 39
3 9574 10
3 9575 26
3 9576 13
3 9577 108
3 9578 55
3 9579 9
3 9580 7
3 9581 10
3 9582 11
3 9583 18
3 9584 12
3 9585 40
3 9586 89
3 9587 86
3 9588 40
3 9589 13
3 9590 5
3 9591 22
3 9592 7
3 9593 31
3 9594 12
3 9595 17
3 9596 47
3 9597 28
3 9598 13
3 9599 9
3 9600 17
3 9601 12
3 9602 50
3 9603 62
3 9604 13
3 9605 11
3 9606 8
3 9607 15
3 9608 8
3 9609 33
3 9610 8
3 9611 15
3 9612 5
3 9613 27
3 9614 13
3 9615 79
3 9616 26
3 9617 13
3 9618 28
3 9619 15
3 9620 20
3 9621 21
3 9622 39
3 9623 76
3 9624 32
3 9625 9
3 9626 5
3 9627 34
3 9628 9
3 9629 20
3 9630 47
3 9631 10
3 9632 5
3 9633 6
3 9634 20
3 9635 8
3 9636 82
3 9637 41
3 9638 24
3 9639 9
3 9640 69
3 9641 63
3 9642 10
3 9643 13
3 9644 7
3 9645 45
3 9646 13
3 9647 11
3 9648 12
3 9649 94
3 9650 9
3 9651 116
3 9652 999
3 9653 34
3 9654 16
3 9655 133
3 9656 14
3 9657 34
3 9658 13
3 9659 35
3 9660 20
3 9661 12
3 9662 7
3 9663 49
3 9664 12
3 9665 28
3 9666 11
3 9667 9
3 9668 16
3 9669 42
3 9670 5
3 9671 69
3 9672 31
3 9673 24
3 9674 4
3 9675 111
3 9676 34
3 9677 8
3 9678 10
3 9679 3
3 9680 9
3 9681 345
3 9682 19
3 9683 31
3 9684 19
3 9685 7
3 9686 20
3 9687 24
3 9688 7
3 9689 58
3 9690 6
3 9691 6
3 9692 16
3 9693 18
3 9694 7
3 9695 7
3 9696 24
3 9697 48
3 9698 94
3 9699 10
3 9700 17
3 9701 7
3 9702 104
3 9703 13
3 9704 9
3 9705 102
3 9706 15
3 9707 64
3 9708 29
3 9709 14
3 9710 46
3 9711 12
3 9712 8
3 9713 67
3 9714 35
3 9715 13
3 9716 16
3 9717 20
3 9718 7
3 9719 12
3 9720 15
3 9721 16
3 9722 5
3 9723 78
3 9724 4
3 9725 87
3 9726 11
3 9727 9
3 9728 25
3 9729 10
3 9730 11
3 9731 30
3 9732 8
3 9733 4
3 9734 19
3 9735 15
3 9736 11
3 9737 44
3 9738 15
3 9739 9
3 9740 22
3 9741 12
3 9742 70
3 9743 15
3 9744 16
3 9745 13
3 9746 12
3 9747 8
3 9748 21
3 9749 27
3 9750 10
3 9751 10
3 9752 52
3 9753 38
3 9754 55
3 9755 10
3 9756 22
3 9757 34
3 9758 14
3 9759 5
3 9760 11
3 9761 55
3 9762 28
3 9763 43
3 9764 6
3 9765 12
3 9766 31
3 9767 24
3 9768 15
3 9769 113
3 9770 23
3 9771 2
3 9772 24
3 9773 10
3 9774 7
3 9775 13
3 9776 18
3 9777 14
3 9778 7
3 9779 18
3 9780 79
3 9781 52
3 9782 15
3 9783 7
3 9784 39
3 9785 14
3 9786 66
3 9787 13
3 9788 17
3 9789 12
3 9790 11
3 9791 4
3 9792 13
3 9793 11
3 9794 8
3 9795 15
3 9796 14
3 9797 22
3 9798 21
3 9799 68
3 9800 94
3 9801 6
3 9802 60
3 9803 26
3 9804 20
3 9805 57
3 9806 40
3 9807 16
3 9808 23
3 9809 11
3 9810 16
3 9811 8
3 9812 12
3 9813 28
3 9814 4
3 9815 59
3 9816 58
3 9817 21
3 9818 17
3 9819 7
3 9820 5
3 9821 160
3 9822 81
3 9823 10
3 9824 16
3 9825 9
3 9826 19
3 9827 17
3 9828 21
3 9829 5
3 9830 12
3 9831 4
3 9832 11
3 9833 25
3 9834 16
3 9835 54
3 9836 8
3 9837 11
3 9838 20
3 9839 10
3 9840 49
3 9841 20
3 9842 13
3 9843 20
3 9844 8
3 9845 9
3 9846 41
3 9847 48
3 9848 14
3 9849 12
3 9850 18
3 9851 60
3 9852 49
3 9853 51
3 9854 7
3 9855 18
3 9856 6
3 9857 13
3 9858 46
3 9859 58
3 9860 53
3 9861 41
3 9862 13
3 9863 46
3 9864 10
3 9865 13
3 9866 40
3 9867 34
3 9868 15
3 9869 51
3 9870 124
3 9871 42
3 9872 9
3 9873 4
3 9874 10
3 9875 4
3 9876 8
3 9877 11
3 9878 45
3 9879 87
3 9880 22
3 9881 11
3 9882 21
3 9883 48
3 9884 20
3 9885 81
3 9886 7
3 9887 39
3 9888 31
3 9889 25
3 9890 5
3 9891 45
3 9892 10
3 9893 16
3 9894 14
3 9895 7
3 9896 16
3 9897 13
3 9898 11
3 9899 9
3 9900 14
3 9901 14
3 9902 54
3 9903 14
3 9904 14
3 9905 19
3 9906 28
3 9907 11
3 9908 48
3 9909 41
3 9910 22
3 9911 10
3 9912 54
3 9913 32
3 9914 5
3 9915 9
3 9916 37
3 9917 8
3 9918 24
3 9919 16
3 9920 9
3 9921 13
3 9922 12
3 9923 10
3 9924 9
3 9925 9
3 9926 57
3 9927 10
3 9928 7
3 9929 14
3 9930 93
3 9931 20
3 9932 80
3 9933 55
3 9934 74
3 9935 45
3 9936 12
3 9937 12
3 9938 33
3 9939 8
3 9940 110
3 9941 61
3 9942 14
3 9943 14
3 9944 47
3 9945 73
3 9946 25
3 9947 7
3 9948 19
3 9949 18
3 9950 23
3 9951 8
3 9952 9
3 9953 2
3 9954 7
3 9955 64
3 9956 7
3 9957 8
3 9958 11
3 9959 11
3 9960 25
3 9961 25
3 9962 49
3 9963 12
3 9964 20
3 9965 9
3 9966 62
3 9967 9
3 9968 61
3 9969 45
3 9970 67
3 9971 21
3 9972 59
3 9973 20
3 9974 15
3 9975 25
3 9976 55
3 9977 22
3 9978 26
3 9979 780
3 9980 29
3 9981 33
3 9982 25
3 9983 3
3 9984 81
3 9985 267
3 9986 6
3 9987 14
3 9988 50
3 9989 48
3 9990 16
3 9991 22
3 9992 63
3 9993 4
3 9994 5
3 9995 9
3 9996 8
3 9997 18
3 9998 32
3 9999 37
3 10000 668
3 10001 11
3 10002 92
3 10003 28
3 10004 13
3 10005 19
3 10006 8
3 10007 16
3 10008 66
3 10009 11
3 10010 3
3 10011 27
3 10012 39
3 10013 9
3 10014 5
3 10015 20
3 10016 39
3 10017 14
3 10018 130
3 10019 9
3 10020 10
3 10021 13
3 10022 57
3 10023 52
3 10024 5
3 10025 10
3 10026 19
3 10027 44
3 10028 8
3 10029 108
3 10030 50
3 10031 7
3 10032 7
3 10033 40
3 10034 10
3 10035 38
3 10036 16
3 10037 10
3 10038 5
3 10039 17
3 10040 23
3 10041 72
3 10042 9
3 10043 45
3 10044 16
3 10045 15
3 10046 86
3 10047 6
3 10048 33
3 10049 10
3 10050 15
3 10051 10
3 10052 23
3 10053 9
3 10054 13
3 10055 68
3 10056 94
3 10057 8
3 10058 56
3 10059 112
3 10060 10
3 10061 11
3 10062 16
3 10063 205
3 10064 20
3 10065 62
3 10066 56
3 10067 35
3 10068 10
3 10069 30
3 10070 137
3 10071 15
3 10072 53
3 10073 13
3 10074 36
3 10075 52
3 10076 70
3 10077 19
3 10078 7
3 10079 6
3 10080 13
3 10081 6
3 10082 19
3 10083 1006
3 10084 81
3 10085 80
3 10086 110
3 10087 11
3 10088 8
3 10089 93
3 10090 11
3 10091 21
3 10092 18
3 10093 66
3 10094 8
3 10095 121
3 10096 10
3 10097 140
3 10098 15
3 10099 71
3 10100 7
3 10101 13
3 10102 9
3 10103 8
3 10104 9
3 10105 10
3 10106 6
3 10107 28
3 10108 17
3 10109 1
3 10110 13
3 10111 24
3 10112 28
3 10113 12
3 10114 9
3 10115 9
3 10116 81
3 10117 5
3 10118 31
3 10119 80
3 10120 7
3 10121 16
3 10122 11
3 10123 7
3 10124 13
3 10125 16
3 10126 98
3 10127 10
3 10128 7
3 10129 15
3 10130 10
3 10131 14
3 10132 11
3 10133 12
3 10134 5
3 10135 12
3 10136 9
3 10137 8
3 10138 16
3 10139 6
3 10140 6
3 10141 4
3 10142 22
3 10143 10
3 10144 15
3 10145 35
3 10146 10
3 10147 14
3 10148 12
3 10149 45
3 10150 6
3 10151 5
3 10152 15
3 10153 12
3 10154 32
3 10155 8
3 10156 19
3 10157 29
3 10158 9
3 10159 108
3 10160 18
3 10161 10
3 10162 34
3 10163 24
3 10164 10
3 10165 16
3 10166 19
3 10167 26
3 10168 22
3 10169 9
3 10170 6
3 10171 100
3 10172 22
3 10173 4
3 10174 6
3 10175 59
3 10176 11
3 10177 21
3 10178 137
3 10179 13
3 10180 10
3 10181 36
3 10182 36
3 10183 14
3 10184 14
3 10185 9
3 10186 15
3 10187 17
3 10188 61
3 10189 54
3 10190 4
3 10191 17
3 10192 16
3 10193 8
3 10194 7
3 10195 8
3 10196 12
3 10197 24
3 10198 12
3 10199 23
3 10200 60
3 10201 63
3 10202 19
3 10203 3
3 10204 11
3 10205 15
3 10206 7
3 10207 8
3 10208 9
3 10209 7
3 10210 7
3 10211 9
3 10212 9
3 10213 60
3 10214 13
3 10215 15
3 10216 9
3 10217 2
3 10218 8
3 10219 24
3 10220 11
3 10221 41
3 10222 38
3 10223 8
3 10224 6
3 10225 16
3 10226 12
3 10227 18
3 10228 34
3 10229 15
3 10230 7
3 10231 10
3 10232 8
3 10233 11
3 10234 4
3 10235 12
3 10236 11
3 10237 5
3 10238 2
3 10239 12
3 10240 2
3 10241 16
3 10242 59
3 10243 58
3 10244 8
3 10245 6
3 10246 11
3 10247 56
3 10248 8
3 10249 16
3 10250 11
3 10251 8
3 10252 37
3 10253 2
3 10254 40
3 10255 14
3 10256 24
3 10257 11
3 10258 14
3 10259 16
3 10260 3
3 10261 10
3 10262 3
3 10263 56
3 10264 54
3 10265 6
3 10266 3
3 10267 8
3 10268 101
3 10269 46
3 10270 12
3 10271 6
3 10272 62
3 10273 74
3 10274 29
3 10275 7
3 10276 12
3 10277 14
3 10278 27
3 10279 16
3 10280 20
3 10281 23
3 10282 10
3 10283 8
3 10284 51
3 10285 61
3 10286 10
3 10287 8
3 10288 69
3 10289 16
3 10290 63
3 10291 18
3 10292 8
3 10293 36
3 10294 90
3 10295 8
3 10296 57
3 10297 12
3 10298 9
3 10299 35
3 10300 8
3 10301 27
3 10302 13
3 10303 10
3 10304 15
3 10305 17
3 10306 20
3 10307 16
3 10308 13
3 10309 14
3 10310 4
3 10311 9
3 10312 135
3 10313 10
3 10314 12
3 10315 8
3 10316 12
3 10317 3
3 10318 11
3 10319 15
3 10320 3
3 10321 3
3 10322 2
3 10323 8
3 10324 8
3 10325 26
3 10326 4
3 10327 6
3 10328 44
3 10329 15
3 10330 11
3 10331 33
3 10332 6
3 10333 9
3 10334 80
3 10335 9
3 10336 11
3 10337 13
3 10338 5
3 10339 10
3 10340 5
3 10341 7
3 10342 10
3 10343 7
3 10344 3
3 10345 51
3 10346 44
3 10347 8
3 10348 10
3 10349 22
3 10350 14
3 10351 60
3 10352 30
3 10353 14
3 10354 11
3 10355 3
3 10356 15
3 10357 21
3 10358 9
3 10359 11
3 10360 8
3 10361 4
3 10362 8
3 10363 5
3 10364 31
3 10365 24
3 10366 379
3 10367 32
3 10368 18
3 10369 21
3 10370 12
3 10371 7
3 10372 21
3 10373 12
3 10374 12
3 10375 58
3 10376 7
3 10377 16
3 10378 2
3 10379 5
3 10380 6
3 10381 108
3 10382 9
3 10383 69
3 10384 7
3 10385 11
3 10386 8
3 10387 14
3 10388 33
3 10389 16
3 10390 64
3 10391 19
3 10392 76
3 10393 11
3 10394 57
3 10395 68
3 10396 29
3 10397 28
3 10398 72
3 10399 20
3 10400 5
3 10401 6
3 10402 4
3 10403 19
3 10404 70
3 10405 91
3 10406 8
3 10407 42
3 10408 53
3 10409 11
3 10410 13
3 10411 16
3 10412 4
3 10413 18
3 10414 14
3 10415 81
3 10416 35
3 10417 13
3 10418 64
3 10419 69
3 10420 19
3 10421 11
3 10422 11
3 10423 18
3 10424 93
3 10425 11
3 10426 9
3 10427 16
3 10428 46
3 10429 15
3 10430 16
3 10431 9
3 10432 11
3 10433 30
3 10434 17
3 10435 13
3 10436 18
3 10437 14
3 10438 15
3 10439 7
3 10440 18
3 10441 65
3 10442 9
3 10443 7
3 10444 19
3 10445 13
3 10446 19
3 10447 75
3 10448 17
3 10449 17
3 10450 18
3 10451 12
3 10452 12
3 10453 78
3 10454 13
3 10455 13
3 10456 66
3 10457 48
3 10458 59
3 10459 39
3 10460 20
3 10461 17
3 10462 31
3 10463 27
3 10464 29
3 10465 57
3 10466 35
3 10467 4
3 10468 25
3 10469 90
3 10470 9
3 10471 11
3 10472 36
3 10473 7
3 10474 28
3 10475 19
3 10476 9
3 10477 112
3 10478 27
3 10479 24
3 10480 53
3 10481 8
3 10482 19
3 10483 12
3 10484 8
3 10485 9
3 10486 15
3 10487 52
3 10488 20
3 10489 15
3 10490 53
3 10491 12
3 10492 10
3 10493 10
3 10494 15
3 10495 1
3 10496 161
3 10497 80
3 10498 14
3 10499 16
3 10500 8
3 10501 10
3 10502 72
3 10503 31
3 10504 18
3 10505 10
3 10506 74
3 10507 47
3 10508 15
3 10509 26
3 10510 74
3 10511 29
3 10512 15
3 10513 62
3 10514 18
3 10515 30
3 10516 10
3 10517 20
3 10518 43
3 10519 154
3 10520 15
3 10521 8
3 10522 8
3 10523 7
3 10524 10
3 10525 111
3 10526 24
3 10527 18
3 10528 90
3 10529 3
3 10530 5
3 10531 53
3 10532 5
3 10533 5
3 10534 9
3 10535 6
3 10536 16
3 10537 13
3 10538 3
3 10539 11
3 10540 11
3 10541 35
3 10542 56
3 10543 20
3 10544 21
3 10545 8
3 10546 9
3 10547 62
3 10548 8
3 10549 25
3 10550 27
3 10551 289
3 10552 7
3 10553 7
3 10554 10
3 10555 16
3 10556 16
3 10557 8
3 10558 78
3 10559 102
3 10560 9
3 10561 14
3 10562 94
3 10563 4
3 10564 31
3 10565 17
3 10566 9
3 10567 14
3 10568 5
3 10569 10
3 10570 13
3 10571 15
3 10572 9
3 10573 16
3 10574 74
3 10575 13
3 10576 3
3 10577 5
3 10578 13
3 10579 11
3 10580 8
3 10581 9
3 10582 11
3 10583 4
3 10584 12
3 10585 28
3 10586 49
3 10587 9
3 10588 62
3 10589 17
3 10590 35
3 10591 16
3 10592 9
3 10593 15
3 10594 58
3 10595 7
3 10596 12
3 10597 10
3 10598 26
3 10599 21
3 10600 29
3 10601 17
3 10602 23
3 10603 16
3 10604 12
3 10605 8
3 10606 58
3 10607 432
3 10608 18
3 10609 7
3 10610 57
3 10611 10
3 10612 25
3 10613 11
3 10614 25
3 10615 56
3 10616 6
3 10617 11
3 10618 30
3 10619 903
3 10621 10
3 10622 15
3 10623 9
3 10624 18
3 10625 218
3 10626 5
3 10627 9
3 10628 24
3 10629 20
3 10630 8
3 10631 20
3 10632 133
3 10633 36
3 10634 21
3 10635 6
3 10636 10
3 10637 57
3 10638 39
3 10639 4
3 10640 9
3 10641 47
3 10642 61
3 10643 150
3 10644 53
3 10645 14
3 10646 10
3 10647 39
3 10648 631
3 10649 12
3 10650 7
3 10651 2
3 10652 225
3 10653 41
3 10654 12
3 10655 15
3 10656 14
3 10657 12
3 10658 18
3 10659 120
3 10660 16
3 10661 490
3 10662 201
3 10663 17
3 10664 112
3 10665 46
3 10666 88
3 10667 7
3 10668 12
3 10669 64
3 10670 9
3 10671 11
3 10672 14
3 10673 24
3 10674 44
3 10675 78
3 10676 5
3 10677 15
3 10678 46
3 10679 23
3 10680 16
3 10681 6
3 10682 11
3 10683 10
3 10684 94
3 10685 6
3 10686 17
3 10687 33
3 10688 21
3 10689 6
3 10690 61
3 10691 12
3 10692 32
3 10693 30
3 10694 9
3 10695 15
3 10696 24
3 10697 14
3 10698 6
3 10699 10
3 10700 10
3 10701 8
3 10702 19
3 10703 8
3 10704 21
3 10705 24
3 10706 31
3 10707 2
3 10708 22
3 10709 12
3 10710 18
3 10711 17
3 10712 14
3 10713 28
3 10714 8
3 10715 8
3 10716 9
3 10717 89
3 10718 18
3 10719 14
3 10720 10
3 10721 79
3 10722 10
3 10723 14
3 10724 4
3 10725 93
3 10726 103
3 10727 67
3 10728 18
3 10729 16
3 10730 10
3 10731 4
3 10732 13
3 10733 104
3 10734 25
3 10735 35
3 10736 24
3 10737 9
3 10738 17
3 10739 14
3 10740 21
3 10741 70
3 10742 5
3 10743 17
3 10744 6
3 10745 16
3 10746 8
3 10747 69
3 10748 68
3 10749 19
3 10750 60
3 10751 20
3 10752 13
3 10753 72
3 10754 19
3 10755 17
3 10756 7
3 10757 8
3 10758 12
3 10759 67
3 10760 4
3 10761 21
3 10762 18
3 10763 10
3 10764 83
3 10765 51
3 10766 11
3 10767 22
3 10768 30
3 10769 26
3 10770 18
3 10771 11
3 10772 17
3 10773 139
3 10774 8
3 10775 42
3 10776 20
3 10777 202
3 10778 10
3 10779 73
3 10780 1050
3 10781 49
3 10782 11
3 10783 14
3 10784 14
3 10785 29
3 10786 12
3 10787 12
3 10788 14
3 10789 13
3 10790 826
3 10791 13
3 10792 16
3 10793 10
3 10794 8
3 10795 26
3 10796 16
3 10797 85
3 10798 14
3 10799 22
3 10800 10
3 10801 7
3 10802 12
3 10803 95
3 10804 20
3 10805 19
3 10806 18
3 10807 18
3 10808 14
3 10809 28
3 10810 9
3 10811 42
3 10812 24
3 10813 18
3 10814 73
3 10815 22
3 10816 37
3 10817 1
3 10818 15
3 10819 66
3 10820 6
3 10821 160
3 10822 108
3 10823 7
3 10824 11
3 10825 16
3 10826 5
3 10827 25
3 10828 154
3 10829 81
3 10830 21
3 10831 16
3 10832 79
3 10833 7
3 10834 34
3 10835 6
3 10836 4
3 10837 40
3 10838 8
3 10839 23
3 10840 14
3 10841 16
3 10842 9
3 10843 8
3 10844 50
3 10845 12
3 10846 13
3 10847 58
3 10848 14
3 10849 11
3 10850 12
3 10851 15
3 10852 17
3 10853 16
3 10854 43
3 10855 16
3 10856 8
3 10857 95
3 10858 23
3 10859 15
3 10860 15
3 10861 16
3 10862 36
3 10863 52
3 10864 11
3 10865 65
3 10866 18
3 10867 49
3 10868 78
3 10869 8
3 10870 20
3 10871 14
3 10872 11
3 10873 7
3 10874 16
3 10875 24
3 10876 5
3 10877 169
3 10878 17
3 10879 11
3 10880 12
3 10881 23
3 10882 37
3 10883 15
3 10884 11
3 10885 11
3 10886 6
3 10887 19
3 10888 9
3 10889 10
3 10890 67
3 10891 13
3 10892 91
3 10893 13
3 10894 47
3 10895 118
3 10896 11
3 10897 28
3 10898 13
3 10899 20
3 10900 9
3 10901 51
3 10902 15
3 10903 5
3 10904 109
3 10905 11
3 10906 41
3 10907 36
3 10908 11
3 10909 9
3 10910 50
3 10911 11
3 10912 18
3 10913 10
3 10914 15
3 10915 9
3 10916 16
3 10917 13
3 10918 88
3 10919 15
3 10920 14
3 10921 21
3 10922 19
3 10923 13
3 10924 54
3 10925 38
3 10926 20
3 10927 7
3 10928 13
3 10929 12
3 10930 10
3 10931 20
3 10932 36
3 10933 18
3 10934 48
3 10935 74
3 10936 27
3 10937 8
3 10938 16
3 10939 8
3 10940 22
3 10941 12
3 10942 9
3 10943 6
3 10944 13
3 10945 20
3 10946 16
3 10947 8
3 10948 20
3 10949 11
3 10950 9
3 10951 21
3 10952 11
3 10953 10
3 10954 14
3 10955 12
3 10956 21
3 10957 51
3 10958 18
3 10959 11
3 10960 99
3 10961 6
3 10962 26
3 10963 21
3 10964 34
3 10965 8
3 10966 9
3 10967 54
3 10968 85
3 10969 51
3 10970 9
3 10971 14
3 10972 30
3 10973 7
3 10974 12
3 10975 16
3 10976 12
3 10977 23
3 10978 106
3 10979 17
3 10980 20
3 10981 10
3 10982 64
3 10983 8
3 10984 33
3 10985 14
3 10986 12
3 10987 16
3 10988 23
3 10989 69
3 10990 77
3 10991 12
3 10992 164
3 10993 80
3 10994 11
3 10995 5
3 10996 12
3 10997 14
3 10998 5
3 10999 47
3 11000 85
3 11001 47
3 11002 20
3 11003 58
3 11004 16
3 11005 7
3 11006 10
3 11007 33
3 11008 9
3 11009 16
3 11010 14
3 11011 44
3 11012 6
3 11013 14
3 11014 76
3 11015 6
3 11016 12
3 11017 16
3 11018 52
3 11019 52
3 11020 12
3 11021 17
3 11022 17
3 11023 12
3 11024 14
3 11025 16
3 11026 16
3 11027 14
3 11028 14
3 11029 94
3 11030 16
3 11031 81
3 11032 7
3 11033 17
3 11034 13
3 11035 54
3 11036 93
3 11037 28
3 11038 21
3 11039 10
3 11040 6
3 11041 16
3 11042 8
3 11043 14
3 11044 10
3 11045 9
3 11046 87
3 11047 63
3 11048 81
3 11049 18
3 11050 17
3 11051 18
3 11052 17
3 11053 112
3 11054 16
3 11055 12
3 11056 29
3 11057 20
3 11058 9
3 11059 61
3 11060 3
3 11061 28
3 11062 11
3 11063 61
3 11064 61
3 11065 37
3 11066 10
3 11067 41
3 11068 6
3 11069 7
3 11070 10
3 11071 9
3 11072 10
3 11073 17
3 11074 5
3 11075 13
3 11076 16
3 11077 39
3 11078 30
3 11079 9
3 11080 47
3 11081 14
3 11082 15
3 11083 38
3 11084 18
3 11085 13
3 11086 277
3 11087 42
3 11088 34
3 11089 111
3 11090 11
3 11091 12
3 11092 101
3 11093 8
3 11094 36
3 11095 13
3 11096 6
3 11097 7
3 11098 48
3 11099 19
3 11100 9
3 11101 11
3 11102 11
3 11103 12
3 11104 12
3 11105 38
3 11106 3
3 11107 44
3 11108 7
3 11109 29
3 11110 9
3 11111 14
3 11112 995
3 11113 18
3 11114 85
3 11115 9
3 11116 16
3 11117 12
3 11118 13
3 11119 12
3 11120 93
3 11121 27
3 11122 5
3 11123 8
3 11124 21
3 11125 14
3 11126 22
3 11127 9
3 11128 62
3 11129 8
3 11130 15
3 11131 8
3 11132 17
3 11133 17
3 11134 18
3 11135 12
3 11136 5
3 11137 50
3 11138 49
3 11139 13
3 11140 8
3 11141 11
3 11142 2
3 11143 177
3 11144 10
3 11145 9
3 11146 32
3 11147 10
3 11148 18
3 11149 61
3 11150 15
3 11151 12
3 11152 11
3 11153 9
3 11154 5
3 11155 23
3 11156 161
3 11157 9
3 11158 388
3 11159 16
3 11160 18
3 11161 7
3 11162 32
3 11163 39
3 11164 11
3 11165 10
3 11166 101
3 11167 58
3 11168 18
3 11169 13
3 11170 46
3 11171 13
3 11172 18
3 11173 10
3 11174 10
3 11175 7
3 11176 92
3 11177 134
3 11178 9
3 11179 11
3 11180 27
3 11181 6
3 11182 4
3 11183 12
3 11184 12
3 11185 15
3 11186 72
3 11187 62
3 11188 14
3 11189 6
3 11190 14
3 11191 22
3 11192 30
3 11193 67
3 11194 47
3 11195 14
3 11196 8
3 11197 10
3 11198 6
3 11199 24
3 11200 7
3 11201 11
3 11202 13
3 11203 90
3 11204 81
3 11205 15
3 11206 11
3 11207 11
3 11208 126
3 11209 16
3 11210 9
3 11211 20
3 11212 17
3 11213 11
3 11214 14
3 11215 9
3 11216 27
3 11217 33
3 11218 20
3 11219 11
3 11220 23
3 11221 64
3 11222 14
3 11223 65
3 11224 10
3 11225 22
3 11226 13
3 11227 11
3 11228 7
3 11229 11
3 11230 47
3 11231 12
3 11232 11
3 11233 64
3 11234 12
3 11235 42
3 11236 12
3 11237 98
3 11238 11
3 11239 16
3 11240 6
3 11241 18
3 11242 28
3 11243 188
3 11244 48
3 11245 18
3 11246 77
3 11247 47
3 11248 41
3 11249 17
3 11250 13
3 11251 95
3 11252 77
3 11253 21
3 11254 30
3 11255 45
3 11256 9
3 11257 59
3 11258 12
3 11259 11
3 11260 108
3 11261 18
3 11262 41
3 11263 9
3 11264 9
3 11265 13
3 11266 9
3 11267 12
3 11268 11
3 11269 17
3 11270 20
3 11271 7
3 11272 16
3 11273 13
3 11274 15
3 11275 60
3 11276 16
3 11277 13
3 11278 6
3 11279 18
3 11280 13
3 11281 22
3 11282 49
3 11283 3
3 11284 14
3 11285 8
3 11286 9
3 11287 42
3 11288 23
3 11289 49
3 11290 27
3 11291 17
3 11292 14
3 11293 211
3 11294 41
3 11295 8
3 11296 6
3 11297 11
3 11298 13
3 11299 11
3 11300 8
3 11301 14
3 11302 53
3 11303 8
3 11304 15
3 11305 7
3 11306 15
3 11307 10
3 11308 112
3 11309 6
3 11310 19
3 11311 101
3 11312 16
3 11313 15
3 11314 10
3 11315 38
3 11316 7
3 11317 13
3 11318 9
3 11319 9
3 11320 79
3 11321 3
3 11322 17
3 11323 13
3 11324 18
3 11325 11
3 11326 41
3 11327 11
3 11328 16
3 11329 7
3 11330 18
3 11331 6
3 11332 13
3 11333 116
3 11334 13
3 11335 12
3 11336 97
3 11337 37
3 11338 104
3 11339 60
3 11340 12
3 11341 6
3 11342 17
3 11343 6
3 11344 16
3 11345 12
3 11346 4
3 11347 9
3 11348 19
3 11349 80
3 11350 10
3 11351 40
3 11352 10
3 11353 25
3 11354 9
3 11355 5
3 11356 25
3 11357 4
3 11358 54
3 11359 66
3 11360 11
3 11361 16
3 11362 78
3 11363 74
3 11364 9
3 11365 6
3 11366 3
3 11367 9
3 11368 224
3 11369 6
3 11370 77
3 11371 9
3 11372 35
3 11373 14
3 11374 12
3 11375 66
3 11376 7
3 11377 12
3 11378 11
3 11379 6
3 11380 28
3 11381 202
3 11382 74
3 11383 63
3 11384 11
3 11385 7
3 11386 39
3 11387 992
3 11388 117
3 11389 7
3 11390 18
3 11391 9
3 11392 24
3 11393 71
3 11394 36
3 11395 24
3 11396 29
3 11397 14
3 11398 66
3 11399 37
3 11400 9
3 11401 6
3 11402 12
3 11403 10
3 11404 12
3 11405 16
3 11406 7
3 11407 5
3 11408 8
3 11409 106
3 11410 13
3 11411 58
3 11412 6
3 11413 174
3 11414 11
3 11415 52
3 11416 38
3 11417 15
3 11418 17
3 11419 80
3 11420 12
3 11421 11
3 11422 8
3 11423 74
3 11424 18
3 11425 5
3 11426 11
3 11427 13
3 11428 31
3 11429 7
3 11430 7
3 11431 10
3 11432 20
3 11433 8
3 11434 24
3 11435 8
3 11436 87
3 11437 15
3 11438 5
3 11439 8
3 11440 8
3 11441 111
3 11442 12
3 11443 19
3 11444 34
3 11445 7
3 11446 26
3 11447 7
3 11448 12
3 11449 7
3 11450 14
3 11451 13
3 11452 39
3 11453 96
3 11454 17
3 11455 50
3 11456 69
3 11457 81
3 11458 8
3 11459 12
3 11460 47
3 11461 11
3 11462 11
3 11463 7
3 11464 12
3 11465 8
3 11466 10
3 11467 48
3 11468 8
3 11469 44
3 11470 52
3 11471 85
3 11472 13
3 11473 13
3 11474 13
3 11475 61
3 11476 35
3 11477 15
3 11478 8
3 11479 18
3 11480 1115
3 11481 11
3 11482 5
3 11483 7
3 11484 55
3 11485 7
3 11486 15
3 11487 9
3 11488 63
3 11489 57
3 11490 57
3 11491 30
3 11492 6
3 11493 25
3 11494 12
3 11495 7
3 11496 10
3 11497 41
3 11498 17
3 11499 6
3 11500 14
3 11501 5
3 11502 7
3 11503 4
3 11504 7
3 11505 7
3 11506 964
3 11507 4
3 11508 6
3 11509 24
3 11510 4
3 11511 6
3 11512 98
3 11513 18
3 11514 9
3 11515 7
3 11516 11
3 11517 8
3 11518 4
3 11519 3
3 11521 9
3 11522 268
3 11523 6
3 11524 33
3 11525 209
3 11526 8
3 11527 11
3 11528 11
3 11529 12
3 11530 9
3 11531 64
3 11532 6
3 11533 42
3 11534 13
3 11535 12
3 11536 52
3 11537 4
3 11538 82
3 11539 15
3 11540 3
3 11541 81
3 11542 58
3 11543 20
3 11544 4
3 11545 34
3 11546 44
3 11547 15
3 11548 6
3 11549 26
3 11550 20
3 11551 19
3 11552 76
3 11553 20
3 11554 13
3 11555 11
3 11556 24
3 11557 12
3 11558 20
3 11559 10
3 11560 21
3 11561 29
3 11562 11
3 11563 9
3 11564 72
3 11565 12
3 11566 18
3 11567 21
3 11568 14
3 11569 16
3 11570 16
3 11571 55
3 11572 39
3 11573 9
3 11574 12
3 11575 20
3 11576 19
3 11577 13
3 11578 11
3 11579 9
3 11580 59
3 11581 13
3 11582 47
3 11583 4
3 11584 9
3 11585 7
3 11586 8
3 11587 12
3 11588 10
3 11589 44
3 11590 15
3 11591 21
3 11592 7
3 11593 10
3 11594 98
3 11595 8
3 11596 61
3 11597 15
3 11598 41
3 11599 15
3 11600 3
3 11601 11
3 11602 56
3 11603 18
3 11604 11
3 11605 5
3 11606 2
3 11607 3
3 11608 8
3 11609 7
3 11610 20
3 11611 23
3 11612 11
3 11613 71
3 11614 8
3 11615 9
3 11616 20
3 11617 61
3 11618 36
3 11619 9
3 11620 63
3 11621 13
3 11622 39
3 11623 10
3 11624 10
3 11625 28
3 11626 11
3 11627 21
3 11628 6
3 11629 16
3 11630 16
3 11631 19
3 11632 18
3 11633 63
3 11634 10
3 11635 43
3 11636 48
3 11637 15
3 11638 11
3 11639 8
3 11640 16
3 11641 41
3 11642 68
3 11643 19
3 11644 5
3 11645 12
3 11646 20
3 11647 11
3 11648 12
3 11649 12
3 11650 13
3 11651 23
3 11652 12
3 11653 4
3 11654 17
3 11655 11
3 11656 10
3 11657 28
3 11658 16
3 11659 65
3 11660 58
3 11661 13
3 11662 20
3 11663 68
3 11664 997
3 11665 21
3 11666 35
3 11667 120
3 11668 14
3 11669 19
3 11670 10
3 11671 24
3 11672 991
3 11673 10
3 11674 82
3 11675 15
3 11676 32
3 11677 8
3 11678 19
3 11679 1
3 11680 39
3 11681 24
3 11682 21
3 11683 15
3 11684 12
3 11685 20
3 11686 24
3 11687 15
3 11688 9
3 11689 21
3 11690 10
3 11691 20
3 11692 10
3 11693 45
3 11694 25
3 11695 7
3 11696 1019
3 11697 15
3 11698 63
3 11699 17
3 11700 12
3 11701 11
3 11702 6
3 11703 67
3 11704 54
3 11705 8
3 11706 25
3 11707 24
3 11708 40
3 11709 103
3 11710 78
3 11711 17
3 11712 29
3 11713 179
3 11714 22
3 11715 18
3 11716 14
3 11717 143
3 11718 6
3 11719 57
3 11720 15
3 11721 15
3 11722 186
3 11723 8
3 11724 8
3 11725 18
3 11726 9
3 11727 6
3 11728 24
3 11729 35
3 11730 12
3 11731 28
3 11732 7
3 11733 11
3 11734 11
3 11735 7
3 11736 13
3 11737 37
3 11738 19
3 11739 27
3 11740 10
3 11741 6
3 11742 50
3 11743 25
3 11744 26
3 11745 10
3 11746 7
3 11747 57
3 11748 13
3 11749 34
3 11750 21
3 11751 14
3 11752 10
3 11753 9
3 11754 15
3 11755 37
3 11756 13
3 11757 151
3 11758 8
3 11759 17
3 11760 81
3 11761 11
3 11762 31
3 11763 16
3 11764 52
3 11765 109
3 11766 119
3 11767 9
3 11768 15
3 11769 15
3 11770 11
3 11771 6
3 11772 17
3 11773 9
3 11774 11
3 11775 33
3 11776 22
3 11777 15
3 11778 9
3 11779 6
3 11780 32
3 11781 11
3 11782 4
3 11784 5
3 11785 5
3 11786 2
3 11787 9
3 11788 18
3 11789 7
3 11790 4
3 11791 14
3 11792 13
3 11793 57
3 11794 34
3 11795 15
3 11796 20
3 11797 26
3 11798 15
3 11799 53
3 11800 8
3 11801 8
3 11802 15
3 11803 28
3 11804 11
3 11805 10
3 11806 12
3 11807 13
3 11808 5
3 11809 18
3 11810 13
3 11811 14
3 11812 15
3 11813 77
3 11814 11
3 11815 1
3 11816 26
3 11817 80
3 11818 18
3 11819 11
3 11820 4
3 11821 14
3 11822 12
3 11823 79
3 11824 12
3 11825 14
3 11826 5
3 11827 12
3 11828 15
3 11829 21
3 11830 33
3 11831 10
3 11832 17
3 11833 11
3 11834 117
3 11835 7
3 11836 18
3 11837 95
3 11838 25
3 11839 121
3 11840 18
3 11841 8
3 11842 16
3 11843 11
3 11844 8
3 11845 27
3 11846 10
3 11847 13
3 11848 2
3 11849 15
3 11850 42
3 11851 20
3 11852 31
3 11853 6
3 11854 7
3 11855 19
3 11856 8
3 11857 14
3 11858 9
3 11859 11
3 11860 24
3 11861 33
3 11862 11
3 11863 10
3 11864 79
3 11865 35
3 11866 14
3 11867 13
3 11868 16
3 11869 10
3 11870 33
3 11871 44
3 11872 89
3 11873 8
3 11874 23
3 11875 6
3 11876 6
3 11877 19
3 11878 54
3 11879 2
3 11880 12
3 11881 65
3 11882 52
3 11883 41
3 11884 13
3 11885 16
3 11886 9
3 11887 16
3 11888 9
3 11889 58
3 11890 9
3 11891 36
3 11892 19
3 11893 16
3 11894 22
3 11895 9
3 11896 18
3 11897 51
3 11898 8
3 11899 11
3 11900 43
3 11901 352
3 11902 15
3 11903 91
3 11904 37
3 11905 104
3 11906 85
3 11907 12
3 11908 14
3 11909 15
3 11910 59
3 11911 8
3 11912 23
3 11913 12
3 11914 14
3 11915 94
3 11916 32
3 11917 42
3 11918 109
3 11919 7
3 11920 16
3 11921 9
3 11922 10
3 11923 19
3 11924 109
3 11925 19
3 11926 28
3 11927 8
3 11928 8
3 11929 19
3 11930 9
3 11931 70
3 11932 5
3 11933 62
3 11934 54
3 11935 9
3 11936 24
3 11937 10
3 11938 12
3 11939 21
3 11940 13
3 11941 14
3 11942 12
3 11943 13
3 11944 8
3 11945 121
3 11946 94
3 11947 10
3 11948 14
3 11949 248
3 11950 22
3 11951 12
3 11952 56
3 11953 19
3 11954 6
3 11955 15
3 11956 70
3 11957 10
3 11958 90
3 11959 15
3 11960 47
3 11961 20
3 11962 87
3 11963 9
3 11964 15
3 11965 996
3 11966 49
3 11967 10
3 11968 11
3 11969 27
3 11970 10
3 11971 65
3 11972 24
3 11973 34
3 11974 9
3 11975 12
3 11976 56
3 11977 14
3 11978 5
3 11979 72
3 11980 32
3 11981 80
3 11982 18
3 11983 13
3 11984 20
3 11985 29
3 11986 13
3 11987 48
3 11988 11
3 11989 16
3 11990 19
3 11991 27
3 11992 9
3 11993 6
3 11994 14
3 11995 20
3 11996 13
3 11997 110
3 11998 170
3 11999 8
3 12000 35
3 12001 26
3 12002 15
3 12003 80
3 12004 67
3 12005 8
3 12006 13
3 12007 16
3 12008 991
3 12009 53
3 12010 7
3 12011 12
3 12012 10
3 12013 22
3 12014 9
3 12015 80
3 12016 10
3 12017 10
3 12018 53
3 12019 12
3 12020 21
3 12021 13
3 12022 78
3 12023 14
3 12024 21
3 12025 17
3 12026 13
3 12027 14
3 12028 71
3 12029 83
3 12030 10
3 12031 27
3 12032 49
3 12033 2
3 12034 83
3 12035 11
3 12036 7
3 12037 22
3 12038 93
3 12039 2
3 12040 18
3 12041 33
3 12042 35
3 12043 14
3 12044 38
3 12045 11
3 12046 12
3 12047 7
3 12048 11
3 12049 130
3 12050 6
3 12051 10
3 12052 52
3 12053 17
3 12054 10
3 12055 10
3 12056 74
3 12057 17
3 12058 23
3 12059 13
3 12060 8
3 12061 24
3 12062 13
3 12063 7
3 12064 30
3 12065 59
3 12066 46
3 12067 89
3 12068 49
3 12069 111
3 12070 101
3 12071 11
3 12072 75
3 12073 25
3 12074 29
3 12075 9
3 12076 5
3 12077 15
3 12078 14
3 12079 19
3 12080 16
3 12081 4
3 12082 9
3 12083 14
3 12084 15
3 12085 14
3 12086 16
3 12087 14
3 12088 16
3 12089 106
3 12090 11
3 12091 15
3 12092 12
3 12093 139
3 12094 45
3 12095 133
3 12096 18
3 12097 72
3 12098 8
3 12099 17
3 12100 59
3 12101 37
3 12102 9
3 12103 11
3 12104 19
3 12105 15
3 12106 11
3 12107 25
3 12108 14
3 12109 9
3 12110 14
3 12111 14
3 12112 57
3 12113 5
3 12114 23
3 12115 33
3 12116 8
3 12117 37
3 12118 68
3 12119 20
3 12120 5
3 12121 50
3 12122 20
3 12123 16
3 12124 6
3 12125 12
3 12126 64
3 12127 13
3 12128 87
3 12129 10
3 12130 24
3 12131 57
3 12132 13
3 12133 22
3 12134 10
3 12135 14
3 12136 10
3 12137 6
3 12138 15
3 12139 17
3 12140 7
3 12141 151
3 12142 18
3 12143 8
3 12144 15
3 12145 41
3 12146 42
3 12147 13
3 12148 12
3 12149 30
3 12150 15
3 12151 13
3 12152 24
3 12153 28
3 12154 41
3 12155 22
3 12156 25
3 12157 10
3 12158 13
3 12159 1093
3 12160 21
3 12161 12
3 12162 15
3 12163 30
3 12164 1019
3 12165 11
3 12166 75
3 12167 12
3 12168 34
3 12169 12
3 12170 403
3 12171 999
3 12172 7
3 12173 12
3 12174 69
3 12175 17
3 12176 11
3 12177 61
3 12178 29
3 12179 22
3 12180 66
3 12181 19
3 12182 11
3 12183 41
3 12184 15
3 12185 10
3 12186 67
3 12187 11
3 12188 11
3 12189 11
3 12190 15
3 12191 17
3 12192 17
3 12193 19
3 12194 45
3 12195 12
3 12196 70
3 12197 110
3 12198 22
3 12199 6
3 12200 7
3 12201 62
3 12202 40
3 12203 11
3 12204 56
3 12205 8
3 12206 8
3 12207 14
3 12208 178
3 12209 11
3 12210 7
3 12211 21
3 12212 22
3 12213 16
3 12214 10
3 12215 19
3 12216 12
3 12217 12
3 12218 39
3 12219 7
3 12220 13
3 12221 8
3 12222 8
3 12223 8
3 12224 13
3 12225 60
3 12226 685
3 12227 244
3 12228 8
3 12229 57
3 12230 48
3 12231 77
3 12232 108
3 12233 10
3 12234 18
3 12235 8
3 12236 8
3 12237 2
3 12238 5
3 12239 13
3 12240 21
3 12241 41
3 12242 112
3 12243 19
3 12244 136
3 12245 138
3 12246 16
3 12247 26
3 12248 20
3 12249 40
3 12250 19
3 12251 8
3 12252 28
3 12253 92
3 12254 5
3 12255 29
3 12256 11
3 12257 161
3 12258 20
3 12259 25
3 12260 6
3 12261 69
3 12262 12
3 12263 28
3 12264 17
3 12265 11
3 12266 15
3 12267 12
3 12268 20
3 12269 19
3 12270 14
3 12271 8
3 12272 14
3 12273 9
3 12274 51
3 12275 5
3 12276 8
3 12277 78
3 12278 79
3 12279 16
3 12280 6
3 12281 55
3 12282 8
3 12283 29
3 12284 14
3 12285 6
3 12286 11
3 12287 6
3 12288 9
3 12289 10
3 12290 38
3 12291 7
3 12292 71
3 12293 132
3 12294 44
3 12295 52
3 12296 17
3 12297 48
3 12298 18
3 12299 19
3 12300 11
3 12301 19
3 12302 7
3 12303 11
3 12304 27
3 12305 13
3 12306 14
3 12307 16
3 12308 64
3 12309 15
3 12310 9
3 12311 9
3 12312 7
3 12313 22
3 12314 16
3 12315 50
3 12316 7
3 12317 40
3 12318 4
3 12319 49
3 12320 12
3 12321 18
3 12322 23
3 12323 42
3 12324 75
3 12325 85
3 12326 17
3 12327 12
3 12328 14
3 12329 157
3 12330 11
3 12331 88
3 12332 12
3 12333 9
3 12334 13
3 12335 9
3 12336 12
3 12337 20
3 12338 20
3 12339 18
3 12340 14
3 12341 12
3 12342 7
3 12343 36
3 12344 48
3 12345 12
3 12346 34
3 12347 7
3 12348 7
3 12349 13
3 12350 15
3 12351 13
3 12352 12
3 12353 65
3 12354 186
3 12355 13
3 12356 11
3 12357 12
3 12358 24
3 12359 12
3 12360 10
3 12361 9
3 12362 16
3 12363 13
3 12364 52
3 12365 11
3 12366 16
3 12367 17
3 12368 63
3 12369 4
3 12370 16
3 12371 5
3 12372 10
3 12373 78
3 12374 62
3 12375 9
3 12376 90
3 12377 92
3 12378 271
3 12379 72
3 12380 110
3 12381 140
3 12382 85
3 12383 6
3 12384 20
3 12385 27
3 12386 12
3 12387 10
3 12388 65
3 12389 9
3 12390 13
3 12391 10
3 12392 5
3 12393 11
3 12394 15
3 12395 15
3 12396 77
3 12397 114
3 12398 10
3 12399 58
3 12400 8
3 12401 44
3 12402 24
3 12403 8
3 12404 100
3 12405 15
3 12406 27
3 12407 18
3 12408 17
3 12409 12
3 12410 16
3 12411 12
3 12412 25
3 12413 17
3 12414 10
3 12415 11
3 12416 24
3 12417 74
3 12418 12
3 12419 10
3 12420 35
3 12421 3
3 12422 8
3 12423 76
3 12424 27
3 12425 44
3 12426 81
3 12427 4
3 12428 25
3 12429 9
3 12430 13
3 12431 81
3 12432 66
3 12433 23
3 12434 4
3 12435 26
3 12436 93
3 12437 18
3 12438 65
3 12439 8
3 12440 11
3 12441 14
3 12442 18
3 12443 17
3 12444 15
3 12445 5
3 12446 15
3 12447 10
3 12448 22
3 12449 7
3 12450 10
3 12451 7
3 12452 16
3 12453 9
3 12454 60
3 12455 9
3 12456 7
3 12457 19
3 12458 11
3 12459 16
3 12460 29
3 12461 9
3 12462 16
3 12463 17
3 12464 12
3 12465 11
3 12466 8
3 12467 23
3 12468 27
3 12469 14
3 12470 9
3 12471 14
3 12472 21
3 12473 10
3 12474 22
3 12475 15
3 12476 37
3 12477 68
3 12478 41
3 12479 13
3 12480 14
3 12481 9
3 12482 13
3 12483 10
3 12484 78
3 12485 10
3 12486 107
3 12487 19
3 12488 13
3 12489 9
3 12490 10
3 12491 15
3 12492 16
3 12493 8
3 12494 24
3 12495 13
3 12496 41
3 12497 10
3 12498 15
3 12499 57
3 12500 13
3 12501 15
3 12502 31
3 12503 16
3 12504 45
3 12506 10
3 12507 9
3 12508 12
3 12509 10
3 12510 74
3 12511 31
3 12512 117
3 12513 15
3 12514 60
3 12515 12
3 12516 14
3 12517 8
3 12518 22
3 12519 195
3 12520 45
3 12521 18
3 12522 42
3 12523 3
3 12524 10
3 12525 75
3 12526 7
3 12527 14
3 12528 33
3 12529 6
3 12530 12
3 12531 24
3 12532 26
3 12533 65
3 12534 77
3 12535 62
3 12536 118
3 12537 17
3 12538 13
3 12539 24
3 12540 11
3 12541 6
3 12542 12
3 12543 17
3 12544 9
3 12545 8
3 12546 10
3 12547 8
3 12548 23
3 12549 85
3 12550 19
3 12551 10
3 12552 13
3 12553 9
3 12554 160
3 12555 13
3 12556 9
3 12557 13
3 12558 11
3 12559 8
3 12560 14
3 12561 11
3 12562 10
3 12563 7
3 12564 15
3 12565 9
3 12566 19
3 12567 98
3 12568 16
3 12569 17
3 12570 49
3 12571 10
3 12572 53
3 12573 7
3 12574 16
3 12575 109
3 12576 9
3 12577 8
3 12578 15
3 12579 13
3 12580 16
3 12581 41
3 12582 12
3 12583 11
3 12584 16
3 12585 19
3 12586 101
3 12587 20
3 12588 11
3 12589 19
3 12590 18
3 12591 16
3 12592 25
3 12593 11
3 12594 18
3 12595 5
3 12596 44
3 12597 16
3 12598 11
3 12599 11
3 12600 7
3 12601 6
3 12602 10
3 12603 30
3 12604 11
3 12605 92
3 12606 9
3 12607 54
3 12608 8
3 12609 48
3 12610 6
3 12611 9
3 12612 72
3 12613 14
3 12614 12
3 12615 4
3 12616 18
3 12617 7
3 12618 46
3 12619 12
3 12620 61
3 12621 21
3 12622 14
3 12623 37
3 12624 66
3 12625 23
3 12626 14
3 12627 16
3 12628 37
3 12629 15
3 12630 6
3 12631 8
3 12632 15
3 12633 13
3 12634 34
3 12635 79
3 12636 10
3 12637 41
3 12638 11
3 12639 56
3 12640 18
3 12641 33
3 12642 12
3 12643 9
3 12644 5
3 12645 10
3 12646 17
3 12647 27
3 12648 11
3 12649 9
3 12650 27
3 12651 14
3 12652 23
3 12653 17
3 12654 40
3 12655 8
3 12656 13
3 12657 40
3 12658 8
3 12659 21
3 12660 17
3 12661 24
3 12662 9
3 12663 26
3 12664 32
3 12665 11
3 12666 23
3 12667 11
3 12668 50
3 12669 9
3 12670 57
3 12671 20
3 12672 19
3 12673 78
3 12674 68
3 12675 145
3 12676 10
3 12677 11
3 12678 13
3 12679 7
3 12680 24
3 12681 9
3 12682 19
3 12683 50
3 12684 6
3 12685 34
3 12686 10
3 12687 46
3 12688 86
3 12689 13
3 12690 56
3 12691 9
3 12692 12
3 12693 9
3 12694 34
3 12695 11
3 12696 57
3 12697 57
3 12698 12
3 12699 5
3 12700 12
3 12701 14
3 12702 84
3 12703 10
3 12704 15
3 12705 31
3 12706 4
3 12707 18
3 12708 8
3 12709 9
3 12710 41
3 12711 10
3 12712 6
3 12713 16
3 12714 8
3 12715 40
3 12716 25
3 12717 10
3 12718 15
3 12719 18
3 12720 63
3 12721 16
3 12722 25
3 12723 13
3 12724 9
3 12725 11
3 12726 57
3 12727 55
3 12728 12
3 12729 9
3 12730 14
3 12731 5
3 12732 9
3 12733 36
3 12734 50
3 12735 6
3 12736 10
3 12737 27
3 12738 18
3 12739 12
3 12740 11
3 12741 80
3 12742 14
3 12743 5
3 12744 11
3 12745 8
3 12746 11
3 12747 12
3 12748 9
3 12749 23
3 12750 7
3 12751 54
3 12752 46
3 12753 17
3 12754 38
3 12755 11
3 12756 18
3 12757 17
3 12758 57
3 12759 13
3 12760 14
3 12761 20
3 12762 36
3 12763 21
3 12764 30
3 12765 30
3 12766 11
3 12767 23
3 12768 12
3 12769 13
3 12770 10
3 12771 18
3 12772 10
3 12773 106
3 12774 12
3 12775 9
3 12776 11
3 12777 8
3 12778 71
3 12779 48
3 12780 38
3 12781 642
3 12782 17
3 12783 11
3 12784 107
3 12785 6
3 12786 43
3 12787 14
3 12788 9
3 12789 18
3 12790 14
3 12791 19
3 12792 38
3 12793 17
3 12794 22
3 12795 82
3 12796 11
3 12797 6
3 12798 17
3 12799 50
3 12800 12
3 12801 16
3 12802 12
3 12803 12
3 12804 14
3 12805 12
3 12806 14
3 12807 54
3 12808 23
3 12809 6
3 12810 24
3 12811 13
3 12812 26
3 12813 7
3 12814 10
3 12815 14
3 12816 22
3 12817 80
3 12818 48
3 12819 51
3 12820 5
3 12821 12
3 12822 63
3 12823 177
3 12824 45
3 12825 22
3 12826 14
3 12827 16
3 12828 86
3 12829 10
3 12830 44
3 12831 20
3 12832 7
3 12833 75
3 12834 16
3 12835 14
3 12836 88
3 12837 10
3 12838 9
3 12839 22
3 12840 11
3 12841 15
3 12842 18
3 12843 21
3 12844 48
3 12845 19
3 12846 10
3 12847 699
3 12848 14
3 12849 6
3 12850 13
3 12851 21
3 12852 8
3 12853 9
3 12854 9
3 12855 27
3 12856 17
3 12857 10
3 12858 5
3 12859 78
3 12860 26
3 12861 24
3 12862 12
3 12863 79
3 12864 13
3 12865 23
3 12866 269
3 12867 7
3 12868 7
3 12869 8
3 12870 9
3 12871 7
3 12872 10
3 12873 14
3 12874 12
3 12875 68
3 12876 113
3 12877 20
3 12878 13
3 12879 82
3 12880 92
3 12881 7
3 12882 89
3 12883 117
3 12884 218
3 12885 10
3 12886 14
3 12887 15
3 12888 11
3 12889 12
3 12890 17
3 12891 38
3 12892 66
3 12893 54
3 12894 10
3 12895 56
3 12896 52
3 12897 7
3 12898 24
3 12899 6
3 12900 39
3 12901 35
3 12902 10
3 12903 5
3 12904 16
3 12905 11
3 12906 11
3 12907 29
3 12908 16
3 12909 11
3 12910 18
3 12911 53
3 12912 25
3 12913 9
3 12914 99
3 12915 8
3 12916 959
3 12917 53
3 12918 54
3 12919 15
3 12920 157
3 12921 12
3 12922 140
3 12923 44
3 12924 18
3 12925 10
3 12926 13
3 12927 25
3 12928 11
3 12929 17
3 12930 7
3 12931 56
3 12932 87
3 12933 24
3 12934 30
3 12935 19
3 12936 28
3 12937 83
3 12938 7
3 12939 8
3 12940 14
3 12941 21
3 12942 16
3 12943 1008
3 12944 8
3 12945 72
3 12946 12
3 12947 25
3 12948 19
3 12949 23
3 12950 79
3 12951 12
3 12952 14
3 12953 19
3 12954 59
3 12955 39
3 12956 41
3 12957 9
3 12958 7
3 12959 9
3 12960 34
3 12961 13
3 12962 143
3 12963 3
3 12964 14
3 12965 29
3 12966 18
3 12967 19
3 12968 12
3 12969 14
3 12970 12
3 12971 11
3 12972 11
3 12973 942
3 12974 20
3 12975 92
3 12976 12
3 12977 18
3 12978 10
3 12979 18
3 12980 68
3 12981 58
3 12982 13
3 12983 699
3 12984 21
3 12985 35
3 12986 11
3 12987 14
3 12988 13
3 12989 6
3 12990 17
3 12991 44
3 12992 57
3 12993 15
3 12994 21
3 12995 4
3 12996 73
3 12997 47
3 12998 30
3 12999 18
3 13000 5
3 13001 10
3 13002 20
3 13003 8
3 13004 12
3 13005 68
3 13006 58
3 13007 6
3 13008 28
3 13009 9
3 13010 17
3 13011 16
3 13012 12
3 13013 17
3 13014 16
3 13015 16
3 13016 12
3 13017 146
3 13018 20
3 13019 13
3 13020 10
3 13021 13
3 13022 52
3 13023 80
3 13024 15
3 13025 6
3 13026 11
3 13027 13
3 13028 21
3 13029 9
3 13030 26
3 13031 8
3 13032 22
3 13033 30
3 13034 14
3 13035 12
3 13036 9
3 13037 18
3 13038 10
3 13039 47
3 13040 14
3 13041 12
3 13042 16
3 13043 80
3 13044 24
3 13045 7
3 13046 8
3 13047 8
3 13048 19
3 13049 9
3 13050 23
3 13051 11
3 13052 14
3 13053 9
3 13054 53
3 13055 29
3 13056 23
3 13057 8
3 13058 53
3 13059 14
3 13060 113
3 13061 48
3 13062 14
3 13063 11
3 13064 40
3 13065 1108
3 13066 26
3 13067 12
3 13068 11
3 13069 26
3 13070 8
3 13071 21
3 13072 19
3 13073 63
3 13074 12
3 13075 15
3 13076 27
3 13077 10
3 13078 13
3 13079 99
3 13080 18
3 13081 9
3 13082 14
3 13083 94
3 13084 22
3 13085 6
3 13086 16
3 13087 7
3 13088 19
3 13089 15
3 13090 46
3 13091 10
3 13092 9
3 13093 7
3 13094 14
3 13095 20
3 13096 8
3 13097 197
3 13098 14
3 13099 27
3 13100 62
3 13101 29
3 13102 11
3 13103 48
3 13104 19
3 13105 10
3 13106 51
3 13107 21
3 13108 15
3 13109 23
3 13110 16
3 13111 10
3 13112 50
3 13113 9
3 13114 13
3 13115 82
3 13116 45
3 13117 29
3 13118 6
3 13119 17
3 13120 95
3 13121 16
3 13122 16
3 13123 16
3 13124 20
3 13125 95
3 13126 11
3 13127 13
3 13128 14
3 13129 92
3 13130 6
3 13131 17
3 13132 65
3 13133 19
3 13134 534
3 13135 12
3 13136 10
3 13137 20
3 13138 73
3 13139 23
3 13140 24
3 13141 45
3 13142 13
3 13143 81
3 13144 9
3 13145 50
3 13146 15
3 13147 38
3 13148 12
3 13149 11
3 13150 17
3 13151 11
3 13152 21
3 13153 12
3 13154 29
3 13155 20
3 13156 9
3 13157 22
3 13158 54
3 13159 8
3 13160 16
3 13161 8
3 13162 15
3 13163 12
3 13164 101
3 13165 11
3 13166 16
3 13167 9
3 13168 106
3 13169 7
3 13170 7
3 13171 7
3 13172 53
3 13173 43
3 13174 10
3 13175 86
3 13176 713
3 13177 82
3 13178 10
3 13179 3
3 13180 106
3 13181 9
3 13182 10
3 13183 15
3 13184 10
3 13185 7
3 13186 1007
3 13187 11
3 13188 7
3 13189 23
3 13190 81
3 13191 17
3 13192 33
3 13193 18
3 13194 70
3 13195 40
3 13196 12
3 13197 10
3 13198 14
3 13199 69
3 13200 14
3 13201 11
3 13202 16
3 13203 26
3 13204 16
3 13205 12
3 13206 66
3 13207 37
3 13208 14
3 13209 23
3 13210 16
3 13211 8
3 13212 5
3 13213 17
3 13214 8
3 13215 44
3 13216 23
3 13217 22
3 13218 18
3 13219 18
3 13220 8
3 13221 61
3 13222 20
3 13223 9
3 13224 8
3 13225 12
3 13226 13
3 13227 15
3 13228 13
3 13229 9
3 13230 88
3 13231 7
3 13232 14
3 13233 3
3 13234 9
3 13235 91
3 13236 5
3 13237 12
3 13238 7
3 13239 24
3 13240 78
3 13241 27
3 13242 11
3 13243 10
3 13244 23
3 13245 15
3 13246 8
3 13247 19
3 13248 13
3 13249 9
3 13250 10
3 13251 9
3 13252 86
3 13253 113
3 13254 9
3 13255 16
3 13256 12
3 13257 54
3 13258 5
3 13259 13
3 13260 8
3 13261 75
3 13262 10
3 13263 13
3 13264 67
3 13265 43
3 13266 76
3 13267 7
3 13268 50
3 13269 6
3 13270 66
3 13271 11
3 13272 14
3 13273 70
3 13274 61
3 13275 13
3 13276 10
3 13277 6
3 13278 7
3 13279 13
3 13280 29
3 13281 21
3 13282 43
3 13283 16
3 13284 37
3 13285 15
3 13286 23
3 13287 8
3 13288 16
3 13289 20
3 13290 7
3 13291 117
3 13292 17
3 13293 10
3 13294 20
3 13295 10
3 13296 186
3 13297 28
3 13298 11
3 13299 10
3 13300 69
3 13301 12
3 13302 7
3 13303 22
3 13304 8
3 13305 14
3 13306 4
3 13307 22
3 13308 4
3 13309 17
3 13310 30
3 13311 8
3 13312 14
3 13313 89
3 13314 14
3 13315 28
3 13316 7
3 13317 34
3 13318 23
3 13319 16
3 13320 54
3 13321 12
3 13322 9
3 13323 15
3 13324 68
3 13325 15
3 13326 25
3 13327 13
3 13328 15
3 13329 8
3 13330 15
3 13331 10
3 13332 9
3 13333 22
3 13334 13
3 13335 38
3 13336 3
3 13337 156
3 13338 7
3 13339 13
3 13340 5
3 13341 13
3 13342 76
3 13343 34
3 13344 13
3 13345 19
3 13346 18
3 13347 17
3 13348 19
3 13349 13
3 13350 7
3 13351 11
3 13352 72
3 13353 46
3 13354 17
3 13355 10
3 13356 13
3 13357 26
3 13358 16
3 13359 28
3 13360 36
3 13361 33
3 13362 22
3 13363 19
3 13364 38
3 13365 17
3 13366 13
3 13367 14
3 13368 12
3 13369 21
3 13370 12
3 13371 20
3 13372 19
3 13373 13
3 13374 110
3 13375 14
3 13376 11
3 13377 11
3 13378 17
3 13379 14
3 13380 9
3 13381 7
3 13382 6
3 13383 16
3 13384 114
3 13385 80
3 13386 4
3 13387 3
3 13388 23
3 13389 6
3 13390 24
3 13391 39
3 13392 61
3 13393 18
3 13394 66
3 13395 9
3 13396 50
3 13397 66
3 13398 11
3 13399 22
3 13400 21
3 13401 12
3 13402 63
3 13403 70
3 13404 18
3 13405 99
3 13406 120
3 13407 23
3 13408 16
3 13409 11
3 13410 15
3 13411 33
3 13412 8
3 13413 28
3 13414 8
3 13415 7
3 13416 7
3 13417 59
3 13418 111
3 13419 33
3 13420 15
3 13421 11
3 13422 20
3 13423 10
3 13424 11
3 13425 62
3 13426 23
3 13427 11
3 13428 34
3 13429 22
3 13430 7
3 13431 18
3 13432 13
3 13433 16
3 13434 17
3 13435 12
3 13436 9
3 13437 50
3 13438 14
3 13439 10
3 13440 41
3 13441 118
3 13442 13
3 13443 18
3 13444 15
3 13445 131
3 13446 13
3 13447 16
3 13448 9
3 13449 26
3 13450 12
3 13451 57
3 13452 19
3 13453 31
3 13454 27
3 13455 86
3 13456 29
3 13457 25
3 13458 52
3 13459 62
3 13460 33
3 13461 7
3 13462 67
3 13463 55
3 13464 7
3 13465 20
3 13466 45
3 13467 9
3 13468 79
3 13469 11
3 13470 11
3 13471 92
3 13472 9
3 13473 10
3 13474 9
3 13475 14
3 13476 9
3 13477 76
3 13478 18
3 13479 19
3 13480 14
3 13481 18
3 13482 5
3 13483 28
3 13484 5
3 13485 8
3 13486 15
3 13487 54
3 13488 73
3 13489 17
3 13490 26
3 13491 13
3 13492 31
3 13493 41
3 13494 78
3 13495 9
3 13496 4
3 13497 12
3 13498 9
3 13499 8
3 13500 17
3 13501 252
3 13502 12
3 13503 34
3 13504 68
3 13505 16
3 13506 46
3 13507 17
3 13508 90
3 13509 22
3 13510 33
3 13511 19
3 13512 5
3 13513 9
3 13514 27
3 13515 7
3 13516 36
3 13517 11
3 13518 30
3 13519 29
3 13520 17
3 13521 20
3 13522 213
3 13523 25
3 13524 13
3 13525 21
3 13526 14
3 13527 14
3 13528 13
3 13529 47
3 13530 7
3 13531 7
3 13532 10
3 13533 23
3 13534 13
3 13535 3
3 13536 79
3 13537 17
3 13538 17
3 13539 317
3 13540 11
3 13541 16
3 13542 67
3 13543 65
3 13544 21
3 13545 11
3 13546 39
3 13547 11
3 13548 79
3 13549 138
3 13550 8
3 13551 86
3 13552 13
3 13553 9
3 13554 19
3 13555 17
3 13556 32
3 13557 34
3 13558 20
3 13559 7
3 13560 6
3 13561 20
3 13562 10
3 13563 16
3 13564 204
3 13565 6
3 13566 25
3 13567 10
3 13568 17
3 13569 11
3 13570 10
3 13571 13
3 13572 9
3 13573 38
3 13574 28
3 13575 19
3 13576 13
3 13577 7
3 13578 75
3 13579 8
3 13580 12
3 13581 90
3 13582 5
3 13583 199
3 13584 39
3 13585 22
3 13586 61
3 13587 7
3 13588 20
3 13589 28
3 13590 13
3 13591 15
3 13592 16
3 13593 11
3 13594 47
3 13595 30
3 13596 18
3 13597 8
3 13598 61
3 13599 59
3 13600 99
3 13601 30
3 13602 10
3 13603 22
3 13604 53
3 13605 14
3 13606 24
3 13607 18
3 13608 13
3 13609 13
3 13610 6
3 13611 3
3 13612 90
3 13613 6
3 13614 8
3 13615 22
3 13616 1
3 13617 15
3 13618 15
3 13619 12
3 13620 10
3 13621 5
3 13622 20
3 13623 20
3 13624 48
3 13625 299
3 13626 13
3 13627 23
3 13628 82
3 13629 64
3 13630 6
3 13631 66
3 13632 20
3 13633 19
3 13634 40
3 13635 18
3 13636 10
3 13637 13
3 13638 19
3 13639 15
3 13640 52
3 13641 66
3 13642 26
3 13643 973
3 13644 13
3 13645 9
3 13646 31
3 13647 5
3 13648 11
3 13649 7
3 13650 20
3 13651 11
3 13652 12
3 13653 35
3 13654 9
3 13655 8
3 13656 12
3 13657 10
3 13658 8
3 13659 15
3 13660 10
3 13661 16
3 13662 8
3 13663 93
3 13664 23
3 13665 293
3 13666 172
3 13667 51
3 13668 19
3 13669 8
3 13670 47
3 13671 57
3 13672 12
3 13673 16
3 13674 9
3 13675 31
3 13676 47
3 13677 9
3 13678 17
3 13679 120
3 13680 9
3 13681 24
3 13682 21
3 13683 697
3 13684 15
3 13685 14
3 13686 15
3 13687 127
3 13688 13
3 13689 19
3 13690 9
3 13691 10
3 13692 11
3 13693 16
3 13694 10
3 13695 15
3 13696 8
3 13697 14
3 13698 11
3 13699 10
3 13700 20
3 13701 21
3 13702 8
3 13703 7
3 13704 12
3 13705 9
3 13706 160
3 13707 23
3 13708 20
3 13709 35
3 13710 10
3 13711 9
3 13712 10
3 13713 43
3 13714 37
3 13715 9
3 13716 13
3 13717 27
3 13718 11
3 13719 68
3 13720 10
3 13721 13
3 13722 38
3 13723 91
3 13724 9
3 13725 10
3 13726 5
3 13727 28
3 13728 33
3 13729 2
3 13730 118
3 13731 46
3 13732 15
3 13733 19
3 13734 26
3 13735 16
3 13736 23
3 13737 1113
3 13738 40
3 13739 25
3 13740 4
3 13741 44
3 13742 154
3 13743 12
3 13744 59
3 13745 46
3 13746 21
3 13747 12
3 13748 13
3 13749 22
3 13750 19
3 13751 30
3 13752 15
3 13753 181
3 13754 26
3 13755 12
3 13756 38
3 13757 13
3 13758 13
3 13759 18
3 13760 18
3 13761 35
3 13762 10
3 13763 45
3 13764 75
3 13765 24
3 13766 9
3 13767 20
3 13768 13
3 13769 11
3 13770 12
3 13771 20
3 13772 16
3 13773 41
3 13774 11
3 13775 31
3 13776 22
3 13777 22
3 13778 8
3 13779 33
3 13780 20
3 13781 22
3 13782 15
3 13783 86
3 13784 83
3 13785 17
3 13786 38
3 13787 15
3 13788 11
3 13789 8
3 13790 23
3 13791 8
3 13792 19
3 13793 16
3 13794 53
3 13795 43
3 13796 13
3 13797 18
3 13798 11
3 13799 20
3 13800 80
3 13801 22
3 13802 14
3 13803 14
3 13804 78
3 13805 17
3 13806 3
3 13807 14
3 13808 15
3 13809 87
3 13810 9
3 13811 19
3 13812 63
3 13813 18
3 13814 87
3 13815 25
3 13816 16
3 13817 15
3 13818 10
3 13819 10
3 13820 20
3 13821 32
3 13822 1
3 13823 125
3 13824 36
3 13825 39
3 13826 12
3 13827 17
3 13828 8
3 13829 25
3 13830 15
3 13831 10
3 13832 18
3 13833 72
3 13834 17
3 13835 7
3 13836 8
3 13837 16
3 13838 12
3 13839 11
3 13840 19
3 13841 35
3 13842 12
3 13843 11
3 13844 9
3 13845 22
3 13846 6
3 13847 36
3 13848 65
3 13849 51
3 13850 16
3 13851 13
3 13852 13
3 13853 9
3 13854 35
3 13855 12
3 13856 11
3 13857 11
3 13858 7
3 13859 23
3 13860 21
3 13861 13
3 13862 18
3 13863 10
3 13864 15
3 13865 5
3 13866 88
3 13867 4
3 13868 19
3 13869 33
3 13870 10
3 13871 64
3 13872 19
3 13873 10
3 13874 13
3 13875 10
3 13876 18
3 13877 18
3 13878 89
3 13879 55
3 13880 44
3 13881 68
3 13882 13
3 13883 70
3 13884 24
3 13885 27
3 13886 10
3 13887 12
3 13888 18
3 13889 22
3 13890 11
3 13891 65
3 13892 8
3 13893 16
3 13894 7
3 13895 27
3 13896 3
3 13897 10
3 13898 48
3 13899 43
3 13900 12
3 13901 44
3 13902 37
3 13903 14
3 13904 11
3 13905 15
3 13906 7
3 13907 5
3 13908 24
3 13909 14
3 13910 44
3 13911 11
3 13912 12
3 13913 10
3 13914 18
3 13915 57
3 13916 10
3 13917 9
3 13918 8
3 13919 14
3 13920 17
3 13921 8
3 13922 10
3 13923 7
3 13924 31
3 13925 2
3 13926 107
3 13927 10
3 13928 62
3 13929 16
3 13930 47
3 13931 23
3 13932 11
3 13933 36
3 13934 8
3 13935 90
3 13936 36
3 13937 13
3 13938 6
3 13939 15
3 13940 2
3 13941 277
3 13942 6
3 13943 8
3 13944 7
3 13945 4
3 13946 6
3 13947 42
3 13948 12
3 13949 7
3 13950 13
3 13951 32
3 13952 27
3 13953 34
3 13954 86
3 13955 31
3 13956 46
3 13957 24
3 13958 43
3 13959 10
3 13960 22
3 13961 18
3 13962 820
3 13963 12
3 13964 23
3 13965 15
3 13966 10
3 13967 6
3 13968 10
3 13969 11
3 13970 44
3 13971 46
3 13972 20
3 13973 10
3 13974 33
3 13975 24
3 13976 94
3 13977 6
3 13978 14
3 13979 8
3 13980 16
3 13981 14
3 13982 33
3 13983 9
3 13984 12
3 13985 72
3 13986 11
3 13987 9
3 13988 39
3 13989 13
3 13990 23
3 13991 21
3 13992 11
3 13993 25
3 13994 8
3 13995 4
3 13996 44
3 13997 22
3 13998 7
3 13999 4
3 14000 10
3 14001 13
3 14002 14
3 14003 4
3 14004 10
3 14005 6
3 14006 29
3 14007 11
3 14008 15
3 14009 38
3 14010 13
3 14011 29
3 14012 13
3 14013 26
3 14014 7
3 14015 3
3 14016 22
3 14017 7
3 14018 4
3 14019 10
3 14020 34
3 14021 3
3 14022 3
3 14023 44
3 14024 16
3 14025 83
3 14026 13
3 14027 7
3 14028 9
3 14029 22
3 14030 56
3 14031 13
3 14032 13
3 14033 12
3 14034 10
3 14035 24
3 14036 17
3 14037 50
3 14038 8
3 14039 35
3 14040 7
3 14041 20
3 14042 21
3 14043 33
3 14044 31
3 14045 19
3 14046 11
3 14047 12
3 14048 48
3 14049 7
3 14050 22
3 14051 203
3 14052 50
3 14053 1070
3 14054 77
3 14055 14
3 14056 13
3 14057 42
3 14058 27
3 14059 14
3 14060 3
3 14061 5
3 14062 16
3 14063 8
3 14064 92
3 14065 8
3 14066 18
3 14067 12
3 14068 98
3 14069 41
3 14070 10
3 14071 104
3 14072 16
3 14073 16
3 14074 9
3 14075 114
3 14076 16
3 14077 15
3 14078 159
3 14079 10
3 14080 65
3 14081 8
3 14082 116
3 14083 68
3 14084 14
3 14085 8
3 14086 18
3 14087 101
3 14088 12
3 14089 25
3 14090 50
3 14091 66
3 14092 989
3 14093 13
3 14094 39
3 14095 11
3 14096 18
3 14097 20
3 14098 18
3 14099 23
3 14100 14
3 14101 12
3 14102 22
3 14103 19
3 14104 26
3 14105 24
3 14106 16
3 14107 10
3 14108 18
3 14109 37
3 14110 13
3 14111 9
3 14112 24
3 14113 10
3 14114 9
3 14115 78
3 14116 18
3 14117 104
3 14118 7
3 14119 5
3 14120 10
3 14121 15
3 14122 7
3 14123 52
3 14124 8
3 14125 16
3 14126 7
3 14127 10
3 14128 30
3 14129 10
3 14130 184
3 14131 11
3 14132 66
3 14133 26
3 14134 69
3 14135 18
3 14136 21
3 14137 28
3 14138 16
3 14139 23
3 14140 18
3 14141 28
3 14142 19
3 14143 4
3 14144 11
3 14145 10
3 14146 73
3 14147 8
3 14148 13
3 14149 13
3 14150 99
3 14151 39
3 14152 12
3 14153 76
3 14154 113
3 14155 8
3 14156 6
3 14157 65
3 14158 10
3 14159 25
3 14160 13
3 14161 13
3 14162 14
3 14163 5
3 14164 45
3 14165 4
3 14166 15
3 14167 15
3 14168 9
3 14169 8
3 14170 4
3 14171 13
3 14172 87
3 14173 17
3 14174 14
3 14175 16
3 14176 173
3 14177 13
3 14178 8
3 14179 13
3 14180 68
3 14181 23
3 14182 20
3 14183 10
3 14184 11
3 14185 198
3 14186 7
3 14187 10
3 14188 22
3 14189 6
3 14190 14
3 14191 7
3 14192 18
3 14193 11
3 14194 14
3 14195 18
3 14196 60
3 14197 24
3 14198 15
3 14199 25
3 14201 8
3 14202 67
3 14203 21
3 14204 54
3 14205 109
3 14206 13
3 14207 15
3 14208 89
3 14209 16
3 14210 53
3 14211 8
3 14212 8
3 14213 7
3 14214 25
3 14215 18
3 14216 3
3 14217 60
3 14218 11
3 14219 16
3 14220 13
3 14221 20
3 14222 88
3 14223 18
3 14224 11
3 14225 17
3 14226 9
3 14227 10
3 14228 16
3 14229 80
3 14230 14
3 14231 17
3 14232 11
3 14233 50
3 14234 21
3 14235 14
3 14236 7
3 14237 15
3 14238 9
3 14239 13
3 14240 12
3 14241 5
3 14242 28
3 14243 65
3 14244 7
3 14245 13
3 14246 7
3 14247 8
3 14248 22
3 14249 28
3 14250 15
3 14251 16
3 14252 26
3 14253 26
3 14254 15
3 14255 28
3 14256 40
3 14257 7
3 14258 65
3 14259 90
3 14260 88
3 14261 80
3 14262 26
3 14263 3
3 14264 21
3 14265 65
3 14266 70
3 14267 27
3 14268 13
3 14269 14
3 14270 15
3 14271 11
3 14272 4
3 14273 6
3 14274 7
3 14275 13
3 14276 7
3 14277 20
3 14278 34
3 14279 98
3 14280 11
3 14281 10
3 14282 1
3 14283 42
3 14284 53
3 14285 14
3 14286 32
3 14287 57
3 14288 11
3 14289 17
3 14290 9
3 14291 2
3 14292 7
3 14293 7
3 14294 90
3 14295 153
3 14296 53
3 14297 8
3 14298 158
3 14299 46
3 14300 13
3 14301 17
3 14302 22
3 14303 13
3 14304 19
3 14305 13
3 14306 12
3 14307 17
3 14308 14
3 14309 6
3 14310 50
3 14311 21
3 14312 26
3 14313 11
3 14314 10
3 14315 12
3 14316 74
3 14317 7
3 14318 3
3 14319 38
3 14320 12
3 14321 13
3 14322 69
3 14323 22
3 14324 10
3 14325 8
3 14326 10
3 14327 54
3 14328 24
3 14329 56
3 14330 14
3 14331 20
3 14332 15
3 14333 13
3 14334 18
3 14335 48
3 14336 10
3 14337 90
3 14338 9
3 14339 6
3 14340 59
3 14341 20
3 14342 17
3 14343 12
3 14344 15
3 14345 22
3 14346 12
3 14347 62
3 14348 10
3 14349 7
3 14350 27
3 14351 57
3 14352 15
3 14353 52
3 14354 8
3 14355 24
3 14356 999
3 14357 70
3 14358 145
3 14359 79
3 14360 6
3 14361 41
3 14362 25
3 14363 104
3 14364 8
3 14365 7
3 14366 131
3 14367 14
3 14368 42
3 14369 29
3 14370 18
3 14371 51
3 14372 61
3 14373 9
3 14374 56
3 14375 8
3 14376 2
3 14377 21
3 14378 15
3 14379 58
3 14380 11
3 14381 54
3 14382 13
3 14383 9
3 14384 9
3 14385 5
3 14386 16
3 14387 19
3 14388 21
3 14389 15
3 14390 12
3 14391 655
3 14392 87
3 14393 11
3 14394 1128
3 14395 8
3 14396 17
3 14397 11
3 14398 15
3 14399 48
3 14400 24
3 14401 16
3 14402 13
3 14403 20
3 14404 11
3 14405 18
3 14406 11
3 14407 9
3 14408 11
3 14409 13
3 14410 7
3 14411 16
3 14412 366
3 14413 1105
3 14414 10
3 14415 13
3 14416 13
3 14417 10
3 14418 69
3 14419 18
3 14420 62
3 14421 10
3 14422 18
3 14423 20
3 14424 55
3 14425 106
3 14426 16
3 14427 5
3 14428 31
3 14429 55
3 14430 15
3 14431 23
3 14432 11
3 14433 14
3 14434 34
3 14435 19
3 14436 98
3 14437 10
3 14438 3
3 14439 15
3 14440 80
3 14441 13
3 14442 19
3 14443 44
3 14444 64
3 14445 75
3 14446 316
3 14447 35
3 14448 6
3 14449 6
3 14450 102
3 14451 14
3 14452 56
3 14453 15
3 14454 20
3 14455 16
3 14456 18
3 14457 7
3 14458 10
3 14459 5
3 14460 26
3 14461 13
3 14462 17
3 14463 18
3 14464 17
3 14465 56
3 14466 19
3 14467 5
3 14468 9
3 14469 71
3 14470 20
3 14471 5
3 14472 9
3 14473 110
3 14474 7
3 14475 16
3 14476 12
3 14477 16
3 14478 9
3 14479 10
3 14480 84
3 14481 5
3 14482 35
3 14483 55
3 14484 2
3 14485 12
3 14486 13
3 14487 96
3 14488 28
3 14489 42
3 14490 11
3 14491 7
3 14492 11
3 14493 19
3 14494 89
3 14495 12
3 14496 102
3 14497 10
3 14498 6
3 14499 9
3 14500 8
3 14501 14
3 14502 9
3 14503 16
3 14504 65
3 14505 224
3 14506 112
3 14507 18
3 14508 22
3 14509 4
3 14510 18
3 14511 14
3 14512 7
3 14513 16
3 14514 20
3 14515 8
3 14516 15
3 14517 9
3 14518 17
3 14519 19
3 14520 7
3 14521 15
3 14522 9
3 14523 32
3 14524 8
3 14525 155
3 14526 18
3 14527 19
3 14528 15
3 14529 15
3 14530 8
3 14532 26
3 14533 10
3 14534 19
3 14535 19
3 14536 12
3 14537 8
3 14538 145
3 14539 32
3 14540 20
3 14541 17
3 14542 12
3 14543 72
3 14544 17
3 14545 28
3 14546 16
3 14547 24
3 14548 53
3 14549 345
3 14550 17
3 14551 18
3 14552 8
3 14553 12
3 14554 50
3 14555 12
3 14556 27
3 14557 68
3 14558 24
3 14559 76
3 14560 10
3 14561 23
3 14562 23
3 14563 96
3 14564 40
3 14565 19
3 14566 11
3 14567 6
3 14568 8
3 14569 8
3 14570 4
3 14571 13
3 14572 65
3 14573 46
3 14574 15
3 14575 13
3 14576 10
3 14577 24
3 14578 10
3 14579 91
3 14580 33
3 14581 42
3 14582 14
3 14583 19
3 14584 8
3 14585 16
3 14586 12
3 14587 8
3 14588 18
3 14589 11
3 14590 8
3 14591 16
3 14592 96
3 14593 37
3 14594 145
3 14595 16
3 14596 47
3 14597 12
3 14598 96
3 14599 9
3 14600 30
3 14601 22
3 14602 27
3 14603 12
3 14604 37
3 14605 13
3 14606 48
3 14607 15
3 14608 21
3 14609 14
3 14610 22
3 14611 32
3 14612 12
3 14613 33
3 14614 5
3 14615 17
3 14616 12
3 14617 53
3 14618 5
3 14619 59
3 14620 9
3 14621 16
3 14622 51
3 14623 6
3 14624 19
3 14625 19
3 14626 18
3 14627 16
3 14628 35
3 14629 45
3 14630 16
3 14631 9
3 14632 8
3 14633 43
3 14634 26
3 14635 27
3 14636 21
3 14637 12
3 14638 26
3 14639 17
3 14640 124
3 14641 17
3 14642 10
3 14643 19
3 14644 14
3 14645 14
3 14646 19
3 14647 81
3 14648 51
3 14649 28
3 14650 8
3 14651 14
3 14652 9
3 14653 11
3 14654 69
3 14655 89
3 14656 55
3 14657 6
3 14658 52
3 14659 19
3 14660 83
3 14661 64
3 14662 25
3 14663 47
3 14664 28
3 14665 94
3 14666 27
3 14667 54
3 14668 11
3 14669 65
3 14670 154
3 14671 4
3 14672 14
3 14673 129
3 14674 15
3 14675 12
3 14676 6
3 14677 45
3 14678 25
3 14679 39
3 14680 71
3 14681 69
3 14682 11
3 14683 105
3 14684 581
3 14685 19
3 14686 110
3 14687 19
3 14688 13
3 14689 24
3 14690 32
3 14691 8
3 14692 16
3 14693 20
3 14694 15
3 14695 21
3 14696 82
3 14697 16
3 14698 19
3 14699 14
3 14700 29
3 14701 82
3 14702 24
3 14703 10
3 14704 10
3 14705 92
3 14706 13
3 14707 9
3 14708 13
3 14709 16
3 14710 58
3 14711 16
3 14712 29
3 14713 93
3 14714 21
3 14715 12
3 14716 19
3 14717 10
3 14718 14
3 14719 51
3 14720 6
3 14721 5
3 14722 44
3 14723 107
3 14724 15
3 14725 14
3 14726 8
3 14727 68
3 14728 25
3 14729 29
3 14730 9
3 14731 13
3 14732 9
3 14733 5
3 14734 8
3 14735 16
3 14736 36
3 14737 14
3 14738 12
3 14739 15
3 14740 17
3 14741 42
3 14742 7
3 14743 19
3 14744 4
3 14745 11
3 14746 10
3 14747 18
3 14748 19
3 14749 12
3 14750 293
3 14751 14
3 14752 29
3 14753 6
3 14754 59
3 14755 50
3 14756 39
3 14757 10
3 14758 12
3 14759 6
3 14760 12
3 14761 23
3 14762 13
3 14763 11
3 14764 45
3 14765 49
3 14766 20
3 14767 22
3 14768 31
3 14769 69
3 14770 11
3 14771 107
3 14772 8
3 14773 8
3 14774 4
3 14775 59
3 14776 17
3 14777 14
3 14778 12
3 14779 15
3 14780 9
3 14781 12
3 14782 10
3 14783 9
3 14784 74
3 14785 10
3 14786 9
3 14787 8
3 14788 44
3 14789 14
3 14790 31
3 14791 19
3 14792 8
3 14793 292
3 14794 24
3 14795 73
3 14796 102
3 14797 9
3 14798 8
3 14799 25
3 14800 37
3 14801 49
3 14802 11
3 14803 24
3 14804 4
3 14805 6
3 14806 13
3 14807 10
3 14808 24
3 14809 13
3 14810 122
3 14811 10
3 14812 58
3 14813 8
3 14814 83
3 14815 11
3 14816 31
3 14817 13
3 14818 52
3 14819 60
3 14820 19
3 14821 11
3 14822 10
3 14823 19
3 14824 12
3 14825 9
3 14826 13
3 14827 16
3 14828 17
3 14829 8
3 14830 13
3 14831 13
3 14832 29
3 14833 9
3 14834 22
3 14835 32
3 14836 15
3 14837 36
3 14838 16
3 14839 40
3 14840 11
3 14841 26
3 14842 12
3 14843 11
3 14844 181
3 14845 15
3 14846 8
3 14847 9
3 14848 92
3 14849 19
3 14850 5
3 14851 12
3 14852 27
3 14853 11
3 14854 8
3 14855 72
3 14856 22
3 14857 52
3 14858 75
3 14859 56
3 14860 6
3 14861 96
3 14862 1118
3 14863 16
3 14864 11
3 14865 30
3 14866 34
3 14867 53
3 14868 67
3 14869 7
3 14870 33
3 14871 15
3 14872 1038
3 14873 3
3 14874 10
3 14875 70
3 14876 35
3 14877 13
3 14878 14
3 14879 24
3 14880 10
3 14881 19
3 14882 16
3 14883 43
3 14884 19
3 14885 77
3 14886 15
3 14887 3
3 14888 7
3 14889 9
3 14890 24
3 14891 17
3 14892 62
3 14893 5
3 14894 106
3 14895 58
3 14896 15
3 14897 36
3 14898 11
3 14899 727
3 14900 44
3 14901 8
3 14902 17
3 14903 19
3 14904 10
3 14905 26
3 14906 12
3 14907 13
3 14908 11
3 14909 14
3 14910 14
3 14911 8
3 14912 32
3 14913 47
3 14914 10
3 14915 14
3 14916 16
3 14917 84
3 14918 16
3 14919 16
3 14920 12
3 14921 41
3 14922 5
3 14923 9
3 14924 9
3 14925 22
3 14926 32
3 14927 18
3 14928 15
3 14929 31
3 14930 68
3 14931 7
3 14932 14
3 14933 89
3 14934 8
3 14935 27
3 14936 77
3 14937 4
3 14938 67
3 14939 10
3 14940 64
3 14941 16
3 14942 11
3 14943 5
3 14944 112
3 14945 16
3 14946 88
3 14947 7
3 14948 7
3 14949 17
3 14950 11
3 14951 71
3 14952 22
3 14953 63
3 14954 10
3 14955 8
3 14956 51
3 14957 118
3 14958 11
3 14959 10
3 14960 59
3 14961 23
3 14962 17
3 14963 79
3 14964 9
3 14965 4
3 14966 53
3 14967 23
3 14968 5
3 14969 9
3 14970 80
3 14971 4
3 14972 11
3 14973 10
3 14974 13
3 14975 56
3 14976 9
3 14977 16
3 14978 30
3 14979 8
3 14980 8
3 14981 9
3 14982 3
3 14983 5
3 14984 43
3 14985 14
3 14986 16
3 14987 20
3 14988 100
3 14989 68
3 14990 123
3 14991 16
3 14992 83
3 14993 23
3 14994 9
3 14995 91
3 14996 5
3 14997 10
3 14998 7
3 14999 35
3 15000 20
3 15001 9
3 15002 108
3 15003 7
3 15004 14
3 15005 40
3 15006 107
3 15007 24
3 15008 12
3 15009 36
3 15010 6
3 15011 10
3 15012 17
3 15013 66
3 15014 23
3 15015 82
3 15016 93
3 15017 16
3 15018 2
3 15019 7
3 15020 8
3 15021 12
3 15022 11
3 15023 19
3 15024 12
3 15025 82
3 15026 52
3 15027 13
3 15028 61
3 15029 5
3 15030 7
3 15031 80
3 15032 9
3 15033 27
3 15034 2
3 15035 21
3 15036 51
3 15037 12
3 15038 16
3 15039 1
3 15040 44
3 15041 8
3 15042 26
3 15043 14
3 15044 8
3 15045 10
3 15046 44
3 15047 58
3 15048 8
3 15049 21
3 15050 30
3 15051 71
3 15052 8
3 15053 3
3 15054 824
3 15055 23
3 15056 11
3 15057 21
3 15058 15
3 15059 56
3 15060 9
3 15061 13
3 15062 25
3 15063 24
3 15064 25
3 15065 10
3 15066 5
3 15067 90
3 15068 18
3 15069 7
3 15070 15
3 15071 13
3 15072 5
3 15073 8
3 15074 23
3 15075 9
3 15076 5
3 15077 9
3 15078 13
3 15079 124
3 15080 5
3 15081 11
3 15082 31
3 15083 10
3 15084 17
3 15085 4
3 15086 28
3 15087 11
3 15088 7
3 15089 34
3 15090 10
3 15091 5
3 15092 53
3 15093 11
3 15094 5
3 15095 31
3 15096 110
3 15097 10
3 15098 8
3 15099 10
3 15100 21
3 15101 9
3 15102 14
3 15103 11
3 15104 18
3 15105 44
3 15106 8
3 15107 53
3 15108 4
3 15109 13
3 15110 49
3 15111 7
3 15112 19
3 15113 11
3 15114 25
3 15115 20
3 15116 5
3 15117 17
3 15118 17
3 15119 18
3 15120 11
3 15121 13
3 15122 65
3 15123 7
3 15124 12
3 15125 21
3 15126 17
3 15127 11
3 15128 11
3 15129 4
3 15130 13
3 15131 12
3 15132 9
3 15133 10
3 15134 19
3 15135 12
3 15136 6
3 15137 11
3 15138 7
3 15139 38
3 15140 19
3 15141 50
3 15142 86
3 15143 8
3 15144 2
3 15145 16
3 15146 12
3 15147 77
3 15148 13
3 15149 90
3 15150 986
3 15151 30
3 15152 3
3 15153 7
3 15154 13
3 15155 13
3 15156 24
3 15157 11
3 15158 42
3 15159 7
3 15160 15
3 15161 36
3 15162 4
3 15163 117
3 15164 12
3 15165 9
3 15166 79
3 15167 10
3 15168 10
3 15169 18
3 15170 70
3 15171 99
3 15172 22
3 15173 15
3 15174 13
3 15175 5
3 15176 7
3 15177 10
3 15178 64
3 15179 19
3 15180 99
3 15181 7
3 15182 7
3 15183 9
3 15184 17
3 15185 18
3 15186 19
3 15187 16
3 15188 43
3 15189 17
3 15190 12
3 15191 8
3 15192 103
3 15193 84
3 15194 28
3 15195 9
3 15196 11
3 15197 12
3 15198 7
3 15199 18
3 15200 26
3 15201 29
3 15202 85
3 15203 16
3 15204 12
3 15205 21
3 15206 7
3 15207 35
3 15208 33
3 15209 11
3 15210 83
3 15211 53
3 15212 66
3 15213 114
3 15214 3
3 15215 9
3 15216 7
3 15217 52
3 15218 12
3 15219 10
3 15220 16
3 15221 1
3 15222 21
3 15223 113
3 15224 8
3 15225 15
3 15226 8
3 15227 11
3 15228 24
3 15229 12
3 15230 87
3 15231 21
3 15232 11
3 15233 7
3 15234 12
3 15235 111
3 15236 16
3 15237 11
3 15238 15
3 15239 14
3 15240 12
3 15241 64
3 15242 18
3 15243 15
3 15244 49
3 15245 8
3 15246 76
3 15247 11
3 15248 7
3 15249 30
3 15250 10
3 15251 9
3 15252 11
3 15253 14
3 15254 19
3 15255 11
3 15256 80
3 15257 33
3 15258 20
3 15259 62
3 15260 9
3 15261 17
3 15262 14
3 15263 27
3 15264 10
3 15265 166
3 15266 12
3 15267 9
3 15268 8
3 15269 12
3 15270 14
3 15271 8
3 15272 56
3 15273 20
3 15274 15
3 15275 48
3 15276 4
3 15277 13
3 15278 32
3 15279 13
3 15280 39
3 15281 6
3 15282 85
3 15283 103
3 15284 30
3 15285 21
3 15286 28
3 15287 25
3 15288 16
3 15289 23
3 15290 73
3 15291 13
3 15292 19
3 15293 10
3 15294 13
3 15295 13
3 15296 11
3 15297 11
3 15298 3
3 15299 16
3 15300 23
3 15301 54
3 15302 12
3 15303 46
3 15304 9
3 15305 10
3 15306 6
3 15307 12
3 15308 13
3 15309 13
3 15310 90
3 15311 16
3 15312 59
3 15313 15
3 15314 8
3 15315 76
3 15316 8
3 15317 16
3 15318 45
3 15319 15
3 15320 16
3 15321 77
3 15322 169
3 15323 32
3 15324 18
3 15325 16
3 15326 12
3 15327 8
3 15328 22
3 15329 16
3 15330 10
3 15331 69
3 15332 7
3 15333 53
3 15334 14
3 15335 10
3 15336 16
3 15337 14
3 15338 28
3 15339 22
3 15340 9
3 15341 11
3 15342 70
3 15343 66
3 15344 46
3 15345 18
3 15346 4
3 15347 19
3 15348 88
3 15349 18
3 15350 12
3 15351 17
3 15352 24
3 15353 8
3 15354 15
3 15355 94
3 15356 7
3 15357 8
3 15358 22
3 15359 19
3 15360 4
3 15361 10
3 15362 59
3 15363 20
3 15364 24
3 15365 14
3 15366 23
3 15367 25
3 15368 90
3 15369 16
3 15370 19
3 15371 11
3 15372 8
3 15373 9
3 15374 82
3 15375 88
3 15376 12
3 15377 16
3 15378 13
3 15379 11
3 15380 12
3 15381 8
3 15382 11
3 15383 45
3 15384 26
3 15385 10
3 15386 12
3 15387 11
3 15388 20
3 15389 22
3 15390 10
3 15391 10
3 15392 11
3 15393 108
3 15394 18
3 15395 118
3 15396 54
3 15397 1
3 15398 17
3 15399 12
3 15400 8
3 15401 27
3 15402 67
3 15403 7
3 15404 9
3 15405 6
3 15406 12
3 15407 44
3 15408 61
3 15409 11
3 15410 14
3 15411 22
3 15412 7
3 15413 18
3 15414 18
3 15415 5
3 15416 8
3 15417 8
3 15418 6
3 15419 8
3 15420 10
3 15421 5
3 15422 22
3 15423 157
3 15424 74
3 15425 20
3 15426 40
3 15427 17
3 15428 43
3 15429 69
3 15430 20
3 15431 34
3 15432 229
3 15433 35
3 15434 15
3 15435 7
3 15436 15
3 15437 17
3 15438 13
3 15439 7
3 15440 12
3 15441 8
3 15442 1059
3 15443 31
3 15444 16
3 15445 60
3 15446 21
3 15447 15
3 15448 21
3 15449 18
3 15450 10
3 15451 18
3 15452 15
3 15453 9
3 15454 8
3 15455 29
3 15456 15
3 15457 10
3 15458 11
3 15459 9
3 15460 45
3 15461 378
3 15462 37
3 15463 25
3 15464 13
3 15465 15
3 15466 21
3 15467 85
3 15468 167
3 15469 56
3 15470 7
3 15471 14
3 15472 20
3 15473 13
3 15474 16
3 15475 9
3 15476 61
3 15477 11
3 15478 47
3 15479 16
3 15480 8
3 15481 19
3 15482 10
3 15483 11
3 15484 15
3 15485 16
3 15486 6
3 15487 14
3 15488 17
3 15489 12
3 15490 98
3 15491 2
3 15492 16
3 15493 28
3 15494 9
3 15495 10
3 15496 14
3 15497 27
3 15498 11
3 15499 21
3 15500 64
3 15501 24
3 15502 4
3 15503 34
3 15504 18
3 15505 13
3 15506 13
3 15507 35
3 15508 10
3 15509 7
3 15510 53
3 15511 18
3 15512 7
3 15513 30
3 15514 14
3 15515 12
3 15516 94
3 15517 6
3 15518 16
3 15519 39
3 15520 12
3 15521 20
3 15522 9
3 15523 9
3 15524 21
3 15525 12
3 15526 9
3 15527 20
3 15528 41
3 15529 3
3 15530 6
3 15531 23
3 15532 56
3 15533 13
3 15534 7
3 15535 14
3 15536 11
3 15537 11
3 15538 39
3 15539 9
3 15540 73
3 15541 6
3 15542 8
3 15543 9
3 15544 46
3 15545 16
3 15546 9
3 15547 20
3 15548 10
3 15549 21
3 15550 69
3 15551 11
3 15552 8
3 15553 22
3 15554 1235
3 15555 11
3 15556 78
3 15557 29
3 15558 7
3 15559 14
3 15560 88
3 15561 55
3 15562 15
3 15563 11
3 15564 7
3 15565 39
3 15566 16
3 15567 19
3 15568 6
3 15569 115
3 15570 18
3 15571 19
3 15572 16
3 15573 13
3 15574 14
3 15575 13
3 15576 12
3 15577 54
3 15578 41
3 15579 20
3 15580 69
3 15581 14
3 15582 9
3 15583 10
3 15584 14
3 15585 10
3 15586 11
3 15587 36
3 15588 12
3 15589 18
3 15590 80
3 15591 23
3 15592 64
3 15593 19
3 15594 36
3 15595 9
3 15596 13
3 15597 9
3 15598 9
3 15599 41
3 15600 16
3 15601 47
3 15602 86
3 15603 27
3 15604 11
3 15605 17
3 15606 18
3 15607 20
3 15608 11
3 15609 8
3 15610 7
3 15611 21
3 15612 22
3 15613 19
3 15614 16
3 15615 11
3 15616 26
3 15617 7
3 15618 31
3 15619 20
3 15620 11
3 15621 19
3 15622 15
3 15623 40
3 15624 13
3 15625 16
3 15626 80
3 15627 16
3 15628 25
3 15629 13
3 15630 13
3 15631 11
3 15632 13
3 15633 39
3 15634 69
3 15635 11
3 15636 42
3 15637 145
3 15638 11
3 15639 34
3 15640 14
3 15641 14
3 15642 10
3 15643 15
3 15644 13
3 15645 17
3 15646 7
3 15647 5
3 15648 6
3 15649 12
3 15650 8
3 15651 13
3 15652 22
3 15653 13
3 15654 35
3 15655 72
3 15656 6
3 15657 10
3 15658 61
3 15659 5
3 15660 23
3 15661 6
3 15662 9
3 15663 24
3 15664 9
3 15665 8
3 15666 95
3 15667 8
3 15668 80
3 15669 20
3 15670 85
3 15671 16
3 15672 92
3 15673 12
3 15674 13
3 15675 16
3 15676 8
3 15677 11
3 15678 9
3 15679 4
3 15680 12
3 15681 66
3 15682 17
3 15683 20
3 15684 67
3 15685 1
3 15686 8
3 15687 22
3 15688 5
3 15689 6
3 15690 7
3 15691 11
3 15692 8
3 15693 59
3 15694 9
3 15695 4
3 15696 49
3 15697 17
3 15698 20
3 15699 91
3 15700 12
3 15701 13
3 15702 7
3 15703 28
3 15704 12
3 15705 12
3 15706 19
3 15707 50
3 15708 14
3 15709 44
3 15710 96
3 15711 41
3 15712 19
3 15713 13
3 15714 18
3 15715 36
3 15716 23
3 15717 69
3 15718 16
3 15719 9
3 15720 22
3 15721 22
3 15722 131
3 15723 17
3 15724 67
3 15725 7
3 15726 11
3 15727 57
3 15728 5
3 15729 9
3 15730 73
3 15731 24
3 15732 18
3 15733 43
3 15734 21
3 15735 50
3 15736 1
3 15737 9
3 15738 152
3 15739 1
3 15740 6
3 15741 1
3 15742 11
3 15743 8
3 15744 29
3 15745 12
3 15746 24
3 15747 20
3 15748 15
3 15749 10
3 15750 403
3 15751 10
3 15752 5
3 15753 101
3 15754 9
3 15755 20
3 15756 15
3 15757 27
3 15758 15
3 15759 1030
3 15760 13
3 15761 13
3 15762 11
3 15763 13
3 15764 77
3 15765 8
3 15766 8
3 15767 6
3 15768 17
3 15769 14
3 15770 114
3 15771 65
3 15772 9
3 15773 23
3 15774 10
3 15775 12
3 15776 85
3 15777 14
3 15778 15
3 15779 19
3 15780 47
3 15781 33
3 15782 14
3 15783 3
3 15784 4
3 15785 37
3 15786 18
3 15787 44
3 15788 12
3 15789 13
3 15790 4
3 15791 7
3 15792 2
3 15793 71
3 15794 14
3 15795 77
3 15796 36
3 15797 27
3 15798 76
3 15799 24
3 15800 18
3 15801 6
3 15802 48
3 15803 14
3 15804 9
3 15805 11
3 15806 4
3 15807 9
3 15808 11
3 15809 9
3 15810 55
3 15811 101
3 15812 12
3 15813 16
3 15814 98
3 15815 35
3 15816 9
3 15817 6
3 15818 6
3 15819 13
3 15820 68
3 15821 39
3 15822 21
3 15823 86
3 15824 12
3 15825 20
3 15826 9
3 15827 22
3 15828 13
3 15829 15
3 15830 14
3 15831 4
3 15832 5
3 15833 7
3 15834 15
3 15835 47
3 15836 16
3 15837 147
3 15838 15
3 15839 11
3 15840 12
3 15841 33
3 15842 11
3 15843 9
3 15844 10
3 15845 12
3 15846 10
3 15847 10
3 15848 11
3 15849 12
3 15850 10
3 15851 12
3 15852 998
3 15853 86
3 15854 10
3 15855 8
3 15856 27
3 15857 23
3 15858 31
3 15859 12
3 15860 11
3 15861 20
3 15862 5
3 15863 12
3 15864 13
3 15865 58
3 15866 51
3 15867 11
3 15868 43
3 15869 9
3 15870 6
3 15871 14
3 15872 17
3 15873 8
3 15874 15
3 15875 17
3 15876 36
3 15877 19
3 15878 40
3 15879 6
3 15880 42
3 15881 14
3 15882 16
3 15883 12
3 15884 87
3 15885 9
3 15886 10
3 15887 11
3 15888 7
3 15889 47
3 15890 29
3 15891 23
3 15892 16
3 15893 9
3 15894 16
3 15895 14
3 15896 70
3 15897 16
3 15898 17
3 15899 7
3 15900 12
3 15901 74
3 15902 17
3 15903 11
3 15904 16
3 15905 266
3 15906 79
3 15907 8
3 15908 12
3 15909 11
3 15910 17
3 15911 12
3 15912 11
3 15913 19
3 15914 14
3 15915 24
3 15916 26
3 15917 26
3 15918 4
3 15919 8
3 15920 18
3 15921 8
3 15922 17
3 15923 25
3 15924 34
3 15925 51
3 15926 101
3 15927 15
3 15928 17
3 15929 16
3 15930 64
3 15931 73
3 15932 11
3 15933 60
3 15934 14
3 15935 68
3 15936 17
3 15937 18
3 15938 10
3 15939 63
3 15940 3
3 15941 4
3 15942 11
3 15943 17
3 15944 926
3 15945 74
3 15946 11
3 15947 14
3 15948 24
3 15949 10
3 15950 78
3 15951 16
3 15952 9
3 15953 7
3 15954 613
3 15955 13
3 15956 4
3 15957 9
3 15958 16
3 15959 21
3 15960 10
3 15961 21
3 15962 7
3 15963 63
3 15964 14
3 15965 10
3 15966 46
3 15967 56
3 15968 3
3 15969 12
3 15970 7
3 15971 16
3 15972 11
3 15973 89
3 15974 18
3 15975 10
3 15976 12
3 15977 21
3 15978 10
3 15979 14
3 15980 18
3 15981 11
3 15982 16
3 15983 4
3 15984 7
3 15985 11
3 15986 10
3 15987 77
3 15988 17
3 15989 41
3 15990 102
3 15991 25
3 15992 17
3 15993 4
3 15994 34
3 15995 7
3 15996 6
3 15997 25
3 15998 7
3 15999 50
3 16000 6
3 16001 18
3 16002 8
3 16003 10
3 16004 6
3 16005 12
3 16006 25
3 16007 10
3 16008 18
3 16009 51
3 16010 10
3 16011 9
3 16012 4
3 16013 17
3 16014 9
3 16015 34
3 16016 11
3 16017 14
3 16018 10
3 16019 3
3 16020 10
3 16021 10
3 16022 17
3 16023 47
3 16024 25
3 16025 114
3 16026 19
3 16027 26
3 16028 15
3 16029 15
3 16030 18
3 16031 24
3 16032 13
3 16033 11
3 16034 13
3 16035 17
3 16036 18
3 16037 16
3 16038 25
3 16039 66
3 16040 950
3 16041 14
3 16042 16
3 16043 8
3 16044 13
3 16045 13
3 16046 24
3 16047 42
3 16048 49
3 16049 45
3 16050 4
3 16051 15
3 16052 37
3 16053 14
3 16054 15
3 16055 34
3 16056 21
3 16057 30
3 16058 9
3 16059 16
3 16060 16
3 16061 9
3 16062 27
3 16063 11
3 16064 78
3 16065 10
3 16066 70
3 16067 30
3 16068 7
3 16069 11
3 16070 17
3 16071 9
3 16072 52
3 16073 19
3 16074 26
3 16075 76
3 16076 8
3 16077 46
3 16078 19
3 16079 7
3 16080 19
3 16081 12
3 16082 8
3 16083 30
3 16084 9
3 16085 10
3 16086 20
3 16087 37
3 16088 14
3 16089 10
3 16090 29
3 16091 18
3 16092 48
3 16093 11
3 16094 11
3 16095 43
3 16096 11
3 16097 88
3 16098 9
3 16099 13
3 16100 15
3 16101 9
3 16102 20
3 16103 102
3 16104 96
3 16105 38
3 16106 117
3 16107 11
3 16108 38
3 16109 11
3 16110 10
3 16111 6
3 16112 49
3 16113 34
3 16114 10
3 16115 31
3 16116 3
3 16117 79
3 16118 70
3 16119 75
3 16120 8
3 16121 67
3 16122 12
3 16123 22
3 16124 16
3 16125 18
3 16126 7
3 16127 224
3 16128 15
3 16129 47
3 16130 23
3 16131 10
3 16132 14
3 16133 17
3 16134 12
3 16135 41
3 16136 22
3 16137 40
3 16138 11
3 16139 12
3 16140 6
3 16141 8
3 16142 17
3 16143 11
3 16144 3
3 16145 44
3 16146 21
3 16147 27
3 16148 15
3 16149 60
3 16150 13
3 16151 19
3 16152 201
3 16153 12
3 16154 50
3 16155 16
3 16156 21
3 16157 15
3 16158 12
3 16159 8
3 16160 10
3 16161 7
3 16162 7
3 16163 12
3 16164 32
3 16165 13
3 16166 5
3 16167 35
3 16168 38
3 16169 9
3 16170 8
3 16171 24
3 16172 69
3 16173 49
3 16174 13
3 16175 94
3 16176 20
3 16177 85
3 16178 12
3 16179 32
3 16180 16
3 16181 30
3 16182 10
3 16183 28
3 16184 11
3 16185 11
3 16186 14
3 16187 9
3 16188 87
3 16189 7
3 16190 47
3 16191 8
3 16192 22
3 16193 10
3 16194 19
3 16195 9
3 16196 23
3 16197 10
3 16198 119
3 16199 48
3 16200 12
3 16201 9
3 16202 31
3 16203 116
3 16204 102
3 16205 20
3 16206 12
3 16207 33
3 16208 25
3 16209 7
3 16210 49
3 16211 10
3 16212 18
3 16213 8
3 16214 6
3 16215 53
3 16216 77
3 16217 9
3 16218 12
3 16219 19
3 16220 11
3 16221 16
3 16222 15
3 16223 78
3 16224 13
3 16225 86
3 16226 15
3 16227 78
3 16228 14
3 16229 25
3 16230 6
3 16231 27
3 16232 16
3 16233 9
3 16234 10
3 16235 11
3 16236 4
3 16237 8
3 16238 8
3 16239 8
3 16240 13
3 16241 10
3 16242 6
3 16243 13
3 16244 29
3 16245 10
3 16246 14
3 16247 190
3 16248 13
3 16249 9
3 16250 10
3 16251 13
3 16252 18
3 16253 9
3 16254 6
3 16255 4
3 16256 12
3 16257 16
3 16258 8
3 16259 921
3 16260 15
3 16261 5
3 16262 8
3 16263 10
3 16264 9
3 16265 41
3 16266 22
3 16267 5
3 16268 8
3 16269 102
3 16270 33
3 16271 36
3 16272 14
3 16273 11
3 16274 6
3 16275 153
3 16276 14
3 16277 71
3 16278 6
3 16279 8
3 16280 31
3 16281 12
3 16282 13
3 16283 14
3 16284 14
3 16285 9
3 16286 16
3 16287 95
3 16288 12
3 16289 48
3 16290 16
3 16291 12
3 16292 14
3 16293 62
3 16294 59
3 16295 15
3 16296 9
3 16297 17
3 16298 90
3 16299 49
3 16300 15
3 16301 85
3 16302 20
3 16303 12
3 16304 6
3 16305 687
3 16306 112
3 16307 7
3 16308 16
3 16309 9
3 16310 41
3 16311 9
3 16312 16
3 16313 13
3 16314 47
3 16315 14
3 16316 20
3 16317 111
3 16318 6
3 16319 67
3 16320 50
3 16321 15
3 16322 31
3 16323 41
3 16324 142
3 16325 39
3 16326 10
3 16327 69
3 16328 21
3 16329 12
3 16330 10
3 16331 20
3 16332 12
3 16333 27
3 16334 13
3 16335 9
3 16336 16
3 16337 13
3 16338 9
3 16339 7
3 16340 18
3 16341 24
3 16342 67
3 16343 11
3 16344 22
3 16345 12
3 16346 7
3 16347 44
3 16348 17
3 16349 17
3 16350 42
3 16351 11
3 16352 11
3 16353 8
3 16354 4
3 16355 12
3 16356 67
3 16357 9
3 16358 18
3 16359 11
3 16360 18
3 16361 792
3 16362 9
3 16363 8
3 16364 12
3 16365 54
3 16366 22
3 16367 19
3 16368 7
3 16369 15
3 16370 6
3 16371 15
3 16372 12
3 16373 8
3 16374 14
3 16375 50
3 16376 15
3 16377 54
3 16378 16
3 16379 60
3 16380 15
3 16381 19
3 16382 3
3 16383 7
3 16384 19
3 16385 11
3 16386 20
3 16387 45
3 16388 17
3 16389 11
3 16390 9
3 16391 11
3 16392 161
3 16393 27
3 16394 9
3 16395 63
3 16396 10
3 16397 58
3 16398 17
3 16399 12
3 16400 13
3 16401 13
3 16402 15
3 16403 14
3 16404 7
3 16405 66
3 16406 14
3 16407 10
3 16408 40
3 16409 8
3 16410 51
3 16411 15
3 16412 39
3 16413 9
3 16414 34
3 16415 46
3 16416 67
3 16417 10
3 16418 13
3 16419 18
3 16420 17
3 16421 11
3 16422 26
3 16423 24
3 16424 53
3 16425 10
3 16426 11
3 16427 15
3 16428 10
3 16429 12
3 16430 10
3 16431 24
3 16432 11
3 16433 17
3 16434 69
3 16435 20
3 16436 15
3 16437 33
3 16438 18
3 16439 13
3 16440 13
3 16441 56
3 16442 10
3 16443 14
3 16444 5
3 16445 7
3 16446 9
3 16447 13
3 16448 11
3 16449 15
3 16450 29
3 16451 9
3 16452 9
3 16453 67
3 16454 13
3 16455 37
3 16456 15
3 16457 10
3 16458 5
3 16459 22
3 16460 50
3 16461 64
3 16462 7
3 16463 7
3 16464 23
3 16465 16
3 16466 12
3 16467 95
3 16468 17
3 16469 49
3 16470 58
3 16471 37
3 16472 11
3 16473 52
3 16474 89
3 16475 10
3 16476 10
3 16477 20
3 16478 16
3 16479 55
3 16480 8
3 16481 16
3 16482 10
3 16483 15
3 16484 7
3 16485 16
3 16486 35
3 16487 8
3 16488 9
3 16489 17
3 16490 47
3 16491 38
3 16492 13
3 16493 20
3 16494 7
3 16495 6
3 16496 18
3 16497 17
3 16498 11
3 16499 78
3 16500 8
3 16501 31
3 16502 21
3 16503 8
3 16504 34
3 16505 17
3 16506 16
3 16507 15
3 16508 6
3 16509 17
3 16510 12
3 16511 22
3 16512 45
3 16513 5
3 16514 11
3 16515 14
3 16516 24
3 16517 7
3 16518 9
3 16519 9
3 16520 14
3 16521 26
3 16522 12
3 16523 17
3 16524 63
3 16525 9
3 16526 13
3 16527 11
3 16528 11
3 16529 17
3 16530 11
3 16531 15
3 16532 11
3 16533 14
3 16534 65
3 16535 13
3 16536 20
3 16537 50
3 16538 62
3 16539 8
3 16540 20
3 16541 15
3 16542 32
3 16543 11
3 16544 1
3 16545 12
3 16546 17
3 16547 27
3 16548 16
3 16549 11
3 16550 66
3 16551 8
3 16552 11
3 16553 24
3 16554 77
3 16555 16
3 16556 4
3 16557 17
3 16558 19
3 16559 27
3 16560 13
3 16561 10
3 16562 13
3 16563 13
3 16564 16
3 16565 9
3 16566 133
3 16567 8
3 16568 20
3 16569 11
3 16570 10
3 16571 13
3 16572 9
3 16573 27
3 16574 15
3 16575 8
3 16576 13
3 16577 15
3 16578 17
3 16579 14
3 16580 8
3 16581 31
3 16582 11
3 16583 9
3 16584 13
3 16585 103
3 16586 11
3 16587 37
3 16588 18
3 16589 11
3 16590 20
3 16591 42
3 16592 15
3 16593 16
3 16594 75
3 16595 23
3 16596 12
3 16597 34
3 16598 10
