%%MatrixMarket matrix coordinate integer general
%
8 2508 20001
1 1 35
1 2 37
1 3 27
1 4 46
1 5 50
1 6 27
1 7 52
1 8 39
1 9 56
1 10 33
1 11 26
1 12 34
1 13 41
1 14 77
1 15 37
1 16 7669
1 17 47
1 18 603
1 19 19
1 20 30
1 21 25
1 22 28
1 23 54
1 24 71
1 25 7
1 26 57
1 27 28
1 28 60
1 29 30
1 30 19
1 31 61
1 32 50
1 33 34
1 34 41
1 35 29
1 36 27
1 37 45
1 38 109
1 39 48
1 40 50
1 41 53
1 42 34
1 43 40
1 44 41
1 45 27
1 46 4
1 47 20
1 48 30
1 49 30
1 50 36
1 51 33
1 52 48
1 53 36
1 54 40
1 55 33
1 56 1518
1 57 44
1 58 35
1 59 10
1 60 51
1 61 105
1 62 30
1 63 30
1 64 35
1 65 49
1 66 20
1 67 32
1 68 28
1 69 28
1 70 51
1 71 63
1 72 61
1 73 1367
1 74 1129
1 75 34
1 76 45
1 77 28
1 78 36
1 79 44
1 80 27
1 81 29
1 82 35
1 83 21
1 84 39
1 85 48
1 86 39
1 87 67
1 88 115
1 89 44
1 90 37
1 91 69
1 92 2805
1 93 39
1 94 83
1 95 24
1 96 3378
1 97 34
1 98 31
1 99 6358
1 100 36
1 101 35
1 102 36
1 103 37
1 104 121
1 105 24
1 106 46
1 107 60
1 108 43
1 109 26
1 110 47
1 111 2
1 112 64
1 113 26
1 114 38
1 115 21
1 116 30
1 117 48
1 118 23
1 119 76
1 120 1462
1 121 50
1 122 5483
1 123 57
1 124 37
1 125 32
1 126 59
1 127 43
1 128 19
1 129 39
1 130 31
1 131 99
1 132 37
1 133 36
1 134 36
1 135 1733
1 136 33
1 137 66
1 138 1
1 139 42
1 140 29
1 141 36
1 142 6699
1 143 26
1 144 29
1 145 59
1 146 54
1 147 21
1 148 24
1 149 1312
1 150 2593
1 151 63
1 152 28
1 153 44
1 154 82
1 155 92
1 156 24
1 157 55
1 158 30
1 159 70
1 160 40
1 161 66
1 162 15
1 163 18
1 164 40
1 165 59
1 166 33
1 167 33
1 168 37
1 169 37
1 170 3
1 171 66
1 172 72
1 173 28
1 174 19
1 175 51
1 176 27
1 177 44
1 178 44
1 179 1574
1 180 1846
1 181 6808
1 182 54
1 183 31
1 184 26
1 185 34
1 186 2831
1 187 29
1 188 35
1 189 66
1 190 3967
1 191 52
1 192 26
1 193 49
1 194 92
1 195 52
1 196 85
1 197 58
1 198 44
1 199 38
1 200 66
1 201 36
1 202 33
1 203 68
1 204 36
1 205 23
1 206 42
1 207 37
1 208 29
1 209 36
1 210 99
1 211 45
1 212 1
1 213 56
1 214 36
1 215 50
1 216 37
1 217 43
1 218 36
1 219 27
1 220 30
1 221 39
1 222 52
1 223 102
1 224 48
1 225 47
1 226 41
1 227 8747
1 228 22
1 229 26
1 230 38
1 231 33
1 232 6898
1 233 30
1 234 32
1 235 81
1 236 38
1 237 30
1 238 32
1 239 29
1 240 31
1 241 28
1 242 29
1 243 52
1 244 39
1 245 39
1 246 620
1 247 39
1 248 56
1 249 34
1 250 73
1 251 31
1 252 46
1 253 30
1 254 5939
1 255 36
1 256 25
1 257 5914
1 258 30
1 259 25
1 260 60
1 261 30
1 262 21
1 263 53
1 264 54
1 265 7
1 266 603
1 267 31
1 268 32
1 269 27
1 270 14
1 271 14
1 272 52
1 273 843
1 274 23
1 275 5
1 276 1946
1 277 33
1 278 48
1 279 48
1 280 42
1 281 40
1 282 46
1 283 1532
1 284 30
1 285 27
1 286 4310
1 287 1480
1 288 102
1 289 58
1 290 32
1 291 33
1 292 1
1 293 2233
1 294 36
1 295 46
1 296 5094
1 297 23
1 298 977
1 299 22
1 300 37
1 301 20
1 302 15
1 303 19
1 304 34
1 305 34
1 306 39
1 307 8
1 308 51
1 309 35
1 310 48
1 311 31
1 312 49
1 313 25
1 314 42
1 315 29
1 316 7
1 317 1839
1 318 1641
1 319 47
1 320 50
1 321 35
1 322 43
1 323 6541
1 324 39
1 325 44
1 326 1868
1 327 28
1 328 22
1 329 45
1 330 32
1 331 32
1 332 64
1 333 36
1 334 52
1 335 29
1 336 15
1 337 71
1 338 45
1 339 52
1 340 27
1 341 45
1 342 31
1 343 33
1 344 5838
1 345 36
1 346 36
1 347 52
1 348 44
1 349 23
1 350 40
1 351 6050
1 352 79
1 353 44
1 354 28
1 355 39
1 356 31
1 357 25
1 358 43
1 359 43
1 360 27
1 361 45
1 362 34
1 363 16
1 364 30
1 365 1381
1 366 50
1 367 32
1 368 56
1 369 34
1 370 61
1 371 36
1 372 21
1 373 56
1 374 33
1 375 7
1 376 6
1 377 5
1 378 3
1 379 4
1 380 2
1 381 1
1 383 1
1 385 54
1 386 32
1 387 31
1 388 41
1 389 36
1 390 64
1 391 40
1 392 53
1 393 27
1 394 46
1 395 37
1 396 33
1 397 2604
1 398 27
1 399 7383
1 400 47
1 401 63
1 402 69
1 403 47
1 404 46
1 405 36
1 406 33
1 407 49
1 408 51
1 409 5809
1 410 6116
1 411 70
1 412 24
1 413 36
1 414 35
1 415 34
1 416 9
1 417 98
1 418 3
1 419 39
1 420 39
1 421 40
1 422 35
1 423 52
1 424 46
1 425 38
1 426 50
1 427 32
1 428 41
1 429 3836
1 430 32
1 431 78
1 432 29
1 433 26
1 434 4
1 435 25
1 436 33
1 437 35
1 438 42
1 439 4
1 440 32
1 441 86
1 442 30
1 443 35
1 444 40
1 445 766
1 446 37
1 447 6
1 448 32
1 449 36
1 450 45
1 451 11931
1 452 51
1 453 68
1 454 57
1 455 54
1 456 3231
1 457 34
1 458 42
1 459 46
1 460 31
1 461 112
1 462 21
1 463 4022
1 464 35
1 465 54
1 466 49
1 467 27
1 468 32
1 469 3952
1 470 3345
1 471 24
1 472 17
1 473 23
1 474 42
1 475 67
1 476 32
1 477 29
1 478 13
1 479 36
1 480 50
1 481 64
1 482 9971
1 483 38
1 484 29
1 485 1354
1 486 48
1 487 29
1 488 41
1 489 41
1 490 44
1 491 31
1 492 27
1 493 46
1 494 50
1 495 92
1 496 35
1 497 5516
1 498 35
1 499 8
1 500 51
1 501 33
1 502 67
1 503 27
1 504 40
1 505 27
1 506 46
1 507 54
1 508 57
1 509 43
1 510 11672
1 511 35
1 512 3805
1 513 39
1 514 64
1 515 46
1 516 389
1 517 30
1 518 50
1 519 52
1 520 34
1 521 3412
1 522 3642
1 523 41
1 524 34
1 525 26
1 526 47
1 527 41
1 528 47
1 529 35
1 530 49
1 531 35
1 532 1702
1 533 5602
1 534 24
1 535 13
1 536 29
1 537 23
1 538 37
1 539 75
1 540 46
1 541 66
1 542 29
1 543 6625
1 544 52
1 545 42
1 546 22
1 547 1007
1 548 4721
1 549 366
1 550 36
1 551 1265
1 552 22
1 553 23
1 554 53
1 555 31
1 556 34
1 557 47
1 558 29
1 559 4554
1 560 39
1 561 22
1 562 25
1 563 16
1 564 35
1 565 1626
1 566 33
1 567 34
1 568 17690
1 569 3280
1 570 21
1 571 79
1 572 22
1 573 26
1 574 7
1 575 32
1 576 49
1 577 45
1 578 10
1 579 3355
1 580 46
1 581 6089
1 582 4560
1 583 72
1 584 19
1 585 26
1 586 4327
1 587 57
1 588 30
1 589 63
1 590 37
1 591 28
1 592 40
1 593 36
1 594 33
1 595 70
1 596 100
1 597 48
1 598 18
1 599 35
1 600 43
1 601 29
1 602 28
1 603 25
1 604 32
1 605 23
1 606 48
1 607 43
1 608 3937
1 609 1724
1 610 37
1 611 45
1 612 1567
1 613 35
1 614 48
1 615 29
1 616 39
1 617 16
1 618 4097
1 619 40
1 620 72
1 621 12476
1 622 52
1 623 40
1 624 43
1 625 47
1 626 39
1 627 45
1 628 50
1 629 47
1 630 24
1 631 23
1 632 1352
1 633 33
1 634 31
1 635 46
1 636 59
1 637 45
1 638 50
1 639 47
1 640 57
1 641 31
1 642 42
1 643 43
1 644 43
1 645 71
1 646 23
1 647 7268
1 648 35
1 649 38
1 650 26
1 651 5954
1 652 29
1 653 94
1 654 38
1 655 32
1 656 73
1 657 36
1 658 39
1 659 28
1 660 37
1 661 44
1 662 283
1 663 35
1 664 80
1 665 42
1 666 30
1 667 35
1 668 28
1 669 34
1 670 51
1 671 27
1 672 983
1 673 38
1 674 51
1 675 4512
1 676 38
1 677 57
1 678 77
1 679 60
1 680 41
1 681 45
1 682 35
1 683 56
1 684 15
1 685 56
1 686 3451
1 687 7
1 688 31
1 689 31
1 690 38
1 691 30
1 692 17
1 693 49
1 694 33
1 695 24
1 696 30
1 697 49
1 698 44
1 699 59
1 700 22
1 701 25
1 702 9566
1 703 79
1 704 43
1 705 41
1 706 39
1 707 36
1 708 118
1 709 1314
1 710 28
1 711 34
1 712 1181
1 713 39
1 714 42
1 715 41
1 716 83
1 717 27
1 718 48
1 719 24
1 720 22
1 721 36
1 722 49
1 723 18
1 724 25
1 725 31
1 726 28
1 727 38
1 728 50
1 729 1893
1 730 37
1 731 46
1 732 808
1 733 54
1 734 28
1 735 85
1 736 32
1 737 27
1 738 55
1 739 59
1 740 32
1 741 27
1 742 16
1 743 27
1 744 63
1 745 3510
1 746 26
1 747 51
1 748 24
1 749 21
1 750 41
1 751 3859
1 752 34
1 753 37
1 754 55
1 755 20
1 756 36
1 757 1120
1 758 29
1 759 52
1 760 53
1 761 40
1 762 6428
1 763 65
1 764 2974
1 765 40
1 766 45
1 767 38
1 768 61
1 769 58
1 770 16
1 771 4965
1 772 5808
1 773 62
1 774 52
1 775 110
1 776 47
1 777 37
1 778 1124
1 779 29
1 780 22
1 781 34
1 782 32
1 783 26
1 784 16
1 785 55
1 786 17
1 787 21
1 788 24
1 789 20
1 790 76
1 791 28
1 792 26
1 793 24
1 794 18
1 795 26
1 796 54
1 797 35
1 798 59
1 799 37
1 800 31
1 801 26
1 802 28
1 803 27
1 804 49
1 805 72
1 806 43
1 807 26
1 808 37
1 809 26
1 810 67
1 811 56
1 812 46
1 813 57
1 814 28
1 815 28
1 816 21
1 817 30
1 818 2820
1 819 35
1 820 66
1 821 33
1 822 28
1 823 37
1 824 46
1 825 29
1 826 81
1 827 21
1 828 40
1 829 22
1 830 26
1 831 30
1 832 95
1 833 5947
1 834 7704
1 835 23
1 836 39
1 837 22
1 838 1
1 839 4776
1 840 54
1 841 26
1 842 53
1 843 46
1 844 7
1 845 37
1 846 21
1 847 2662
1 848 62
1 849 61
1 850 34
1 851 50
1 852 46
1 853 55
1 854 1361
1 855 46
1 856 23
1 857 65
1 858 37
1 859 49
1 860 30
1 861 340
1 862 21
1 863 44
1 864 35
1 865 37
1 866 3973
1 867 730
1 868 56
1 869 38
1 870 33
1 871 40
1 872 7
1 873 32
1 874 22
1 875 80
1 876 38
1 877 33
1 878 28
1 879 33
1 880 61
1 881 32
1 882 28
1 883 3329
1 884 32
1 885 20
1 886 32
1 887 69
1 888 38
1 889 50
1 890 22
1 891 42
1 892 35
1 893 39
1 894 48
1 895 18
1 896 23
1 897 47
1 898 22
1 899 3361
1 900 31
1 901 34
1 902 63
1 903 30
1 904 34
1 905 30
1 906 24
1 907 20
1 908 2580
1 909 28
1 910 37
1 911 38
1 912 27
1 913 21
1 914 18
1 915 42
1 916 44
1 917 4989
1 918 38
1 919 64
1 920 26
1 921 33
1 922 26
1 923 18
1 924 43
1 925 7072
1 926 12
1 927 31
1 928 36
1 929 5973
1 930 36
1 931 34
1 932 5618
1 933 46
1 934 50
1 935 5885
1 936 47
1 937 15
1 938 33
1 939 23
1 940 45
1 941 51
1 942 33
1 943 83
1 944 31
1 945 25
1 946 4031
1 947 17
1 948 44
1 949 21
1 950 25
1 951 51
1 952 38
1 953 77
1 954 25
1 955 20
1 956 48
1 957 35
1 958 7803
1 959 55
1 960 32
1 961 109
1 962 32
1 963 44
1 964 42
1 965 47
1 966 30
1 967 37
1 968 6738
1 969 58
1 970 49
1 971 37
1 972 33
1 973 47
1 974 88
1 975 41
1 976 29
1 977 38
1 978 45
1 979 21
1 980 54
1 981 26
1 982 36
1 983 40
1 984 33
1 985 39
1 986 33
1 987 79
1 988 4832
1 989 27
1 990 36
1 991 21
1 992 26
1 993 45
1 994 60
1 995 45
1 996 52
1 997 40
1 998 41
1 999 2308
1 1000 65
1 1001 53
1 1002 1893
1 1003 47
1 1004 43
1 1005 1183
1 1006 43
1 1007 41
1 1008 31
1 1009 32
1 1010 32
1 1011 5642
1 1012 1999
1 1013 21
1 1014 55
1 1015 22
1 1016 25
1 1017 10
1 1018 31
1 1019 23
1 1020 63
1 1021 27
1 1022 24
1 1023 34
1 1024 7879
1 1025 34
1 1026 50
1 1027 11
1 1028 90
1 1029 56
1 1030 53
1 1031 45
1 1032 6324
1 1033 29
1 1034 28
1 1035 3057
1 1036 95
1 1037 51
1 1038 43
1 1039 53
1 1040 46
1 1041 26
1 1042 63
1 1043 1220
1 1044 10784
1 1045 65
1 1046 34
1 1047 11
1 1048 50
1 1049 27
1 1050 66
1 1051 62
1 1052 37
1 1053 33
1 1054 13
1 1055 15
1 1056 45
1 1057 25
1 1058 33
1 1059 40
1 1060 38
1 1061 38
1 1062 39
1 1063 41
1 1064 56
1 1065 27
1 1066 25
1 1067 1264
1 1068 1219
1 1069 30
1 1070 2798
1 1071 62
1 1072 33
1 1073 1196
1 1074 67
1 1075 41
1 1076 648
1 1077 21
1 1078 16
1 1079 27
1 1080 22
1 1081 51
1 1082 7
1 1083 52
1 1084 42
1 1085 25
1 1086 36
1 1087 26
1 1088 31
1 1089 48
1 1090 35
1 1091 23
1 1092 19
1 1093 39
1 1094 22
1 1095 18
1 1096 24
1 1097 26
1 1098 41
1 1099 31
1 1100 15
1 1101 24
1 1102 49
1 1103 29
1 1104 35
1 1105 3916
1 1106 10
1 1107 17
1 1108 110
1 1109 8
1 1110 21
1 1111 5
1 1112 30
1 1113 19
1 1114 28
1 1115 16
1 1116 14
1 1117 22
1 1118 18
1 1119 24
1 1120 1675
1 1121 27
1 1122 48
1 1123 40
1 1124 41
1 1125 24
1 1126 28
1 1127 264
1 1128 29
1 1129 33
1 1130 32
1 1131 32
1 1132 51
1 1133 29
1 1134 14
1 1135 27
1 1136 31
1 1137 31
1 1138 6
1 1139 4406
1 1140 33
1 1141 53
1 1142 61
1 1143 30
1 1144 33
1 1145 41
1 1146 45
1 1147 40
1 1148 22
1 1149 47
1 1150 24
1 1151 40
1 1152 30
1 1153 30
1 1154 28
1 1155 1094
1 1156 22
1 1157 42
1 1158 39
1 1159 38
1 1160 37
1 1161 41
1 1162 1229
1 1163 40
1 1164 21
1 1165 90
1 1166 33
1 1167 13
1 1168 44
1 1169 34
1 1170 50
1 1171 32
1 1172 21
1 1173 24
1 1174 33
1 1175 65
1 1176 49
1 1177 2513
1 1178 31
1 1179 111
1 1180 35
1 1181 42
1 1182 25
1 1183 44
1 1184 40
1 1185 46
1 1186 29
1 1187 14
1 1188 38
1 1189 32
1 1190 3079
1 1191 16
1 1192 58
1 1193 26
1 1194 22
1 1195 33
1 1196 43
1 1197 69
1 1198 31
1 1199 23
1 1200 2701
1 1201 37
1 1202 19
1 1203 34
1 1204 22
1 1205 10
1 1206 46
1 1207 1002
1 1208 17
1 1209 30
1 1210 26
1 1211 29
1 1212 2
1 1213 40
1 1214 29
1 1215 63
1 1216 53
1 1217 2944
1 1218 60
1 1219 43
1 1220 44
1 1221 40
1 1222 55
1 1223 47
1 1224 67
1 1225 39
1 1226 30
1 1227 2051
1 1228 30
1 1229 24
1 1230 44
1 1231 25
1 1232 28
1 1233 43
1 1234 35
1 1235 40
1 1236 33
1 1237 54
1 1238 14
1 1239 26
1 1240 35
1 1241 43
1 1242 1163
1 1243 12181
1 1244 53
1 1245 63
1 1246 81
1 1247 36
1 1248 1717
1 1249 16
1 1250 57
1 1251 54
1 1252 36
1 1253 5696
1 1254 24
1 1255 21
1 1256 30
1 1257 35
1 1258 18
1 1259 121
1 1260 39
1 1261 24
1 1262 22
1 1263 39
1 1264 2946
1 1265 33
1 1266 20
1 1267 92
1 1268 50
1 1269 39
1 1270 27
1 1271 36
1 1272 36
1 1273 45
1 1274 1332
1 1275 52
1 1276 79
1 1277 44
1 1278 55
1 1279 47
1 1280 22
1 1281 33
1 1282 54
1 1283 26
1 1284 32
1 1285 37
1 1286 56
1 1287 90
1 1288 33
1 1289 36
1 1290 29
1 1291 26
1 1292 4942
1 1293 44
1 1294 37
1 1295 39
1 1296 28
1 1297 30
1 1298 40
1 1299 44
1 1300 50
1 1301 82
1 1302 24
1 1303 28
1 1304 70
1 1305 25
1 1306 29
1 1307 29
1 1308 43
1 1309 1329
1 1310 30
1 1311 6377
1 1312 44
1 1313 30
1 1314 18
1 1315 32
1 1316 48
1 1317 30
1 1318 20
1 1319 44
1 1320 21
1 1321 18
1 1322 7105
1 1323 28
1 1324 13
1 1325 43
1 1326 30
1 1327 31
1 1328 36
1 1329 27
1 1330 34
1 1331 29
1 1332 32
1 1333 65
1 1334 5055
1 1335 71
1 1336 40
1 1337 31
1 1338 29
1 1339 35
1 1340 48
1 1341 43
1 1342 42
1 1343 23
1 1344 7463
1 1345 4369
1 1346 19
1 1347 76
1 1348 38
1 1349 24
1 1350 31
1 1351 51
1 1352 33
1 1353 52
1 1354 23
1 1355 54
1 1356 30
1 1357 33
1 1358 41
1 1359 45
1 1360 38
1 1361 41
1 1362 2952
1 1363 21
1 1364 69
1 1365 28
1 1366 6702
1 1367 57
1 1368 9
1 1369 57
1 1370 41
1 1371 13
1 1372 55
1 1373 41
1 1374 67
1 1375 1211
1 1376 58
1 1377 17
1 1378 23
1 1379 37
1 1380 70
1 1381 35
1 1382 29
1 1383 1983
1 1384 106
1 1385 57
1 1386 15
1 1387 62
1 1388 29
1 1389 53
1 1390 24
1 1391 69
1 1392 93
1 1393 16
1 1394 21
1 1395 36
1 1396 29
1 1397 49
1 1398 40
1 1399 30
1 1400 35
1 1401 42
1 1402 45
1 1403 89
1 1404 15
1 1405 33
1 1406 26
1 1407 49
1 1408 29
1 1409 2
1 1410 9445
1 1411 21
1 1412 26
1 1413 27
1 1414 23
1 1415 61
1 1416 8523
1 1417 42
1 1418 57
1 1419 7933
1 1420 32
1 1421 20
1 1422 11
1 1423 38
1 1424 16
1 1425 8
1 1426 49
1 1427 54
1 1428 36
1 1429 62
1 1430 42
1 1431 13
1 1432 56
1 1433 32
1 1434 43
1 1435 35
1 1436 52
1 1437 3608
1 1438 26
1 1439 37
1 1440 46
1 1441 37
1 1442 29
1 1443 27
1 1444 35
1 1445 32
1 1446 52
1 1447 27
1 1448 63
1 1449 41
1 1450 37
1 1451 67
1 1452 27
1 1453 36
1 1454 48
1 1455 33
1 1456 29
1 1457 79
1 1458 12355
1 1459 36
1 1460 63
1 1461 43
1 1462 30
1 1463 35
1 1464 44
1 1465 37
1 1466 11564
1 1467 32
1 1468 6046
1 1469 83
1 1470 48
1 1471 59
1 1472 69
1 1473 49
1 1474 27
1 1475 59
1 1476 28
1 1477 36
1 1478 613
1 1479 25
1 1480 44
1 1481 48
1 1482 97
1 1483 34
1 1484 26
1 1485 1
1 1486 38
1 1487 35
1 1488 35
1 1489 325
1 1490 45
1 1491 73
1 1492 13
1 1493 38
1 1494 48
1 1495 18
1 1496 93
1 1497 30
1 1498 45
1 1499 5260
1 1500 28
1 1501 22
1 1502 39
1 1503 29
1 1504 39
1 1505 46
1 1506 46
1 1507 41
1 1508 44
1 1509 4678
1 1510 29
1 1511 32
1 1512 21
1 1513 19
1 1514 2507
1 1515 49
1 1516 93
1 1517 29
1 1518 29
1 1519 864
1 1520 33
1 1521 50
1 1522 5955
1 1523 44
1 1524 63
1 1525 26
1 1526 765
1 1527 7026
1 1528 20
1 1529 5016
1 1530 52
1 1531 46
1 1532 25
1 1533 1774
1 1534 32
1 1535 35
1 1536 4736
1 1537 43
1 1538 44
1 1539 32
1 1540 104
1 1541 101
1 1542 30
1 1543 29
1 1544 3089
1 1545 40
1 1546 44
1 1547 57
1 1548 24
1 1549 3121
1 1550 14807
1 1551 57
1 1552 38
1 1553 31
1 1554 1091
1 1555 40
1 1556 13
1 1557 8312
1 1558 30
1 1559 51
1 1560 1636
1 1561 24
1 1562 34
1 1563 67
1 1564 39
1 1565 33
1 1566 101
1 1567 49
1 1568 31
1 1569 8135
1 1570 31
1 1571 46
1 1572 22
1 1573 52
1 1574 18
1 1575 80
1 1576 39
1 1577 67
1 1578 40
1 1579 46
1 1580 49
1 1581 962
1 1582 50
1 1583 28
1 1584 42
1 1585 39
1 1586 53
1 1587 51
1 1588 4182
1 1589 43
1 1590 63
1 1591 52
1 1592 27
1 1593 24
1 1594 53
1 1595 43
1 1596 872
1 1597 51
1 1598 2879
1 1599 43
1 1600 46
1 1601 42
1 1602 44
1 1603 9
1 1604 22
1 1605 42
1 1606 40
1 1607 28
1 1608 48
1 1609 39
1 1610 48
1 1611 47
1 1612 33
1 1613 56
1 1614 51
1 1615 32
1 1616 41
1 1617 35
1 1618 34
1 1619 46
1 1620 57
1 1621 7
1 1622 35
1 1623 26
1 1624 25
1 1625 2998
1 1626 3341
1 1627 2
1 1628 57
1 1629 64
1 1630 21
1 1631 36
1 1632 68
1 1633 792
1 1634 52
1 1635 39
1 1636 27
1 1637 123
1 1638 39
1 1639 45
1 1640 32
1 1641 60
1 1642 30
1 1643 27
1 1644 42
1 1645 34
1 1646 36
1 1647 28
1 1648 30
1 1649 35
1 1650 40
1 1651 34
1 1652 67
1 1653 17
1 1654 71
1 1655 5
1 1656 3883
1 1657 43
1 1658 22
1 1659 70
1 1660 51
1 1661 38
1 1662 34
1 1663 30
1 1664 18
1 1665 26
1 1666 49
1 1667 39
1 1668 31
1 1669 5222
1 1670 78
1 1671 59
1 1672 42
1 1673 41
1 1674 33
1 1675 32
1 1676 7946
1 1677 35
1 1678 5
1 1679 71
1 1680 65
1 1681 46
1 1682 26
1 1683 6458
1 1684 35
1 1685 9
1 1686 10
1 1687 60
1 1688 54
1 1689 28
1 1690 2458
1 1691 28
1 1692 31
1 1693 34
1 1694 26
1 1695 31
1 1696 1574
1 1697 44
1 1698 22
1 1699 38
1 1700 41
1 1701 31
1 1702 30
1 1703 38
1 1704 32
1 1705 51
1 1706 30
1 1707 33
1 1708 2346
1 1709 16
1 1710 40
1 1711 3
1 1712 23
1 1713 42
1 1714 30
1 1715 37
1 1716 33
1 1717 38
1 1718 43
1 1719 33
1 1720 48
1 1721 30
1 1722 30
1 1723 32
1 1724 2429
1 1725 84
1 1726 1224
1 1727 35
1 1728 32
1 1729 73
1 1730 12
1 1731 24
1 1732 35
1 1733 38
1 1734 29
1 1735 24
1 1736 27
1 1737 24
1 1738 31
1 1739 55
1 1740 42
1 1741 63
1 1742 18
1 1743 59
1 1744 75
1 1745 33
1 1746 26
1 1747 33
1 1748 35
1 1749 4631
1 1750 3972
1 1751 66
1 1752 53
1 1753 89
1 1754 24
1 1755 20
1 1756 34
1 1757 30
1 1758 25
1 1759 39
1 1760 51
1 1761 34
1 1762 31
1 1763 39
1 1764 9429
1 1765 54
1 1766 1554
1 1767 29
1 1768 35
1 1769 61
1 1770 31
1 1771 35
1 1772 46
1 1773 42
1 1774 36
1 1775 42
1 1776 1422
1 1777 37
1 1778 12
1 1779 5182
1 1780 80
1 1781 23
1 1782 59
1 1783 29
1 1784 684
1 1785 1664
1 1786 45
1 1787 1119
1 1788 29
1 1789 46
1 1790 24
1 1791 52
1 1792 26
1 1793 10
1 1794 35
1 1795 14
1 1796 67
1 1797 35
1 1798 34
1 1799 52
1 1800 34
1 1801 43
1 1802 33
1 1803 30
1 1804 35
1 1805 2678
1 1806 850
1 1807 4043
1 1808 33
1 1809 18
1 1810 14
1 1811 46
1 1812 49
1 1813 41
1 1814 1119
1 1815 30
1 1816 45
1 1817 1029
1 1818 32
1 1819 7
1 1820 42
1 1821 4516
1 1822 30
1 1823 47
1 1824 35
1 1825 39
1 1826 4
1 1827 5398
1 1828 7574
1 1829 10017
1 1830 39
1 1831 47
1 1832 36
1 1833 38
1 1834 35
1 1835 35
1 1836 40
1 1837 1548
1 1838 29
1 1839 53
1 1840 27
1 1841 23
1 1842 39
1 1843 62
1 1844 28
1 1845 21
1 1846 51
1 1847 47
1 1848 34
1 1849 35
1 1850 36
1 1851 17
1 1852 29
1 1853 46
1 1854 40
1 1855 52
1 1856 20
1 1857 5
1 1858 62
1 1861 29
1 1862 24
1 1863 23
1 1864 1525
1 1865 78
1 1866 24
1 1867 36
1 1868 43
1 1869 20
1 1870 24
1 1871 25
1 1872 40
1 1873 1406
1 1874 26
1 1875 35
1 1876 34
1 1877 84
1 1878 31
1 1879 53
1 1880 8222
1 1881 33
1 1882 52
1 1883 86
1 1884 52
1 1885 33
1 1886 1708
1 1887 44
1 1888 46
1 1889 3172
1 1890 22
1 1891 22
1 1892 42
1 1893 14
1 1894 38
1 1895 35
1 1896 36
1 1897 44
1 1898 30
1 1899 40
1 1900 27
1 1901 55
1 1902 26
1 1903 34
1 1904 35
1 1905 38
1 1906 34
1 1907 70
1 1908 27
1 1909 1086
1 1910 3376
1 1911 40
1 1912 51
1 1913 39
1 1914 37
1 1915 25
1 1916 45
1 1917 52
1 1918 55
1 1919 46
1 1920 45
1 1921 53
1 1922 43
1 1923 29
1 1924 70
1 1925 32
1 1926 23
1 1927 75
1 1928 23
1 1929 27
1 1930 50
1 1931 51
1 1932 18
1 1933 37
1 1934 34
1 1935 34
1 1936 49
1 1937 65
1 1938 32
1 1939 31
1 1940 22
1 1941 77
1 1942 39
1 1943 23
1 1944 33
1 1945 34
1 1946 43
1 1947 1674
1 1948 39
1 1949 7575
1 1950 33
1 1951 19
1 1952 29
1 1953 32
1 1954 31
1 1955 79
1 1956 2195
1 1957 49
1 1958 17
1 1959 31
1 1960 31
1 1961 24
1 1962 12
1 1963 31
1 1964 28
1 1965 17
1 1966 47
1 1967 3854
1 1968 44
1 1969 44
1 1970 21
1 1971 70
1 1972 74
1 1973 3
1 1974 54
1 1975 44
1 1976 11
1 1977 25
1 1978 27
1 1979 38
1 1980 55
1 1981 1162
1 1982 30
1 1983 17
1 1984 47
1 1985 54
1 1986 25
1 1987 32
1 1988 27
1 1989 1283
1 1990 23
1 1991 2284
1 1992 862
1 1993 29
1 1994 27
1 1995 4472
1 1996 30
1 1997 3
1 1998 41
1 1999 22
1 2000 34
1 2001 64
1 2002 35
1 2003 40
1 2004 24
1 2005 19
1 2006 30
1 2007 101
1 2008 62
1 2009 47
1 2010 31
1 2011 21
1 2012 270
1 2013 56
1 2014 38
1 2015 53
1 2016 1977
1 2017 12
1 2018 43
1 2019 32
1 2020 48
1 2021 3722
1 2022 3579
1 2023 24
1 2024 1290
1 2025 45
1 2026 20
1 2027 69
1 2028 31
1 2029 5021
1 2030 30
1 2031 33
1 2032 1090
1 2033 41
1 2034 15
1 2035 29
1 2036 26
1 2037 50
1 2038 32
1 2039 8
1 2040 34
1 2041 50
1 2042 23
1 2043 54
1 2044 110
1 2045 39
1 2046 25
1 2047 1991
1 2048 71
1 2049 27
1 2050 35
1 2051 15
1 2052 41
1 2053 52
1 2054 57
1 2055 17
1 2056 51
1 2057 51
1 2058 56
1 2059 33
1 2060 21
1 2061 21
1 2062 34
1 2063 31
1 2064 44
1 2065 5
1 2066 3569
1 2067 40
1 2068 40
1 2069 35
1 2070 37
1 2071 39
1 2072 25
1 2073 51
1 2074 48
1 2075 54
1 2076 47
1 2077 48
1 2078 47
1 2079 911
1 2080 15
1 2081 2304
1 2082 30
1 2083 33
1 2084 22
1 2085 24
1 2086 21
1 2087 22
1 2088 41
1 2089 46
1 2090 31
1 2091 29
1 2092 51
1 2093 1992
1 2094 61
1 2095 2862
1 2096 53
1 2097 46
1 2098 31
1 2099 29
1 2100 55
1 2101 25
1 2102 34
1 2103 44
1 2104 50
1 2105 36
1 2106 47
1 2107 33
1 2108 45
1 2109 2369
1 2110 33
1 2111 31
1 2112 1684
1 2113 38
1 2114 24
1 2115 38
1 2116 17
1 2117 22
1 2118 38
1 2119 34
1 2120 23
1 2121 26
1 2122 44
1 2123 49
1 2124 40
1 2125 32
1 2126 2859
1 2127 7
1 2128 35
1 2129 50
1 2130 30
1 2131 33
1 2132 89
1 2133 24
1 2134 4349
1 2135 10
1 2136 68
1 2137 35
1 2138 20
1 2139 51
1 2140 35
1 2141 27
1 2142 23
1 2143 29
1 2144 35
1 2145 58
1 2146 28
1 2147 50
1 2148 23
1 2149 561
1 2150 20
1 2151 40
1 2152 25
1 2153 23
1 2154 32
1 2155 24
1 2156 26
1 2157 27
1 2158 32
1 2159 32
1 2160 38
1 2161 38
1 2162 33
1 2163 56
1 2164 24
1 2165 4050
1 2166 14
1 2167 7572
1 2168 34
1 2169 19
1 2170 18
1 2171 32
1 2172 22
1 2173 22
1 2174 49
1 2175 49
1 2176 28
1 2177 17
1 2178 24
1 2179 35
1 2180 20
1 2181 25
1 2182 25
1 2183 39
1 2184 7
1 2185 27
1 2186 23
1 2187 62
1 2188 20
1 2189 22
1 2190 19
1 2191 27
1 2192 20
1 2193 47
1 2194 33
1 2195 38
1 2196 29
1 2197 41
1 2198 29
1 2199 28
1 2200 31
1 2201 15
1 2202 39
1 2203 33
1 2204 24
1 2205 6781
1 2206 45
1 2207 18
1 2208 1482
1 2209 2521
1 2210 30
1 2211 2291
1 2212 23
1 2213 24
1 2214 11
1 2215 30
1 2216 32
1 2217 28
1 2218 49
1 2219 28
1 2220 41
1 2221 6673
1 2222 39
1 2223 13513
1 2224 52
1 2225 89
1 2226 31
1 2227 37
1 2228 1057
1 2229 15
1 2230 33
1 2231 31
1 2232 22
1 2233 34
1 2234 2774
1 2235 40
1 2236 42
1 2237 5
1 2238 37
1 2239 28
1 2240 52
1 2241 29
1 2242 91
1 2243 34
1 2244 8
1 2245 44
1 2246 820
1 2247 26
1 2248 46
1 2249 1
1 2250 37
1 2251 43
1 2252 20
1 2253 38
1 2254 15
1 2255 60
1 2256 75
1 2257 39
1 2258 16
1 2259 46
1 2260 37
1 2261 37
1 2262 27
1 2263 35
1 2264 24
1 2265 44
1 2266 32
1 2267 36
1 2268 38
1 2269 21
1 2270 37
1 2271 29
1 2272 30
1 2273 19
1 2274 72
1 2275 51
1 2276 36
1 2277 45
1 2278 4073
1 2279 32
1 2280 30
1 2281 309
1 2282 53
1 2283 37
1 2284 48
1 2285 26
1 2286 592
1 2287 30
1 2288 32
1 2289 59
1 2290 41
1 2291 36
1 2292 42
1 2293 34
1 2294 28
1 2295 4274
1 2296 57
1 2297 25
1 2298 35
1 2299 87
1 2300 32
1 2301 52
1 2302 48
1 2303 29
1 2304 25
1 2305 20
1 2306 26
1 2307 34
1 2308 29
1 2309 4690
1 2310 1722
1 2311 39
1 2312 99
1 2313 25
1 2314 46
1 2315 46
1 2316 20
1 2317 31
1 2318 25
1 2319 72
1 2320 25
1 2321 36
1 2322 30
1 2323 1464
1 2324 31
1 2325 34
1 2326 70
1 2327 41
1 2328 46
1 2329 37
1 2330 16
1 2331 25
1 2332 33
1 2333 2038
1 2334 2
1 2335 27
1 2336 38
1 2337 56
1 2338 689
1 2339 40
1 2340 3345
1 2341 73
1 2342 34
1 2343 43
1 2344 20
1 2345 38
1 2346 15
1 2347 1
1 2348 31
1 2349 35
1 2350 22
1 2351 42
1 2352 36
1 2353 22
1 2354 38
1 2355 35
1 2356 46
1 2357 1179
1 2358 1305
1 2359 38
1 2360 36
1 2361 24
1 2362 77
1 2363 23
1 2364 69
1 2365 2803
1 2366 812
1 2367 44
1 2368 16
1 2369 43
1 2370 16
1 2371 51
1 2372 44
1 2373 51
1 2374 41
1 2375 31
1 2376 4472
1 2377 21
1 2378 1325
1 2379 20
1 2380 53
1 2381 9
1 2382 22
1 2383 20
1 2384 23
1 2385 16
1 2386 23
1 2387 45
1 2388 1142
1 2389 30
1 2390 42
1 2391 4822
1 2392 47
1 2393 31
1 2394 27
1 2395 43
1 2396 29
1 2397 58
1 2398 6638
1 2399 1850
1 2400 34
1 2401 40
1 2402 40
1 2403 31
1 2404 28
1 2405 37
1 2406 12
1 2407 26
1 2408 22
1 2409 20
1 2410 86
1 2411 56
1 2412 102
1 2413 3776
1 2414 20
1 2415 21
1 2416 22
1 2417 37
1 2418 16
1 2419 28
1 2420 3215
1 2421 23
1 2422 42
1 2423 28
1 2424 16
1 2425 31
1 2426 42
1 2427 9
1 2428 40
1 2429 22
1 2430 19
1 2431 25
1 2432 19
1 2433 26
1 2434 27
1 2435 26
1 2436 32
1 2437 54
1 2438 4332
1 2439 8
1 2440 40
1 2441 6856
1 2442 1404
1 2443 51
1 2444 24
1 2445 46
1 2446 30
1 2447 4266
1 2448 31
1 2449 54
1 2450 42
1 2451 24
1 2452 15
1 2453 66
1 2454 14
1 2455 19
1 2456 27
1 2457 11
1 2458 34
1 2459 34
1 2460 34
1 2461 29
1 2462 41
1 2463 62
1 2464 30
1 2465 26
1 2466 2675
1 2467 28
1 2468 39
1 2469 1240
1 2470 37
1 2471 49
1 2472 12682
1 2473 38
1 2474 33
1 2475 29
1 2476 60
1 2477 28
1 2478 59
1 2479 30
1 2480 67
1 2481 17
1 2482 14
1 2483 15
1 2484 14
1 2485 3747
1 2486 66
1 2487 22
1 2488 19
1 2489 887
1 2490 30
1 2491 53
1 2492 40
1 2493 20
1 2494 33
1 2495 33
1 2496 14
1 2497 11
1 2498 27
1 2499 29
1 2500 4425
1 2501 37
1 2502 19
1 2503 31
1 2504 4230
1 2505 22
1 2506 45
1 2507 3147
1 2508 28
2 1 26
2 2 28
2 3 21
2 4 3884
2 5 89
2 6 22
2 7 38
2 8 32
2 9 36
2 10 36
2 11 30
2 12 48
2 13 24
2 14 2751
2 15 28
2 16 20
2 17 4203
2 18 17
2 19 37
2 20 32
2 21 37
2 22 33
2 23 27
2 24 5642
2 25 6
2 26 66
2 27 26
2 28 29
2 29 35
2 30 33
2 31 44
2 32 35
2 33 1411
2 34 5045
2 35 3318
2 36 35
2 37 1155
2 38 65
2 39 31
2 40 2411
2 41 65
2 42 43
2 43 22
2 44 34
2 45 625
2 46 8
2 47 26
2 48 36
2 49 47
2 50 26
2 51 34
2 52 31
2 53 12993
2 54 31
2 55 23
2 56 60
2 57 24
2 58 988
2 59 7
2 60 29
2 61 111
2 62 42
2 63 34
2 64 12
2 65 34
2 66 21
2 67 30
2 68 34
2 69 33
2 70 27
2 71 28
2 72 23
2 73 22
2 74 36
2 75 31
2 76 30
2 77 37
2 78 34
2 79 30
2 80 33
2 81 34
2 82 17
2 83 9736
2 84 29
2 85 4571
2 86 4117
2 87 41
2 88 119
2 89 32
2 90 26
2 91 4682
2 92 39
2 93 36
2 94 58
2 95 34
2 96 59
2 97 47
2 98 42
2 99 30
2 100 54
2 101 29
2 102 5504
2 103 34
2 104 70
2 105 39
2 106 29
2 107 3275
2 108 38
2 109 30
2 110 37
2 111 652
2 112 47
2 113 33
2 114 46
2 115 4987
2 116 33
2 117 29
2 118 38
2 119 71
2 120 23
2 121 21
2 122 40
2 123 50
2 124 3570
2 125 37
2 126 37
2 127 561
2 128 29
2 129 29
2 130 32
2 131 34
2 132 40
2 133 36
2 134 31
2 135 44
2 136 3712
2 137 76
2 138 3
2 139 50
2 140 24
2 141 38
2 142 37
2 143 46
2 144 29
2 145 5931
2 146 38
2 147 23
2 148 36
2 149 33
2 150 47
2 151 72
2 152 54
2 153 1178
2 154 67
2 155 74
2 156 59
2 157 43
2 158 32
2 159 86
2 160 54
2 161 85
2 162 33
2 163 49
2 164 33
2 165 41
2 166 42
2 167 28
2 168 947
2 169 31
2 170 2416
2 171 2742
2 172 63
2 173 60
2 174 19
2 175 3042
2 176 3025
2 177 35
2 178 2387
2 179 30
2 180 69
2 181 41
2 182 1437
2 183 50
2 184 4795
2 185 51
2 186 38
2 187 25
2 188 27
2 189 28
2 190 21
2 191 36
2 192 17
2 193 83
2 194 76
2 195 10485
2 196 90
2 197 34
2 198 32
2 199 33
2 200 58
2 201 41
2 202 27
2 203 25
2 204 41
2 205 37
2 206 26
2 207 3761
2 208 39
2 209 31
2 210 6425
2 211 55
2 212 3
2 213 69
2 214 37
2 215 2551
2 216 35
2 217 55
2 218 31
2 219 18
2 220 48
2 221 37
2 222 60
2 223 81
2 224 33
2 225 22
2 226 32
2 227 30
2 228 17
2 229 33
2 230 44
2 231 47
2 232 31
2 233 54
2 234 34
2 235 64
2 236 33
2 237 38
2 238 52
2 239 19
2 240 20
2 241 41
2 242 29
2 243 30
2 244 34
2 245 42
2 246 41
2 247 29
2 248 6130
2 249 1090
2 250 49
2 251 39
2 252 4463
2 253 22
2 254 46
2 255 3598
2 256 34
2 257 21
2 258 28
2 259 24
2 260 54
2 261 9
2 262 3623
2 263 36
2 264 23
2 265 20
2 266 39
2 267 755
2 268 37
2 269 45
2 270 28
2 271 31
2 272 45
2 273 23
2 274 21
2 275 14
2 276 23
2 277 31
2 278 39
2 279 35
2 280 3283
2 281 35
2 282 19
2 283 29
2 284 31
2 285 27
2 286 21
2 287 21
2 288 668
2 289 36
2 290 29
2 291 30
2 292 1590
2 293 27
2 294 1211
2 295 36
2 296 20
2 297 56
2 298 28
2 299 19
2 300 21
2 301 961
2 302 1036
2 303 18
2 304 4493
2 305 24
2 306 6370
2 307 47
2 308 63
2 309 39
2 310 45
2 311 36
2 312 33
2 313 53
2 314 32
2 315 51
2 316 3
2 317 25
2 318 61
2 319 5266
2 320 36
2 321 42
2 322 3359
2 323 30
2 324 48
2 325 29
2 326 31
2 327 93
2 328 38
2 329 39
2 330 1482
2 331 25
2 332 36
2 333 31
2 334 43
2 335 35
2 336 32
2 337 30
2 338 36
2 339 34
2 340 25
2 341 36
2 342 26
2 343 37
2 344 31
2 345 68
2 346 42
2 347 41
2 348 49
2 349 37
2 350 37
2 351 45
2 352 66
2 353 51
2 354 45
2 355 40
2 356 35
2 357 29
2 358 34
2 359 11
2 360 20
2 361 40
2 362 40
2 363 15
2 364 32
2 365 27
2 366 44
2 367 34
2 368 45
2 369 29
2 370 45
2 371 34
2 372 34
2 373 56
2 374 41
2 375 7
2 376 1
2 377 2
2 378 5
2 382 108
2 383 100
2 384 3
2 385 42
2 386 32
2 387 27
2 388 40
2 389 33
2 390 9588
2 391 38
2 392 4652
2 393 39
2 394 31
2 395 21
2 396 2218
2 397 32
2 398 9217
2 399 25
2 400 34
2 401 16
2 402 39
2 403 55
2 404 34
2 405 43
2 406 44
2 407 39
2 408 72
2 409 35
2 410 47
2 411 49
2 412 23
2 413 5606
2 414 645
2 415 19
2 416 14
2 417 73
2 418 2
2 419 34
2 420 45
2 421 32
2 422 38
2 423 26
2 424 20
2 425 2129
2 426 41
2 427 47
2 428 1230
2 429 32
2 430 39
2 431 53
2 432 29
2 433 61
2 434 1
2 435 26
2 436 40
2 437 49
2 438 34
2 439 6
2 440 40
2 441 71
2 442 30
2 443 26
2 444 25
2 445 36
2 446 54
2 447 108
2 448 36
2 449 24
2 450 46
2 451 33
2 452 46
2 453 1585
2 454 76
2 455 54
2 456 37
2 457 28
2 458 49
2 459 45
2 460 41
2 461 57
2 462 1269
2 463 35
2 464 29
2 465 32
2 466 24
2 467 21
2 468 20
2 469 46
2 470 56
2 471 19
2 472 28
2 473 35
2 474 14
2 475 59
2 476 3102
2 477 34
2 478 469
2 479 22
2 480 23
2 481 88
2 482 35
2 483 1978
2 484 33
2 485 92
2 486 2342
2 487 42
2 488 40
2 489 24
2 490 35
2 491 27
2 492 959
2 493 29
2 494 1591
2 495 66
2 496 39
2 497 26
2 498 4683
2 499 14
2 500 36
2 501 30
2 502 36
2 503 35
2 504 35
2 505 31
2 506 46
2 507 29
2 508 5453
2 509 29
2 510 38
2 511 36
2 512 36
2 513 47
2 514 70
2 515 53
2 516 32
2 517 1033
2 518 2242
2 519 35
2 520 2810
2 521 36
2 522 42
2 523 42
2 524 39
2 525 32
2 526 2334
2 527 4295
2 528 34
2 529 36
2 530 26
2 531 35
2 532 53
2 533 51
2 534 28
2 535 15
2 536 33
2 537 26
2 538 2703
2 539 65
2 540 25
2 541 51
2 542 24
2 543 22
2 544 35
2 545 38
2 546 19
2 547 23
2 548 24
2 549 61
2 550 39
2 551 36
2 552 34
2 553 2993
2 554 7640
2 555 32
2 556 24
2 557 13
2 558 3686
2 559 23
2 560 17
2 561 25
2 562 38
2 563 13
2 564 27
2 565 17
2 566 39
2 567 28
2 568 29
2 569 25
2 570 20
2 571 45
2 572 22
2 573 28
2 574 6
2 575 3452
2 576 16
2 577 22
2 578 1404
2 579 35
2 580 17
2 581 36
2 582 35
2 583 64
2 584 24
2 585 23
2 586 28
2 587 26
2 588 29
2 589 2928
2 590 24
2 591 28
2 592 19
2 593 31
2 594 36
2 595 63
2 596 79
2 597 72
2 598 1747
2 599 2074
2 600 29
2 601 34
2 602 10
2 603 2200
2 604 28
2 605 20
2 606 20
2 607 21
2 608 17
2 609 33
2 610 11
2 611 1421
2 612 30
2 613 1792
2 614 17
2 615 3255
2 616 20
2 617 1304
2 618 43
2 619 34
2 620 1079
2 621 26
2 622 29
2 623 34
2 624 40
2 625 23
2 626 15
2 627 27
2 628 30
2 629 26
2 630 27
2 631 2102
2 632 33
2 633 21
2 634 25
2 635 31
2 636 29
2 637 3524
2 638 19
2 639 38
2 640 25
2 641 28
2 642 27
2 643 34
2 644 26
2 645 1002
2 646 20
2 647 27
2 648 34
2 649 29
2 650 1307
2 651 20
2 652 25
2 653 45
2 654 27
2 655 24
2 656 58
2 657 40
2 658 569
2 659 21
2 660 29
2 661 28
2 662 14
2 663 30
2 664 62
2 665 28
2 666 25
2 667 1526
2 668 22
2 669 42
2 670 61
2 671 1391
2 672 21
2 673 17
2 674 20
2 675 25
2 676 19
2 677 51
2 678 70
2 679 20
2 680 27
2 681 33
2 682 26
2 683 35
2 684 12
2 685 43
2 686 18
2 687 32
2 688 25
2 689 37
2 690 39
2 691 27
2 692 16
2 693 21
2 694 33
2 695 26
2 696 31
2 697 37
2 698 39
2 699 37
2 700 17
2 701 28
2 702 24
2 703 59
2 704 28
2 705 35
2 706 31
2 707 27
2 708 54
2 709 76
2 710 41
2 711 34
2 712 13
2 713 27
2 714 20
2 715 1229
2 716 806
2 717 56
2 718 28
2 719 24
2 720 13
2 721 19
2 722 553
2 723 23
2 724 23
2 725 25
2 726 35
2 727 41
2 728 1272
2 729 17
2 730 22
2 731 27
2 732 31
2 733 30
2 734 705
2 735 2489
2 736 29
2 737 28
2 738 30
2 739 26
2 740 6662
2 741 744
2 742 15
2 743 16
2 744 11
2 745 26
2 746 27
2 747 26
2 748 22
2 749 27
2 750 30
2 751 22
2 752 36
2 753 34
2 754 24
2 755 21
2 756 36
2 757 28
2 758 18
2 759 2939
2 760 23
2 761 24
2 762 31
2 763 857
2 764 28
2 765 26
2 766 16
2 767 57
2 768 1026
2 769 70
2 770 32
2 771 27
2 772 28
2 773 4845
2 774 23
2 775 5742
2 776 25
2 777 27
2 778 25
2 779 24
2 780 3829
2 781 38
2 782 28
2 783 30
2 784 19
2 785 28
2 786 25
2 787 23
2 788 28
2 789 22
2 790 34
2 791 37
2 792 27
2 793 33
2 794 30
2 795 50
2 796 23
2 797 1400
2 798 15
2 799 4666
2 800 17
2 801 8
2 802 1942
2 803 24
2 804 24
2 805 30
2 806 15
2 807 27
2 808 25
2 809 20
2 810 20
2 811 24
2 812 1361
2 813 16
2 814 10
2 815 10
2 816 22
2 817 2899
2 818 5
2 819 15
2 820 30
2 821 9
2 822 29
2 823 18
2 824 20
2 825 3495
2 826 44
2 827 21
2 828 30
2 829 14
2 830 16
2 831 12
2 832 54
2 833 21
2 834 21
2 835 3037
2 836 18
2 837 23
2 838 4
2 839 21
2 840 400
2 841 3532
2 842 45
2 843 30
2 844 4
2 845 19
2 846 16
2 847 18
2 848 881
2 849 43
2 850 18
2 851 15
2 852 10
2 853 2871
2 854 22
2 855 1513
2 856 672
2 857 53
2 858 12
2 859 23
2 860 18
2 861 2
2 862 13
2 863 1731
2 864 12
2 865 12
2 866 6
2 867 12
2 868 1679
2 869 11
2 870 8
2 871 16
2 872 443
2 873 13
2 874 47
2 875 9
2 876 2
2 877 308
2 878 11
2 879 12
2 880 6
2 881 11
2 882 6
2 883 7
2 884 409
2 885 11
2 886 16
2 887 23
2 888 16
2 889 13
2 890 20
2 891 15
2 892 152
2 893 144
2 894 14
2 895 8
2 896 2386
2 897 13
2 898 12
2 899 7
2 900 355
2 901 9
2 902 26
2 903 19
2 904 14
2 905 22
2 906 15
2 907 551
2 908 6
2 909 12
2 910 7
2 911 18
2 912 17
2 913 7
2 914 10
2 915 5
2 916 9
2 917 16
2 918 7
2 919 18
2 920 14
2 921 20
2 922 14
2 923 21
2 924 15
2 925 8
2 926 1487
2 927 791
2 928 1268
2 929 12
2 930 12
2 931 12
2 932 14
2 933 18
2 934 16
2 935 9
2 936 28
2 937 7
2 938 11
2 939 579
2 940 15
2 941 22
2 942 8
2 943 148
2 944 24
2 945 697
2 946 32
2 947 26
2 948 21
2 949 23
2 950 28
2 951 29
2 952 24
2 953 63
2 954 16
2 955 633
2 956 26
2 957 20
2 958 20
2 959 65
2 960 17
2 961 80
2 962 1865
2 963 20
2 964 32
2 965 4486
2 966 21
2 967 2287
2 968 22
2 969 33
2 970 28
2 971 32
2 972 34
2 973 32
2 974 43
2 975 20
2 976 23
2 977 31
2 978 30
2 979 35
2 980 23
2 981 30
2 982 26
2 983 39
2 984 29
2 985 35
2 986 742
2 987 29
2 988 22
2 989 26
2 990 23
2 991 13
2 992 837
2 993 35
2 994 20
2 995 16
2 996 17
2 997 20
2 998 41
2 999 25
2 1000 3550
2 1001 29
2 1002 30
2 1003 17
2 1004 20
2 1005 26
2 1006 2260
2 1007 786
2 1008 915
2 1009 22
2 1010 30
2 1011 17
2 1012 103
2 1013 24
2 1014 18
2 1015 24
2 1016 278
2 1017 19
2 1018 18
2 1019 37
2 1020 46
2 1021 26
2 1022 16
2 1023 30
2 1024 43
2 1025 26
2 1026 4678
2 1027 41
2 1028 60
2 1029 34
2 1030 34
2 1031 38
2 1032 29
2 1033 20
2 1034 27
2 1035 35
2 1036 48
2 1037 44
2 1038 2326
2 1039 30
2 1040 34
2 1041 26
2 1042 29
2 1043 24
2 1044 52
2 1045 2616
2 1046 35
2 1047 3034
2 1048 27
2 1049 27
2 1050 58
2 1051 33
2 1052 66
2 1053 27
2 1054 21
2 1055 13
2 1056 2846
2 1057 23
2 1058 26
2 1059 31
2 1060 39
2 1061 32
2 1062 24
2 1063 27
2 1064 46
2 1065 21
2 1066 17
2 1067 27
2 1068 20
2 1069 22
2 1070 28
2 1071 46
2 1072 32
2 1073 19
2 1074 42
2 1075 21
2 1076 36
2 1077 18
2 1078 31
2 1079 9682
2 1080 16
2 1081 12680
2 1082 24
2 1083 3659
2 1084 16
2 1085 21
2 1086 22
2 1087 27
2 1088 32
2 1089 20
2 1090 23
2 1091 18
2 1092 15
2 1093 15
2 1094 20
2 1095 2810
2 1096 18
2 1097 18
2 1098 2852
2 1099 29
2 1100 8
2 1101 14
2 1102 29
2 1103 18
2 1104 24
2 1105 30
2 1106 998
2 1107 9
2 1108 21
2 1109 5
2 1110 14
2 1111 10
2 1112 24
2 1113 9
2 1114 17
2 1115 532
2 1116 4579
2 1117 13
2 1118 816
2 1119 870
2 1120 20
2 1121 26
2 1122 25
2 1123 37
2 1124 28
2 1125 19
2 1126 19
2 1127 18
2 1128 19
2 1129 14
2 1130 23
2 1131 24
2 1132 24
2 1133 21
2 1134 397
2 1135 46
2 1136 28
2 1137 25
2 1138 1197
2 1139 20
2 1140 19
2 1141 31
2 1142 26
2 1143 37
2 1144 2142
2 1145 28
2 1146 6958
2 1147 28
2 1148 17
2 1149 7128
2 1150 17
2 1151 18
2 1152 17
2 1153 25
2 1154 19
2 1155 36
2 1156 4848
2 1157 670
2 1158 39
2 1159 23
2 1160 26
2 1161 19
2 1162 27
2 1163 21
2 1164 16
2 1165 48
2 1166 18
2 1167 28
2 1168 32
2 1169 26
2 1170 39
2 1171 24
2 1172 25
2 1173 27
2 1174 31
2 1175 19
2 1176 36
2 1177 27
2 1178 2078
2 1179 133
2 1180 28
2 1181 54
2 1182 1393
2 1183 978
2 1184 27
2 1185 22
2 1186 24
2 1187 13
2 1188 27
2 1189 4654
2 1190 33
2 1191 39
2 1192 36
2 1193 23
2 1194 25
2 1195 21
2 1196 18
2 1197 30
2 1198 23
2 1199 21
2 1200 38
2 1201 23
2 1202 16
2 1203 30
2 1204 807
2 1205 4192
2 1206 31
2 1207 46
2 1208 32
2 1209 51
2 1210 22
2 1211 1643
2 1212 1
2 1213 28
2 1214 1825
2 1215 30
2 1216 15
2 1217 26
2 1218 36
2 1219 19
2 1220 25
2 1221 20
2 1222 27
2 1223 954
2 1224 35
2 1225 25
2 1226 7
2 1227 19
2 1228 12
2 1229 28
2 1230 23
2 1231 31
2 1232 28
2 1233 28
2 1234 37
2 1235 21
2 1236 23
2 1237 66
2 1238 9
2 1239 29
2 1240 18
2 1241 200
2 1242 23
2 1243 41
2 1244 26
2 1245 1257
2 1246 20
2 1247 20
2 1248 20
2 1249 17
2 1250 31
2 1251 12
2 1252 33
2 1253 27
2 1254 498
2 1255 29
2 1256 30
2 1257 39
2 1258 21
2 1259 72
2 1260 42
2 1261 27
2 1262 25
2 1263 39
2 1264 27
2 1265 1086
2 1266 28
2 1267 39
2 1268 4481
2 1269 31
2 1270 8750
2 1271 36
2 1272 28
2 1273 24
2 1274 6
2 1275 654
2 1276 42
2 1277 30
2 1278 51
2 1279 4468
2 1280 19
2 1281 2017
2 1282 31
2 1283 2133
2 1284 28
2 1285 31
2 1286 22
2 1287 5414
2 1288 35
2 1289 4241
2 1290 26
2 1291 26
2 1292 67
2 1293 22
2 1294 18
2 1295 39
2 1296 3439
2 1297 15
2 1298 22
2 1299 17
2 1300 2392
2 1301 62
2 1302 29
2 1303 28
2 1304 36
2 1305 19
2 1306 33
2 1307 18
2 1308 23
2 1309 35
2 1310 22
2 1311 16
2 1312 32
2 1313 27
2 1314 21
2 1315 23
2 1316 24
2 1317 19
2 1318 540
2 1319 32
2 1320 27
2 1321 16
2 1322 24
2 1323 1220
2 1324 17
2 1325 5321
2 1326 17
2 1327 14
2 1328 18
2 1329 14
2 1330 17
2 1331 26
2 1332 35
2 1333 7467
2 1334 69
2 1335 48
2 1336 19
2 1337 1971
2 1338 23
2 1339 37
2 1340 515
2 1341 47
2 1342 43
2 1343 33
2 1344 82
2 1345 35
2 1346 9
2 1347 81
2 1348 32
2 1349 2083
2 1350 30
2 1351 21
2 1352 31
2 1353 885
2 1354 23
2 1355 49
2 1356 21
2 1357 709
2 1358 31
2 1359 1048
2 1360 31
2 1361 35
2 1362 41
2 1363 24
2 1364 35
2 1365 31
2 1366 69
2 1367 36
2 1368 12
2 1369 42
2 1370 33
2 1371 17
2 1372 36
2 1373 4624
2 1374 97
2 1375 22
2 1376 25
2 1377 32
2 1378 34
2 1379 29
2 1380 37
2 1381 50
2 1382 52
2 1383 48
2 1384 20
2 1385 32
2 1386 23
2 1387 10946
2 1388 41
2 1389 42
2 1390 34
2 1391 29
2 1392 100
2 1393 15
2 1394 44
2 1395 42
2 1396 25
2 1397 44
2 1398 3674
2 1399 15
2 1400 39
2 1401 7228
2 1402 26
2 1403 70
2 1404 21
2 1405 20
2 1406 25
2 1407 35
2 1408 40
2 1409 369
2 1410 28
2 1411 37
2 1412 32
2 1413 40
2 1414 33
2 1415 58
2 1416 38
2 1417 50
2 1418 39
2 1419 59
2 1420 43
2 1421 17294
2 1422 27
2 1423 40
2 1424 18
2 1425 12
2 1426 52
2 1427 27
2 1428 39
2 1429 68
2 1430 30
2 1431 4693
2 1432 25
2 1433 41
2 1434 48
2 1435 45
2 1436 75
2 1437 35
2 1438 38
2 1439 33
2 1440 39
2 1441 36
2 1442 44
2 1443 28
2 1444 31
2 1445 38
2 1446 38
2 1447 49
2 1448 36
2 1449 42
2 1450 38
2 1451 47
2 1452 5034
2 1453 31
2 1454 54
2 1455 31
2 1456 31
2 1457 74
2 1458 63
2 1459 1647
2 1460 2920
2 1461 458
2 1462 35
2 1463 37
2 1464 2996
2 1465 53
2 1466 39
2 1467 36
2 1468 33
2 1469 99
2 1470 27
2 1471 52
2 1472 3475
2 1473 31
2 1474 33
2 1475 37
2 1476 1017
2 1477 31
2 1478 46
2 1479 37
2 1480 26
2 1481 40
2 1482 50
2 1483 10
2 1484 49
2 1485 4
2 1486 43
2 1487 27
2 1488 50
2 1489 3196
2 1490 29
2 1491 53
2 1492 14
2 1493 41
2 1494 47
2 1495 33
2 1496 69
2 1497 905
2 1498 58
2 1499 45
2 1500 48
2 1501 42
2 1502 33
2 1503 3545
2 1504 45
2 1505 25
2 1506 33
2 1507 3397
2 1508 31
2 1509 44
2 1510 3063
2 1511 41
2 1512 21
2 1513 37
2 1514 37
2 1515 1631
2 1516 51
2 1517 31
2 1518 16
2 1519 43
2 1520 48
2 1521 26
2 1522 39
2 1523 31
2 1524 1110
2 1525 37
2 1526 49
2 1527 38
2 1528 36
2 1529 38
2 1530 31
2 1531 26
2 1532 32
2 1533 44
2 1534 40
2 1535 41
2 1536 53
2 1537 50
2 1538 33
2 1539 36
2 1540 7302
2 1541 84
2 1542 43
2 1543 32
2 1544 46
2 1545 46
2 1546 47
2 1547 33
2 1548 55
2 1549 43
2 1550 43
2 1551 33
2 1552 59
2 1553 32
2 1554 53
2 1555 35
2 1556 7
2 1557 41
2 1558 1780
2 1559 23
2 1560 43
2 1561 31
2 1562 14
2 1563 34
2 1564 5490
2 1565 28
2 1566 77
2 1567 42
2 1568 25
2 1569 57
2 1570 32
2 1571 47
2 1572 1467
2 1573 681
2 1574 29
2 1575 76
2 1576 31
2 1577 64
2 1578 27
2 1579 31
2 1580 1279
2 1581 27
2 1582 28
2 1583 20
2 1584 27
2 1585 1947
2 1586 50
2 1587 64
2 1588 48
2 1589 25
2 1590 54
2 1591 41
2 1592 33
2 1593 25
2 1594 664
2 1595 33
2 1596 40
2 1597 33
2 1598 14
2 1599 32
2 1600 38
2 1601 41
2 1602 45
2 1603 46
2 1604 29
2 1605 23
2 1606 24
2 1607 30
2 1608 27
2 1609 36
2 1610 41
2 1611 30
2 1612 35
2 1613 2537
2 1614 37
2 1615 41
2 1616 54
2 1617 39
2 1618 48
2 1619 48
2 1620 39
2 1621 4
2 1622 34
2 1623 30
2 1624 64
2 1625 29
2 1626 29
2 1627 1
2 1628 28
2 1629 46
2 1630 20
2 1631 31
2 1632 77
2 1633 32
2 1634 45
2 1635 39
2 1636 6642
2 1637 146
2 1638 26
2 1639 27
2 1640 31
2 1641 46
2 1642 2250
2 1643 49
2 1644 33
2 1645 55
2 1646 42
2 1647 2409
2 1648 35
2 1649 45
2 1650 4447
2 1651 37
2 1652 63
2 1653 22
2 1654 54
2 1655 177
2 1656 44
2 1657 32
2 1658 40
2 1659 44
2 1660 32
2 1661 39
2 1662 29
2 1663 30
2 1664 2182
2 1665 28
2 1666 8293
2 1667 55
2 1668 39
2 1669 33
2 1670 22
2 1671 3248
2 1672 40
2 1673 45
2 1674 33
2 1675 32
2 1676 49
2 1677 4615
2 1678 8
2 1679 1088
2 1680 67
2 1681 38
2 1682 36
2 1683 32
2 1684 36
2 1685 13
2 1686 9
2 1687 24
2 1688 38
2 1689 43
2 1690 42
2 1691 44
2 1692 31
2 1693 29
2 1694 43
2 1695 67
2 1696 29
2 1697 47
2 1698 28
2 1699 48
2 1700 2168
2 1701 963
2 1702 27
2 1703 39
2 1704 25
2 1705 27
2 1706 41
2 1707 29
2 1708 32
2 1709 32
2 1710 43
2 1711 5
2 1712 19
2 1713 19
2 1714 31
2 1715 31
2 1716 41
2 1717 34
2 1718 7818
2 1719 44
2 1720 54
2 1721 24
2 1722 48
2 1723 34
2 1724 51
2 1725 5709
2 1726 39
2 1727 49
2 1728 20
2 1729 80
2 1730 16
2 1731 32
2 1732 52
2 1733 39
2 1734 31
2 1735 31
2 1736 30
2 1737 20
2 1738 32
2 1739 25
2 1740 48
2 1741 73
2 1742 23
2 1743 39
2 1744 60
2 1745 47
2 1746 28
2 1747 29
2 1748 888
2 1749 32
2 1750 29
2 1751 83
2 1752 20
2 1753 59
2 1754 30
2 1755 26
2 1756 25
2 1757 44
2 1758 42
2 1759 35
2 1760 4692
2 1761 39
2 1762 24
2 1763 32
2 1764 56
2 1765 26
2 1766 53
2 1767 40
2 1768 59
2 1769 53
2 1770 48
2 1771 52
2 1772 63
2 1773 43
2 1774 28
2 1775 23
2 1776 78
2 1777 27
2 1778 29
2 1779 31
2 1780 3140
2 1781 8170
2 1782 30
2 1783 3703
2 1784 24
2 1785 33
2 1786 30
2 1787 28
2 1788 32
2 1789 45
2 1790 33
2 1791 757
2 1792 34
2 1793 8
2 1794 47
2 1795 34
2 1796 58
2 1797 37
2 1798 27
2 1799 45
2 1800 1383
2 1801 26
2 1802 848
2 1803 156
2 1804 36
2 1805 22
2 1806 35
2 1807 41
2 1808 40
2 1809 8
2 1810 18
2 1811 44
2 1812 26
2 1813 27
2 1814 30
2 1815 28
2 1816 41
2 1817 22
2 1818 1136
2 1819 41
2 1820 3303
2 1821 30
2 1822 25
2 1823 33
2 1824 24
2 1825 4041
2 1826 5
2 1827 30
2 1828 52
2 1829 32
2 1830 32
2 1831 44
2 1832 23
2 1833 41
2 1834 35
2 1835 2762
2 1836 31
2 1837 43
2 1838 35
2 1839 32
2 1840 48
2 1841 3568
2 1842 46
2 1843 33
2 1844 18
2 1845 21
2 1846 34
2 1847 35
2 1848 21
2 1849 1646
2 1850 26
2 1851 27
2 1852 64
2 1853 54
2 1854 25
2 1855 59
2 1856 25
2 1857 2
2 1858 1
2 1859 3
2 1860 2
2 1861 15
2 1862 15
2 1863 1041
2 1864 37
2 1865 45
2 1866 28
2 1867 28
2 1868 21
2 1869 24
2 1870 39
2 1871 18
2 1872 2571
2 1873 16
2 1874 38
2 1875 866
2 1876 29
2 1877 4073
2 1878 39
2 1879 22
2 1880 25
2 1881 29
2 1882 59
2 1883 3112
2 1884 747
2 1885 50
2 1886 27
2 1887 36
2 1888 51
2 1889 28
2 1890 34
2 1891 35
2 1892 26
2 1893 6412
2 1894 39
2 1895 1734
2 1896 28
2 1897 4689
2 1898 49
2 1899 45
2 1900 20
2 1901 25
2 1902 40
2 1903 36
2 1904 42
2 1905 29
2 1906 37
2 1907 59
2 1908 28
2 1909 47
2 1910 24
2 1911 30
2 1912 25
2 1913 34
2 1914 29
2 1915 33
2 1916 28
2 1917 32
2 1918 55
2 1919 38
2 1920 22
2 1921 39
2 1922 40
2 1923 31
2 1924 66
2 1925 36
2 1926 36
2 1927 29
2 1928 34
2 1929 26
2 1930 48
2 1931 3140
2 1932 6145
2 1933 707
2 1934 22
2 1935 42
2 1936 33
2 1937 47
2 1938 33
2 1939 28
2 1940 23
2 1941 77
2 1942 37
2 1943 37
2 1944 18
2 1945 30
2 1946 34
2 1947 36
2 1948 40
2 1949 24
2 1950 29
2 1951 18
2 1952 32
2 1953 2343
2 1954 1149
2 1955 62
2 1956 42
2 1957 39
2 1958 31
2 1959 42
2 1960 29
2 1961 25
2 1962 10
2 1963 23
2 1964 3391
2 1965 266
2 1966 45
2 1967 29
2 1968 39
2 1969 19
2 1970 34
2 1971 1517
2 1972 4367
2 1973 6
2 1974 35
2 1975 16
2 1976 22
2 1977 28
2 1978 1134
2 1979 29
2 1980 87
2 1981 16
2 1982 40
2 1983 27
2 1984 47
2 1985 2888
2 1986 41
2 1987 1676
2 1988 32
2 1989 31
2 1990 26
2 1991 108
2 1992 29
2 1993 33
2 1994 26
2 1995 98
2 1996 23
2 1997 36
2 1998 863
2 1999 32
2 2000 34
2 2001 3098
2 2002 26
2 2003 26
2 2004 33
2 2005 29
2 2006 33
2 2007 65
2 2008 65
2 2009 32
2 2010 31
2 2011 34
2 2012 43
2 2013 38
2 2014 1686
2 2015 36
2 2016 27
2 2017 57
2 2018 39
2 2019 25
2 2020 54
2 2021 33
2 2022 36
2 2023 38
2 2024 82
2 2025 26
2 2026 44
2 2027 61
2 2028 19
2 2029 34
2 2030 21
2 2031 30
2 2032 26
2 2033 45
2 2034 35
2 2035 37
2 2036 16
2 2037 2089
2 2038 23
2 2039 18
2 2040 37
2 2041 38
2 2042 37
2 2043 33
2 2044 49
2 2045 34
2 2046 29
2 2047 36
2 2048 80
2 2049 32
2 2050 35
2 2051 28
2 2052 29
2 2053 55
2 2054 63
2 2055 24
2 2056 29
2 2057 64
2 2058 4452
2 2059 36
2 2060 27
2 2061 26
2 2062 25
2 2063 27
2 2064 30
2 2065 1431
2 2066 29
2 2067 35
2 2068 36
2 2069 4571
2 2070 1570
2 2071 37
2 2072 44
2 2073 27
2 2074 1016
2 2075 48
2 2076 1784
2 2077 22
2 2078 38
2 2079 55
2 2080 41
2 2081 44
2 2082 22
2 2083 33
2 2084 45
2 2085 33
2 2086 30
2 2087 28
2 2088 26
2 2089 40
2 2090 47
2 2091 32
2 2092 1809
2 2093 27
2 2094 50
2 2095 28
2 2096 46
2 2097 23
2 2098 37
2 2099 20
2 2100 28
2 2101 32
2 2102 24
2 2103 32
2 2104 24
2 2105 36
2 2106 2784
2 2107 43
2 2108 57
2 2109 26
2 2110 45
2 2111 49
2 2112 28
2 2113 3726
2 2114 1260
2 2115 38
2 2116 2209
2 2117 26
2 2118 3595
2 2119 26
2 2120 30
2 2121 1653
2 2122 31
2 2123 5266
2 2124 41
2 2125 896
2 2126 30
2 2127 31
2 2128 776
2 2129 29
2 2130 16
2 2131 42
2 2132 67
2 2133 28
2 2134 27
2 2135 15
2 2136 53
2 2137 43
2 2138 33
2 2139 35
2 2140 31
2 2141 27
2 2142 1141
2 2143 45
2 2144 29
2 2145 58
2 2146 28
2 2147 30
2 2148 42
2 2149 28
2 2150 18
2 2151 7409
2 2152 29
2 2153 28
2 2154 27
2 2155 28
2 2156 28
2 2157 24
2 2158 41
2 2159 27
2 2160 29
2 2161 25
2 2162 24
2 2163 57
2 2164 17
2 2165 21
2 2166 38
2 2167 28
2 2168 25
2 2169 14
2 2170 31
2 2171 35
2 2172 31
2 2173 32
2 2174 761
2 2175 55
2 2176 26
2 2177 17
2 2178 23
2 2179 18
2 2180 22
2 2181 27
2 2182 46
2 2183 19
2 2184 411
2 2185 24
2 2186 20
2 2187 91
2 2188 9
2 2189 18
2 2190 26
2 2191 24
2 2192 3496
2 2193 52
2 2194 4205
2 2195 1093
2 2196 32
2 2197 4496
2 2198 28
2 2199 4328
2 2200 16
2 2201 29
2 2202 1123
2 2203 38
2 2204 35
2 2205 25
2 2206 58
2 2207 937
2 2208 32
2 2209 42
2 2210 35
2 2211 33
2 2212 3973
2 2213 23
2 2214 11
2 2215 3932
2 2216 21
2 2217 24
2 2218 6849
2 2219 37
2 2220 4529
2 2221 56
2 2222 46
2 2223 49
2 2224 41
2 2225 63
2 2226 53
2 2227 25
2 2228 77
2 2229 31
2 2230 53
2 2231 30
2 2232 41
2 2233 42
2 2234 9
2 2235 46
2 2236 925
2 2237 5
2 2238 40
2 2239 36
2 2240 40
2 2241 26
2 2242 1712
2 2243 33
2 2244 58
2 2245 29
2 2246 34
2 2247 39
2 2248 36
2 2249 3
2 2250 36
2 2251 42
2 2252 25
2 2253 40
2 2254 46
2 2255 80
2 2256 74
2 2257 62
2 2258 23
2 2259 40
2 2260 3009
2 2261 45
2 2262 45
2 2263 19
2 2264 20
2 2265 54
2 2266 35
2 2267 36
2 2268 37
2 2269 1912
2 2270 30
2 2271 27
2 2272 40
2 2273 38
2 2274 82
2 2275 7856
2 2276 28
2 2277 35
2 2278 14
2 2279 31
2 2280 1055
2 2281 11
2 2282 39
2 2283 34
2 2284 32
2 2285 44
2 2286 18
2 2287 32
2 2288 31
2 2289 37
2 2290 31
2 2291 1956
2 2292 34
2 2293 27
2 2294 3408
2 2295 69
2 2296 33
2 2297 47
2 2298 29
2 2299 54
2 2300 36
2 2301 48
2 2302 52
2 2303 43
2 2304 24
2 2305 35
2 2306 40
2 2307 28
2 2308 36
2 2309 29
2 2310 38
2 2311 38
2 2312 6497
2 2313 45
2 2314 21
2 2315 44
2 2316 49
2 2317 39
2 2318 40
2 2319 1706
2 2320 30
2 2321 41
2 2322 33
2 2323 30
2 2324 1431
2 2325 4714
2 2326 72
2 2327 74
2 2328 35
2 2329 31
2 2330 18
2 2331 23
2 2332 1815
2 2333 40
2 2334 5
2 2335 33
2 2336 49
2 2337 34
2 2338 75
2 2339 49
2 2340 57
2 2341 55
2 2342 22
2 2343 39
2 2344 45
2 2345 32
2 2346 19
2 2347 2
2 2348 28
2 2349 25
2 2350 25
2 2351 47
2 2352 21
2 2353 7560
2 2354 1771
2 2355 5153
2 2356 49
2 2357 22
2 2358 37
2 2359 46
2 2360 21
2 2361 24
2 2362 67
2 2363 33
2 2364 26
2 2365 26
2 2366 22
2 2367 43
2 2368 82
2 2369 21
2 2370 10
2 2371 31
2 2372 47
2 2373 20
2 2374 24
2 2375 22
2 2376 24
2 2377 24
2 2378 40
2 2379 28
2 2380 80
2 2381 20
2 2382 2538
2 2383 23
2 2384 31
2 2385 14
2 2386 36
2 2387 37
2 2388 26
2 2389 45
2 2390 5817
2 2391 45
2 2392 37
2 2393 32
2 2394 20
2 2395 19
2 2396 39
2 2397 64
2 2398 39
2 2399 49
2 2400 40
2 2401 33
2 2402 33
2 2403 38
2 2404 22
2 2405 23
2 2406 732
2 2407 82
2 2408 20
2 2409 26
2 2410 75
2 2411 7480
2 2412 72
2 2413 61
2 2414 27
2 2415 46
2 2416 18
2 2417 40
2 2418 19
2 2419 19
2 2420 32
2 2421 32
2 2422 62
2 2423 20
2 2424 57
2 2425 38
2 2426 2612
2 2427 33
2 2428 54
2 2429 30
2 2430 19
2 2431 33
2 2432 23
2 2433 33
2 2434 42
2 2435 36
2 2436 1196
2 2437 40
2 2438 31
2 2439 26
2 2440 1272
2 2441 77
2 2442 39
2 2443 3126
2 2444 22
2 2445 26
2 2446 33
2 2447 31
2 2448 20
2 2449 74
2 2450 51
2 2451 25
2 2452 9150
2 2453 490
2 2454 8
2 2455 683
2 2456 16
2 2457 2838
2 2458 25
2 2459 53
2 2460 44
2 2461 32
2 2462 24
2 2463 32
2 2464 1655
2 2465 29
2 2466 39
2 2467 31
2 2468 26
2 2469 29
2 2470 41
2 2471 27
2 2472 21
2 2473 702
2 2474 25
2 2475 35
2 2476 46
2 2477 24
2 2478 30
2 2479 33
2 2480 30
2 2481 24
2 2482 600
2 2483 893
2 2484 39
2 2485 91
2 2486 41
2 2487 32
2 2488 12
2 2489 29
2 2490 35
2 2491 27
2 2492 64
2 2493 42
2 2494 43
2 2495 47
2 2496 22
2 2497 18
2 2498 30
2 2499 21
2 2500 22
2 2501 43
2 2502 18
2 2503 30
2 2504 26
2 2505 28
2 2506 30
2 2507 28
2 2508 44
3 1 37
3 2 32
3 3 18
3 4 14
3 5 53
3 6 21
3 7 46
3 8 14
3 9 23
3 10 34
3 11 36
3 12 35
3 13 29
3 14 60
3 15 13
3 16 23
3 17 37
3 18 3
3 19 21
3 20 802
3 21 20
3 22 38
3 23 35
3 24 35
3 25 2
3 26 53
3 27 36
3 28 12
3 29 51
3 30 22
3 31 30
3 32 13
3 33 8
3 34 30
3 35 22
3 36 28
3 37 30
3 38 61
3 39 29
3 40 28
3 41 43
3 42 23
3 43 28
3 44 32
3 45 20
3 46 942
3 47 18
3 48 10
3 49 26
3 50 72
3 51 26
3 52 25
3 53 26
3 54 37
3 55 27
3 56 17
3 57 18
3 58 36
3 59 8
3 60 15
3 61 4128
3 62 30
3 63 12
3 64 25
3 65 23
3 66 26
3 67 33
3 68 21
3 69 2413
3 70 33
3 71 29
3 72 27
3 73 31
3 74 22
3 75 24
3 76 20
3 77 2845
3 78 46
3 79 16
3 80 24
3 81 22
3 82 3335
3 83 10
3 84 4020
3 85 23
3 86 19
3 87 19
3 88 85
3 89 5891
3 90 29
3 91 26
3 92 28
3 93 24
3 94 48
3 95 16
3 96 28
3 97 26
3 98 15
3 99 19
3 100 26
3 101 20
3 102 38
3 103 31
3 104 2773
3 105 20
3 106 25
3 107 27
3 108 21
3 109 14
3 110 3399
3 111 5
3 112 47
3 113 22
3 114 33
3 115 19
3 116 21
3 117 22
3 118 27
3 119 39
3 120 15
3 121 16
3 122 26
3 123 27
3 124 19
3 125 33
3 126 31
3 127 16
3 128 29
3 129 33
3 130 33
3 131 15
3 132 19
3 133 20
3 134 31
3 135 10
3 136 28
3 137 57
3 138 1
3 139 22
3 140 22
3 141 31
3 142 33
3 143 28
3 144 14
3 145 25
3 146 21
3 147 25
3 148 26
3 149 33
3 150 17
3 151 47
3 152 33
3 153 36
3 154 55
3 155 40
3 156 1692
3 157 22
3 158 13
3 159 47
3 160 23
3 161 49
3 162 41
3 163 11
3 164 35
3 165 24
3 166 32
3 167 768
3 168 16
3 169 29
3 170 6
3 171 32
3 172 33
3 173 1576
3 174 8
3 175 30
3 176 26
3 177 17
3 178 31
3 179 15
3 180 68
3 181 26
3 182 21
3 183 26
3 184 22
3 185 502
3 186 29
3 187 22
3 188 27
3 189 3143
3 190 27
3 191 25
3 192 16
3 193 2960
3 194 43
3 195 28
3 196 1698
3 197 21
3 198 19
3 199 20
3 200 32
3 201 24
3 202 5997
3 203 14
3 204 25
3 205 21
3 206 28
3 207 26
3 208 17
3 209 32
3 210 17
3 211 23
3 212 2
3 213 41
3 214 17
3 215 17
3 216 26
3 217 63
3 218 10
3 219 37
3 220 20
3 221 38
3 222 36
3 223 55
3 224 28
3 225 13
3 226 18
3 227 19
3 228 39
3 229 27
3 230 42
3 231 36
3 232 28
3 233 24
3 234 33
3 235 51
3 236 19
3 237 26
3 238 28
3 239 19
3 240 26
3 241 36
3 242 36
3 243 36
3 244 21
3 245 19
3 246 23
3 247 23
3 248 25
3 249 21
3 250 43
3 251 22
3 252 17
3 253 31
3 254 46
3 255 16
3 256 51
3 257 28
3 258 25
3 259 32
3 260 70
3 261 15
3 262 27
3 263 47
3 264 23
3 265 26
3 266 18
3 267 25
3 268 17
3 269 29
3 270 34
3 271 23
3 272 44
3 273 17
3 274 31
3 275 11
3 276 24
3 277 9
3 278 31
3 279 25
3 280 29
3 281 18
3 282 34
3 283 32
3 284 16
3 285 10
3 286 27
3 287 17
3 288 50
3 289 62
3 290 23
3 291 19
3 292 10
3 293 25
3 294 30
3 295 3839
3 296 28
3 297 1174
3 298 31
3 299 18
3 300 30
3 301 11
3 302 38
3 303 19
3 304 18
3 305 34
3 306 31
3 307 12
3 308 61
3 309 27
3 310 18
3 311 26
3 312 22
3 313 1497
3 314 5170
3 315 18
3 316 5
3 317 18
3 318 55
3 319 24
3 320 27
3 321 37
3 322 28
3 323 22
3 324 29
3 325 32
3 326 27
3 327 16
3 328 24
3 329 758
3 330 27
3 331 28
3 332 27
3 333 21
3 334 45
3 335 15
3 336 26
3 337 29
3 338 19
3 339 27
3 340 5
3 341 43
3 342 14
3 343 30
3 344 25
3 345 3934
3 346 33
3 347 8266
3 348 33
3 349 5218
3 350 25
3 351 9
3 352 63
3 353 20
3 354 27
3 355 49
3 356 23
3 357 20
3 358 41
3 359 34
3 360 22
3 361 27
3 362 20
3 363 14
3 364 18
3 365 14
3 366 25
3 367 35
3 368 18
3 369 19
3 370 14
3 371 14
3 372 27
3 373 41
3 374 25
3 375 4
3 376 1
3 377 3
3 378 4
3 381 2
3 382 3
3 383 1
3 384 1
3 385 48
3 386 17
3 387 18
3 388 21
3 389 25
3 390 29
3 391 19
3 392 30
3 393 16
3 394 21
3 395 12
3 396 31
3 397 22
3 398 34
3 399 31
3 400 37
3 401 30
3 402 17
3 403 31
3 404 21
3 405 24
3 406 27
3 407 31
3 408 43
3 409 20
3 410 41
3 411 39
3 412 12
3 413 14
3 414 27
3 415 4166
3 416 9
3 417 56
3 418 4
3 419 18
3 420 17
3 421 21
3 422 17
3 423 28
3 424 17
3 425 24
3 426 19
3 427 30
3 428 29
3 429 11
3 430 3234
3 431 29
3 432 41
3 433 26
3 434 812
3 435 27
3 436 31
3 437 18
3 438 25
3 439 3
3 440 23
3 441 41
3 442 31
3 443 711
3 444 1041
3 445 18
3 446 28
3 447 1
3 448 31
3 449 32
3 450 34
3 451 27
3 452 3176
3 453 48
3 454 2585
3 455 27
3 456 20
3 457 23
3 458 36
3 459 28
3 460 16
3 461 42
3 462 18
3 463 34
3 464 23
3 465 26
3 466 17
3 467 8
3 468 13
3 469 48
3 470 60
3 471 11
3 472 11
3 473 19
3 474 11
3 475 26
3 476 19
3 477 20
3 478 18
3 479 21
3 480 19
3 481 52
3 482 18
3 483 26
3 484 31
3 485 86
3 486 36
3 487 14
3 488 29
3 489 30
3 490 14
3 491 22
3 492 28
3 493 27
3 494 25
3 495 52
3 496 3374
3 497 16
3 498 23
3 499 3
3 500 27
3 501 21
3 502 17
3 503 37
3 504 33
3 505 42
3 506 34
3 507 24
3 508 58
3 509 22
3 510 43
3 511 25
3 512 32
3 513 32
3 514 45
3 515 45
3 516 32
3 517 19
3 518 50
3 519 19
3 520 16
3 521 13
3 522 35
3 523 2793
3 524 835
3 525 36
3 526 28
3 527 23
3 528 18
3 529 32
3 530 7
3 531 40
3 532 28
3 533 18
3 534 2090
3 535 15
3 536 40
3 537 8
3 538 29
3 539 60
3 540 33
3 541 45
3 542 24
3 543 24
3 544 15
3 545 29
3 546 9
3 547 34
3 548 22
3 549 4
3 550 12
3 551 26
3 552 25
3 553 27
3 554 27
3 555 6480
3 556 18
3 557 22
3 558 37
3 559 14
3 560 23
3 561 33
3 562 13
3 563 5
3 564 30
3 565 24
3 566 34
3 567 19
3 568 33
3 569 24
3 570 27
3 571 57
3 572 34
3 573 18
3 574 2
3 575 36
3 576 23
3 577 4211
3 578 22
3 579 35
3 580 18
3 581 25
3 582 48
3 583 928
3 584 36
3 585 16
3 586 38
3 587 22
3 588 29
3 589 73
3 590 31
3 591 30
3 592 36
3 593 33
3 594 32
3 595 53
3 596 46
3 597 48
3 598 21
3 599 33
3 600 18
3 601 17
3 602 34
3 603 24
3 604 929
3 605 20
3 606 13
3 607 27
3 608 23
3 609 18
3 610 30
3 611 35
3 612 22
3 613 45
3 614 27
3 615 14
3 616 18
3 617 19
3 618 54
3 619 758
3 620 33
3 621 28
3 622 1387
3 623 27
3 624 56
3 625 25
3 626 4155
3 627 3171
3 628 20
3 629 23
3 630 19
3 631 53
3 632 18
3 633 15
3 634 20
3 635 2407
3 636 30
3 637 25
3 638 17
3 639 23
3 640 33
3 641 30
3 642 1271
3 643 53
3 644 24
3 645 48
3 646 19
3 647 20
3 648 21
3 649 27
3 650 25
3 651 30
3 652 14
3 653 5039
3 654 27
3 655 14
3 656 65
3 657 28
3 658 39
3 659 20
3 660 26
3 661 29
3 662 11
3 663 5638
3 664 49
3 665 30
3 666 3612
3 667 10
3 668 33
3 669 26
3 670 39
3 671 8
3 672 27
3 673 5554
3 674 28
3 675 24
3 676 853
3 677 45
3 678 52
3 679 6134
3 680 28
3 681 29
3 682 22
3 683 26
3 684 20
3 685 26
3 686 12
3 687 14
3 688 31
3 689 17
3 690 32
3 691 26
3 692 22
3 693 32
3 694 4404
3 695 16
3 696 21
3 697 26
3 698 38
3 699 25
3 700 7
3 701 22
3 702 21
3 703 58
3 704 4305
3 705 23
3 706 37
3 707 32
3 708 46
3 709 70
3 710 34
3 711 18
3 712 14
3 713 13
3 714 1162
3 715 30
3 716 49
3 717 25
3 718 22
3 719 26
3 720 7
3 721 23
3 722 18
3 723 38
3 724 20
3 725 27
3 726 26
3 727 21
3 728 16
3 729 21
3 730 39
3 731 23
3 732 27
3 733 30
3 734 32
3 735 39
3 736 12
3 737 21
3 738 27
3 739 47
3 740 42
3 741 26
3 742 10
3 743 14
3 744 3926
3 745 36
3 746 23
3 747 1641
3 748 12
3 749 7770
3 750 44
3 751 23
3 752 27
3 753 34
3 754 26
3 755 26
3 756 22
3 757 25
3 758 44
3 759 43
3 760 26
3 761 25
3 762 33
3 763 50
3 764 16
3 765 827
3 766 20
3 767 54
3 768 69
3 769 69
3 770 26
3 771 29
3 772 25
3 773 22
3 774 21
3 775 79
3 776 30
3 777 24
3 778 23
3 779 14
3 780 46
3 781 29
3 782 23
3 783 33
3 784 25
3 785 734
3 786 24
3 787 28
3 788 849
3 789 23
3 790 27
3 791 18
3 792 29
3 793 12
3 794 32
3 795 35
3 796 34
3 797 34
3 798 22
3 799 16
3 800 19
3 801 26
3 802 18
3 803 19
3 804 33
3 805 58
3 806 2777
3 807 23
3 808 2729
3 809 26
3 810 26
3 811 21
3 812 31
3 813 20
3 814 20
3 815 20
3 816 29
3 817 16
3 818 22
3 819 25
3 820 18
3 821 33
3 822 32
3 823 46
3 824 23
3 825 28
3 826 26
3 827 15
3 828 19
3 829 14
3 830 32
3 831 19
3 832 92
3 833 26
3 834 19
3 835 24
3 836 17
3 837 15
3 838 3
3 839 21
3 840 34
3 841 19
3 842 45
3 843 39
3 844 6
3 845 35
3 846 24
3 847 12
3 848 40
3 849 62
3 850 32
3 851 41
3 852 29
3 853 38
3 854 27
3 855 44
3 856 41
3 857 41
3 858 5972
3 859 23
3 860 4159
3 861 2
3 862 18
3 863 29
3 864 28
3 865 18
3 866 8
3 867 21
3 868 24
3 869 21
3 870 3645
3 871 24
3 872 24
3 873 25
3 874 22
3 875 58
3 876 19
3 877 22
3 878 25
3 879 26
3 880 17
3 881 41
3 882 15
3 883 20
3 884 34
3 885 24
3 886 25
3 887 57
3 888 31
3 889 27
3 890 5239
3 891 28
3 892 24
3 893 42
3 894 16
3 895 6
3 896 23
3 897 6513
3 898 16
3 899 20
3 900 20
3 901 30
3 902 37
3 903 32
3 904 28
3 905 26
3 906 18
3 907 25
3 908 25
3 909 33
3 910 14
3 911 23
3 912 18
3 913 30
3 914 16
3 915 1123
3 916 26
3 917 23
3 918 31
3 919 40
3 920 26
3 921 5342
3 922 20
3 923 4974
3 924 25
3 925 21
3 926 21
3 927 24
3 928 38
3 929 23
3 930 33
3 931 22
3 932 38
3 933 23
3 934 14
3 935 11
3 936 42
3 937 6
3 938 952
3 939 23
3 940 37
3 941 41
3 942 20
3 943 3621
3 944 34
3 945 34
3 946 26
3 947 12
3 948 36
3 949 14
3 950 31
3 951 25
3 952 25
3 953 52
3 954 16
3 955 35
3 956 1743
3 957 26
3 958 34
3 959 60
3 960 24
3 961 1613
3 962 31
3 963 5627
3 964 23
3 965 27
3 966 33
3 967 45
3 968 24
3 969 23
3 970 31
3 971 22
3 972 20
3 973 26
3 974 25
3 975 1266
3 976 34
3 977 37
3 978 17
3 979 19
3 980 18
3 981 23
3 982 26
3 983 27
3 984 5223
3 985 22
3 986 17
3 987 1419
3 988 26
3 989 32
3 990 29
3 991 11
3 992 26
3 993 30
3 994 14
3 995 26
3 996 19
3 997 32
3 998 33
3 999 37
3 1000 69
3 1001 27
3 1002 23
3 1003 7559
3 1004 30
3 1005 22
3 1006 23
3 1007 43
3 1008 24
3 1009 29
3 1010 15
3 1011 28
3 1012 10
3 1013 21
3 1014 28
3 1015 1926
3 1016 23
3 1017 8
3 1018 17
3 1019 27
3 1020 37
3 1021 32
3 1022 835
3 1023 25
3 1024 38
3 1025 17
3 1026 37
3 1027 6
3 1028 39
3 1029 3857
3 1030 38
3 1031 26
3 1032 23
3 1033 21
3 1034 26
3 1035 18
3 1036 47
3 1037 45
3 1038 42
3 1039 2823
3 1040 22
3 1041 623
3 1042 15
3 1043 15
3 1044 53
3 1045 20
3 1046 4345
3 1047 11
3 1048 22
3 1049 23
3 1050 44
3 1051 19
3 1052 46
3 1053 19
3 1054 6
3 1055 14
3 1056 35
3 1057 2340
3 1058 20
3 1059 19
3 1060 29
3 1061 36
3 1062 10
3 1063 21
3 1064 40
3 1065 26
3 1066 27
3 1067 18
3 1068 23
3 1069 25
3 1070 25
3 1071 1747
3 1072 14
3 1073 19
3 1074 3587
3 1075 22
3 1076 19
3 1077 23
3 1078 19
3 1079 27
3 1080 18
3 1081 15
3 1082 25
3 1083 81
3 1084 21
3 1085 20
3 1086 39
3 1087 28
3 1088 717
3 1089 21
3 1090 20
3 1091 27
3 1092 5150
3 1093 18
3 1094 5618
3 1095 20
3 1096 20
3 1097 24
3 1098 10
3 1099 19
3 1100 10
3 1101 398
3 1102 36
3 1103 10
3 1104 18
3 1105 15
3 1106 11
3 1107 11
3 1108 7
3 1109 3721
3 1110 19
3 1111 5
3 1112 19
3 1113 12
3 1114 18
3 1115 21
3 1116 17
3 1117 9
3 1118 24
3 1119 15
3 1120 16
3 1121 29
3 1122 15
3 1123 25
3 1124 22
3 1125 13
3 1126 23
3 1127 8
3 1128 6203
3 1129 12
3 1130 33
3 1131 23
3 1132 19
3 1133 28
3 1134 7
3 1135 4937
3 1136 21
3 1137 34
3 1138 6
3 1139 14
3 1140 21
3 1141 26
3 1142 19
3 1143 19
3 1144 22
3 1145 25
3 1146 19
3 1147 26
3 1148 24
3 1149 49
3 1150 19
3 1151 17
3 1152 20
3 1153 24
3 1154 18
3 1155 28
3 1156 33
3 1157 24
3 1158 18
3 1159 33
3 1160 19
3 1161 26
3 1162 19
3 1163 19
3 1164 16
3 1165 32
3 1166 27
3 1167 33
3 1168 32
3 1169 29
3 1170 51
3 1171 16
3 1172 617
3 1173 20
3 1174 20
3 1175 23
3 1176 21
3 1177 25
3 1178 20
3 1179 75
3 1180 23
3 1181 34
3 1182 26
3 1183 13
3 1184 32
3 1185 3932
3 1186 25
3 1187 21
3 1188 28
3 1189 18
3 1190 39
3 1191 19
3 1192 26
3 1193 24
3 1194 30
3 1195 31
3 1196 20
3 1197 20
3 1198 5135
3 1199 22
3 1200 30
3 1201 19
3 1202 12
3 1203 697
3 1204 25
3 1205 19
3 1206 1623
3 1207 62
3 1208 37
3 1209 31
3 1210 18
3 1211 27
3 1212 1513
3 1213 21
3 1214 27
3 1215 27
3 1216 20
3 1217 14
3 1218 19
3 1219 33
3 1220 26
3 1221 26
3 1222 16
3 1223 25
3 1224 63
3 1225 23
3 1226 31
3 1227 16
3 1228 838
3 1229 25
3 1230 28
3 1231 25
3 1232 27
3 1233 52
3 1234 26
3 1235 33
3 1236 22
3 1237 43
3 1238 13
3 1239 23
3 1240 19
3 1241 17
3 1242 20
3 1243 42
3 1244 21
3 1245 30
3 1246 36
3 1247 8
3 1248 19
3 1249 18
3 1250 26
3 1251 28
3 1252 23
3 1253 31
3 1254 28
3 1255 35
3 1256 22
3 1257 31
3 1258 13
3 1259 73
3 1260 39
3 1261 28
3 1262 29
3 1263 37
3 1264 44
3 1265 31
3 1266 14
3 1267 52
3 1268 18
3 1269 31
3 1270 19
3 1271 39
3 1272 27
3 1273 15
3 1274 5
3 1275 22
3 1276 994
3 1277 44
3 1278 52
3 1279 23
3 1280 36
3 1281 16
3 1282 24
3 1283 24
3 1284 18
3 1285 38
3 1286 20
3 1287 53
3 1288 22
3 1289 18
3 1290 30
3 1291 22
3 1292 59
3 1293 3350
3 1294 28
3 1295 23
3 1296 22
3 1297 12
3 1298 7023
3 1299 22
3 1300 14
3 1301 49
3 1302 28
3 1303 19
3 1304 36
3 1305 38
3 1306 26
3 1307 30
3 1308 45
3 1309 18
3 1310 29
3 1311 39
3 1312 19
3 1313 16
3 1314 30
3 1315 28
3 1316 20
3 1317 21
3 1318 25
3 1319 24
3 1320 29
3 1321 14
3 1322 28
3 1323 27
3 1324 19
3 1325 21
3 1326 27
3 1327 14
3 1328 22
3 1329 23
3 1330 19
3 1331 33
3 1332 34
3 1333 27
3 1334 30
3 1335 41
3 1336 19
3 1337 32
3 1338 26
3 1339 27
3 1340 18
3 1341 27
3 1342 31
3 1343 24
3 1344 45
3 1345 23
3 1346 23
3 1347 61
3 1348 21
3 1349 19
3 1350 27
3 1351 5329
3 1352 18
3 1353 28
3 1354 6
3 1355 32
3 1356 31
3 1357 17
3 1358 25
3 1359 32
3 1360 21
3 1361 16
3 1362 21
3 1363 5287
3 1364 5079
3 1365 38
3 1366 39
3 1367 25
3 1368 8
3 1369 17
3 1370 4251
3 1371 6
3 1372 18
3 1373 24
3 1374 55
3 1375 28
3 1376 15
3 1377 12
3 1378 26
3 1379 25
3 1380 19
3 1381 14
3 1382 34
3 1383 28
3 1384 870
3 1385 21
3 1386 2778
3 1387 22
3 1388 15
3 1389 18
3 1390 5
3 1391 17
3 1392 55
3 1393 9
3 1394 28
3 1395 25
3 1396 16
3 1397 21
3 1398 24
3 1399 12
3 1400 19
3 1401 25
3 1402 20
3 1403 32
3 1404 3466
3 1405 16
3 1406 13
3 1407 2956
3 1408 18
3 1409 9
3 1410 20
3 1411 24
3 1412 12
3 1413 18
3 1414 30
3 1415 28
3 1416 10
3 1417 19
3 1418 23
3 1419 37
3 1420 26
3 1421 29
3 1422 17
3 1423 27
3 1424 13
3 1425 6
3 1426 21
3 1427 17
3 1428 24
3 1429 37
3 1430 31
3 1431 1
3 1432 27
3 1433 20
3 1434 32
3 1435 16
3 1436 26
3 1437 22
3 1438 19
3 1439 21
3 1440 28
3 1441 29
3 1442 30
3 1443 1214
3 1444 2068
3 1445 23
3 1446 23
3 1447 25
3 1448 17
3 1449 36
3 1450 14
3 1451 16
3 1452 17
3 1453 27
3 1454 26
3 1455 13
3 1456 25
3 1457 40
3 1458 39
3 1459 30
3 1460 17
3 1461 18
3 1462 14
3 1463 2719
3 1464 19
3 1465 29
3 1466 28
3 1467 17
3 1468 17
3 1469 818
3 1470 30
3 1471 29
3 1472 20
3 1473 19
3 1474 24
3 1475 20
3 1476 34
3 1477 26
3 1478 42
3 1479 12
3 1480 27
3 1481 25
3 1482 45
3 1483 15
3 1484 22
3 1485 5
3 1486 26
3 1487 30
3 1488 4454
3 1489 20
3 1490 20
3 1491 4747
3 1492 14
3 1493 176
3 1494 19
3 1495 17
3 1496 51
3 1497 25
3 1498 40
3 1499 14
3 1500 33
3 1501 38
3 1502 21
3 1503 24
3 1504 4481
3 1505 2509
3 1506 24
3 1507 23
3 1508 3171
3 1509 25
3 1510 9
3 1511 19
3 1512 14
3 1513 16
3 1514 7
3 1515 28
3 1516 45
3 1517 15
3 1518 52
3 1519 15
3 1520 5088
3 1521 17
3 1522 20
3 1523 19
3 1524 16
3 1525 14
3 1526 15
3 1527 22
3 1528 36
3 1529 18
3 1530 20
3 1531 14
3 1532 22
3 1533 35
3 1534 17
3 1535 25
3 1536 32
3 1537 2321
3 1538 24
3 1539 24
3 1540 45
3 1541 46
3 1542 19
3 1543 25
3 1544 25
3 1545 19
3 1546 17
3 1547 24
3 1548 27
3 1549 8
3 1550 27
3 1551 15
3 1552 32
3 1553 15
3 1554 46
3 1555 21
3 1556 12
3 1557 32
3 1558 16
3 1559 12
3 1560 17
3 1561 1472
3 1562 779
3 1563 1579
3 1564 32
3 1565 23
3 1566 29
3 1567 20
3 1568 18
3 1569 41
3 1570 655
3 1571 12
3 1572 23
3 1573 14
3 1574 8
3 1575 28
3 1576 2185
3 1577 48
3 1578 29
3 1579 22
3 1580 10
3 1581 19
3 1582 23
3 1583 25
3 1584 31
3 1585 17
3 1586 23
3 1587 44
3 1588 19
3 1589 17
3 1590 53
3 1591 34
3 1592 15
3 1593 13
3 1594 37
3 1595 17
3 1596 26
3 1597 2710
3 1598 18
3 1599 18
3 1600 16
3 1601 360
3 1602 27
3 1603 4
3 1604 7
3 1605 19
3 1606 22
3 1607 14
3 1608 20
3 1609 36
3 1610 18
3 1611 29
3 1612 24
3 1613 23
3 1614 17
3 1615 13
3 1616 43
3 1617 32
3 1618 15
3 1619 20
3 1620 3131
3 1621 1
3 1622 24
3 1623 2356
3 1624 17
3 1625 20
3 1626 42
3 1627 2
3 1628 21
3 1629 40
3 1630 12
3 1631 34
3 1632 27
3 1633 19
3 1634 29
3 1635 756
3 1636 23
3 1637 110
3 1638 18
3 1639 29
3 1640 33
3 1641 10
3 1642 21
3 1643 28
3 1644 20
3 1645 19
3 1646 17
3 1647 27
3 1648 24
3 1649 25
3 1650 27
3 1651 26
3 1652 66
3 1653 495
3 1654 27
3 1655 7
3 1656 24
3 1657 7
3 1658 18
3 1659 18
3 1660 396
3 1661 21
3 1662 9
3 1663 28
3 1664 9
3 1665 3879
3 1666 25
3 1667 19
3 1668 14
3 1669 20
3 1670 11
3 1671 18
3 1672 26
3 1673 19
3 1674 8
3 1675 20
3 1676 34
3 1677 19
3 1678 3
3 1679 18
3 1680 41
3 1681 49
3 1682 19
3 1683 25
3 1684 8
3 1685 9
3 1686 10
3 1687 11
3 1688 15
3 1689 14
3 1690 11
3 1691 3872
3 1692 15
3 1693 20
3 1694 1460
3 1695 5
3 1696 28
3 1697 10
3 1698 6
3 1699 25
3 1700 27
3 1701 28
3 1702 23
3 1703 22
3 1704 18
3 1705 1022
3 1706 13
3 1707 8
3 1708 16
3 1709 5
3 1710 30
3 1712 376
3 1713 15
3 1714 25
3 1715 19
3 1716 11
3 1717 23
3 1718 23
3 1719 669
3 1720 16
3 1721 8
3 1722 24
3 1723 11
3 1724 30
3 1725 29
3 1726 29
3 1727 29
3 1728 16
3 1729 25
3 1730 2
3 1731 7
3 1732 29
3 1733 15
3 1734 17
3 1735 13
3 1736 439
3 1737 11
3 1738 19
3 1739 20
3 1740 16
3 1741 31
3 1742 6
3 1743 11
3 1744 21
3 1745 12
3 1746 8
3 1747 7
3 1748 18
3 1749 22
3 1750 16
3 1751 44
3 1752 7
3 1753 35
3 1754 19
3 1755 2607
3 1756 15
3 1757 31
3 1758 23
3 1759 14
3 1760 22
3 1761 12
3 1762 18
3 1763 12
3 1764 18
3 1765 10
3 1766 4
3 1767 8
3 1768 17
3 1769 19
3 1770 13
3 1771 13
3 1772 26
3 1773 16
3 1774 11
3 1775 14
3 1776 29
3 1777 17
3 1778 18
3 1779 12
3 1780 27
3 1781 22
3 1782 14
3 1783 15
3 1784 20
3 1785 17
3 1786 32
3 1787 13
3 1788 13
3 1789 24
3 1790 37
3 1791 31
3 1792 10
3 1793 2
3 1794 14
3 1795 17
3 1796 46
3 1797 28
3 1798 19
3 1799 19
3 1800 22
3 1801 31
3 1802 16
3 1803 9
3 1804 15
3 1805 14
3 1806 14
3 1807 14
3 1808 27
3 1809 7
3 1810 4
3 1811 3269
3 1812 26
3 1813 32
3 1814 21
3 1815 21
3 1816 16
3 1817 29
3 1818 43
3 1819 14
3 1820 24
3 1821 9
3 1822 9
3 1823 8
3 1824 23
3 1825 28
3 1826 3
3 1827 15
3 1828 24
3 1829 17
3 1830 19
3 1831 22
3 1832 18
3 1833 19
3 1834 21
3 1835 7
3 1836 9
3 1837 27
3 1838 20
3 1839 12
3 1840 14
3 1841 20
3 1842 29
3 1843 8
3 1844 33
3 1845 25
3 1846 19
3 1847 22
3 1848 17
3 1849 17
3 1850 11
3 1851 21
3 1852 31
3 1853 33
3 1854 22
3 1855 45
3 1856 14
3 1857 1
3 1858 1
3 1860 1
3 1861 15
3 1862 9
3 1863 10
3 1864 21
3 1865 28
3 1866 15
3 1867 1771
3 1868 7
3 1869 13
3 1870 17
3 1871 10
3 1872 10
3 1873 15
3 1874 14
3 1875 14
3 1876 19
3 1877 42
3 1878 7
3 1879 14
3 1880 14
3 1881 1676
3 1882 29
3 1883 35
3 1884 21
3 1885 27
3 1886 23
3 1887 23
3 1888 17
3 1889 12
3 1890 24
3 1891 24
3 1892 35
3 1893 10
3 1894 419
3 1895 35
3 1896 2955
3 1897 35
3 1898 19
3 1899 28
3 1900 18
3 1901 25
3 1902 27
3 1903 30
3 1904 15
3 1905 17
3 1906 20
3 1907 35
3 1908 16
3 1909 29
3 1910 13
3 1911 13
3 1912 11
3 1913 37
3 1914 34
3 1915 22
3 1916 37
3 1917 34
3 1918 25
3 1919 22
3 1920 1954
3 1921 28
3 1922 21
3 1923 19
3 1924 41
3 1925 30
3 1926 27
3 1927 20
3 1928 9
3 1929 25
3 1930 27
3 1931 21
3 1932 20
3 1933 32
3 1934 37
3 1935 17
3 1936 27
3 1937 26
3 1938 17
3 1939 24
3 1940 11
3 1941 55
3 1942 26
3 1943 13
3 1944 25
3 1945 16
3 1946 18
3 1947 13
3 1948 18
3 1949 55
3 1950 15
3 1951 30
3 1952 24
3 1953 17
3 1954 36
3 1955 986
3 1956 21
3 1957 15
3 1958 23
3 1959 25
3 1960 19
3 1961 32
3 1962 9
3 1963 24
3 1964 11
3 1965 13
3 1966 18
3 1967 30
3 1968 28
3 1969 30
3 1970 19
3 1971 52
3 1972 24
3 1973 8
3 1974 25
3 1975 15
3 1976 18
3 1977 1745
3 1978 20
3 1979 29
3 1980 34
3 1981 12
3 1982 10
3 1983 11
3 1984 33
3 1985 37
3 1986 24
3 1987 10
3 1988 27
3 1989 23
3 1990 15
3 1991 38
3 1992 17
3 1993 21
3 1994 26
3 1995 79
3 1996 537
3 1997 14
3 1998 28
3 1999 19
3 2000 23
3 2001 69
3 2002 29
3 2003 26
3 2004 17
3 2005 24
3 2006 1014
3 2007 42
3 2008 47
3 2009 28
3 2010 20
3 2011 24
3 2012 22
3 2013 24
3 2014 73
3 2015 47
3 2016 25
3 2017 14
3 2018 21
3 2019 30
3 2020 45
3 2021 14
3 2022 20
3 2023 30
3 2024 56
3 2025 20
3 2026 19
3 2027 57
3 2028 12
3 2029 39
3 2030 17
3 2031 1639
3 2032 14
3 2033 32
3 2034 23
3 2035 28
3 2036 25
3 2037 21
3 2038 20
3 2039 9
3 2040 26
3 2041 24
3 2042 32
3 2043 20
3 2044 35
3 2045 18
3 2046 25
3 2047 41
3 2048 30
3 2049 19
3 2050 32
3 2051 13
3 2052 37
3 2053 30
3 2054 602
3 2055 989
3 2056 22
3 2057 2431
3 2058 46
3 2059 41
3 2060 12
3 2061 535
3 2062 32
3 2063 33
3 2064 13
3 2065 34
3 2066 44
3 2067 25
3 2068 29
3 2069 27
3 2070 33
3 2071 4029
3 2072 24
3 2073 1317
3 2074 44
3 2075 43
3 2076 29
3 2077 38
3 2078 20
3 2079 60
3 2080 13
3 2081 11
3 2082 2009
3 2083 955
3 2084 595
3 2085 23
3 2086 22
3 2087 3488
3 2088 794
3 2089 29
3 2090 21
3 2091 38
3 2092 43
3 2093 42
3 2094 40
3 2095 21
3 2096 19
3 2097 32
3 2098 41
3 2099 26
3 2100 12
3 2101 15
3 2102 21
3 2103 19
3 2104 21
3 2105 31
3 2106 19
3 2107 29
3 2108 2086
3 2109 50
3 2110 47
3 2111 20
3 2112 28
3 2113 24
3 2114 26
3 2115 2924
3 2116 13
3 2117 20
3 2118 20
3 2119 13
3 2120 4087
3 2121 22
3 2122 19
3 2123 24
3 2124 25
3 2125 22
3 2126 18
3 2127 22
3 2128 33
3 2129 20
3 2130 22
3 2131 18
3 2132 52
3 2133 23
3 2134 21
3 2135 2396
3 2136 42
3 2137 15
3 2138 13
3 2139 25
3 2140 16
3 2141 22
3 2142 9
3 2143 23
3 2144 30
3 2145 60
3 2146 23
3 2147 26
3 2148 15
3 2149 29
3 2150 13
3 2151 24
3 2152 38
3 2153 27
3 2154 18
3 2155 25
3 2156 1348
3 2157 24
3 2158 29
3 2159 17
3 2160 23
3 2161 23
3 2162 1553
3 2163 2100
3 2164 17
3 2165 18
3 2166 23
3 2167 33
3 2168 19
3 2169 18
3 2170 22
3 2171 18
3 2172 17
3 2173 14
3 2174 34
3 2175 31
3 2176 21
3 2177 22
3 2178 26
3 2179 10
3 2180 21
3 2181 23
3 2182 32
3 2183 14
3 2184 11
3 2185 9
3 2186 17
3 2187 55
3 2188 19
3 2189 25
3 2190 17
3 2191 23
3 2192 14
3 2193 29
3 2194 16
3 2195 27
3 2196 33
3 2197 24
3 2198 29
3 2199 15
3 2200 3
3 2201 9
3 2202 16
3 2203 22
3 2204 4965
3 2205 17
3 2206 33
3 2207 10
3 2208 29
3 2209 30
3 2210 27
3 2211 39
3 2212 21
3 2213 3031
3 2214 3
3 2215 42
3 2216 28
3 2217 15
3 2218 21
3 2219 19
3 2220 12
3 2221 50
3 2222 27
3 2223 27
3 2224 24
3 2225 628
3 2226 30
3 2227 24
3 2228 38
3 2229 29
3 2230 22
3 2231 27
3 2232 29
3 2233 40
3 2234 12
3 2235 29
3 2236 29
3 2237 8
3 2238 2548
3 2239 31
3 2240 3549
3 2241 27
3 2242 46
3 2243 23
3 2244 7
3 2245 45
3 2246 25
3 2247 27
3 2248 1955
3 2249 2
3 2250 20
3 2251 233
3 2252 33
3 2253 3305
3 2254 33
3 2255 38
3 2256 45
3 2257 47
3 2258 9
3 2259 15
3 2260 16
3 2261 30
3 2262 28
3 2263 30
3 2264 9
3 2265 25
3 2266 13
3 2267 12
3 2268 24
3 2269 19
3 2270 33
3 2271 13
3 2272 43
3 2273 34
3 2274 59
3 2275 28
3 2276 35
3 2277 13
3 2278 17
3 2279 16
3 2280 21
3 2281 6
3 2282 26
3 2283 45
3 2284 18
3 2285 1053
3 2286 7
3 2287 27
3 2288 25
3 2289 27
3 2290 22
3 2291 42
3 2292 4454
3 2293 18
3 2294 60
3 2295 52
3 2296 12
3 2297 20
3 2298 38
3 2299 38
3 2300 34
3 2301 47
3 2302 24
3 2303 47
3 2304 33
3 2305 15
3 2306 21
3 2307 47
3 2308 20
3 2309 39
3 2310 21
3 2311 8339
3 2312 95
3 2313 3934
3 2314 2154
3 2315 16
3 2316 28
3 2317 30
3 2318 24
3 2319 35
3 2320 27
3 2321 45
3 2322 28
3 2323 17
3 2324 20
3 2325 28
3 2326 52
3 2327 39
3 2328 28
3 2329 41
3 2330 16
3 2331 17
3 2332 29
3 2333 16
3 2335 16
3 2336 9050
3 2337 16
3 2338 59
3 2339 20
3 2340 34
3 2341 42
3 2342 32
3 2343 27
3 2344 23
3 2345 2616
3 2346 10
3 2348 29
3 2349 7788
3 2350 30
3 2351 2819
3 2352 27
3 2353 19
3 2354 15
3 2355 30
3 2356 55
3 2357 18
3 2358 26
3 2359 27
3 2360 2463
3 2361 38
3 2362 45
3 2363 21
3 2364 24
3 2365 23
3 2366 16
3 2367 10
3 2368 28
3 2369 27
3 2370 9
3 2371 21
3 2372 26
3 2373 22
3 2374 1403
3 2375 34
3 2376 6
3 2377 1016
3 2378 18
3 2379 31
3 2380 41
3 2381 9
3 2382 11
3 2383 16
3 2384 27
3 2385 13
3 2386 17
3 2387 15
3 2388 16
3 2389 16
3 2390 32
3 2391 15
3 2392 20
3 2393 2066
3 2394 28
3 2395 20
3 2396 26
3 2397 59
3 2398 26
3 2399 19
3 2400 28
3 2401 15
3 2402 22
3 2403 20
3 2404 22
3 2405 30
3 2406 34
3 2407 38
3 2408 22
3 2409 24
3 2410 46
3 2411 24
3 2412 31
3 2413 29
3 2414 14
3 2415 22
3 2416 3673
3 2417 18
3 2418 21
3 2419 21
3 2420 31
3 2421 27
3 2422 43
3 2423 17
3 2424 25
3 2425 17
3 2426 21
3 2427 24
3 2428 2053
3 2429 23
3 2430 24
3 2431 19
3 2432 18
3 2433 14
3 2434 23
3 2435 26
3 2436 36
3 2437 34
3 2438 17
3 2439 12
3 2440 22
3 2441 67
3 2442 24
3 2443 11
3 2444 14
3 2445 29
3 2446 21
3 2447 19
3 2448 22
3 2449 30
3 2450 29
3 2451 24
3 2452 15
3 2453 32
3 2454 8
3 2455 6
3 2456 25
3 2457 18
3 2458 628
3 2459 21
3 2460 3062
3 2461 23
3 2462 28
3 2463 33
3 2464 35
3 2465 26
3 2466 26
3 2467 3580
3 2468 26
3 2469 31
3 2470 29
3 2471 18
3 2472 20
3 2473 15
3 2474 16
3 2475 42
3 2476 34
3 2477 3328
3 2478 24
3 2479 15
3 2480 29
3 2481 15
3 2482 15
3 2483 21
3 2484 16
3 2485 70
3 2486 43
3 2487 23
3 2488 18
3 2489 31
3 2490 35
3 2491 37
3 2492 36
3 2493 14
3 2494 19
3 2495 20
3 2496 10
3 2497 15
3 2498 20
3 2499 25
3 2500 35
3 2501 28
3 2502 10
3 2503 5141
3 2504 29
3 2505 16
3 2506 21
3 2507 15
3 2508 20
4 1 18
4 2 21
4 3 30
4 4 21
4 5 80
4 6 30
4 7 22
4 8 22
4 9 39
4 10 31
4 11 22
4 12 19
4 13 658
4 14 61
4 15 2584
4 16 20
4 17 28
4 18 12
4 19 33
4 20 42
4 21 31
4 22 23
4 23 19
4 24 58
4 25 9
4 26 3405
4 27 15
4 28 29
4 29 31
4 30 20
4 31 25
4 32 29
4 33 24
4 34 30
4 35 29
4 36 17
4 37 10
4 38 55
4 39 25
4 40 25
4 41 53
4 42 622
4 43 21
4 44 30
4 45 31
4 46 7
4 47 25
4 48 32
4 49 4293
4 50 24
4 51 27
4 52 399
4 53 24
4 54 51
4 55 470
4 56 36
4 57 1191
4 58 29
4 59 9
4 60 30
4 61 96
4 62 36
4 63 19
4 64 12
4 65 22
4 66 26
4 67 30
4 68 34
4 69 21
4 70 26
4 71 19
4 72 360
4 73 31
4 74 54
4 75 21
4 76 22
4 77 16
4 78 22
4 79 31
4 80 3272
4 81 39
4 82 25
4 83 11
4 84 18
4 85 22
4 86 34
4 87 22
4 88 88
4 89 16
4 90 3197
4 91 30
4 92 22
4 93 1160
4 94 1242
4 95 26
4 96 56
4 97 24
4 98 38
4 99 30
4 100 34
4 101 17
4 102 20
4 103 28
4 104 57
4 105 4712
4 106 35
4 107 31
4 108 36
4 109 23
4 110 34
4 112 54
4 113 26
4 114 23
4 115 17
4 116 32
4 117 798
4 118 41
4 119 3966
4 120 21
4 121 3483
4 122 40
4 123 20
4 124 26
4 125 34
4 126 934
4 127 19
4 128 27
4 129 3880
4 130 38
4 131 34
4 132 32
4 133 32
4 134 24
4 135 18
4 136 33
4 137 53
4 138 9
4 139 16
4 140 28
4 141 32
4 142 19
4 143 44
4 144 29
4 145 30
4 146 3767
4 147 27
4 148 33
4 149 35
4 150 33
4 151 38
4 152 32
4 153 28
4 154 56
4 155 53
4 156 54
4 157 35
4 158 18
4 159 58
4 160 340
4 161 51
4 162 48
4 163 18
4 164 28
4 165 2390
4 166 22
4 167 32
4 168 47
4 169 25
4 170 1
4 171 41
4 172 43
4 173 32
4 174 967
4 175 25
4 176 39
4 177 1535
4 178 24
4 179 29
4 180 41
4 181 25
4 182 32
4 183 38
4 184 29
4 185 35
4 186 37
4 187 20
4 188 2620
4 189 34
4 190 53
4 191 20
4 192 18
4 193 75
4 194 54
4 195 41
4 196 69
4 197 34
4 198 29
4 199 27
4 200 27
4 201 22
4 202 32
4 203 2484
4 204 27
4 205 283
4 206 27
4 207 17
4 208 55
4 209 23
4 210 41
4 211 38
4 212 2
4 213 719
4 214 44
4 215 24
4 216 32
4 217 60
4 218 22
4 219 17
4 220 41
4 221 46
4 222 760
4 223 41
4 224 541
4 225 19
4 226 27
4 227 16
4 228 12
4 229 24
4 230 33
4 231 3509
4 232 40
4 233 935
4 234 21
4 235 56
4 236 31
4 237 1739
4 238 17
4 239 631
4 240 33
4 241 25
4 242 604
4 243 38
4 244 2151
4 245 32
4 246 49
4 247 32
4 248 40
4 249 26
4 250 48
4 251 24
4 252 31
4 253 14
4 254 42
4 255 17
4 256 2978
4 257 39
4 258 42
4 259 26
4 260 53
4 261 18
4 262 24
4 263 24
4 264 15
4 265 32
4 266 29
4 267 38
4 268 771
4 269 33
4 270 34
4 271 21
4 272 532
4 273 36
4 274 29
4 275 1189
4 276 32
4 277 27
4 278 27
4 279 24
4 280 23
4 281 31
4 282 13
4 283 18
4 284 27
4 285 23
4 286 26
4 287 3565
4 288 65
4 289 57
4 290 1851
4 291 183
4 292 4
4 293 20
4 294 16
4 295 29
4 296 19
4 297 16
4 298 25
4 299 19
4 300 21
4 301 32
4 302 43
4 303 18
4 304 35
4 305 33
4 306 15
4 307 6
4 308 42
4 309 19
4 310 31
4 311 35
4 312 20
4 313 19
4 314 38
4 315 20
4 316 10
4 317 29
4 318 49
4 319 43
4 320 51
4 321 33
4 322 45
4 323 20
4 324 25
4 325 14
4 326 28
4 327 18
4 328 1680
4 329 16
4 330 24
4 331 34
4 332 12
4 333 290
4 334 39
4 335 858
4 336 2617
4 337 16
4 338 21
4 339 31
4 340 29
4 341 32
4 342 815
4 343 15
4 344 19
4 345 26
4 346 2231
4 347 21
4 348 15
4 349 24
4 350 1220
4 351 27
4 352 58
4 353 500
4 354 376
4 355 14
4 356 43
4 357 2199
4 358 24
4 359 24
4 360 38
4 361 1409
4 362 42
4 363 16
4 364 37
4 365 28
4 366 39
4 367 29
4 368 11
4 369 47
4 370 37
4 371 825
4 372 47
4 373 53
4 374 24
4 375 4
4 377 6
4 378 412
4 379 3
4 380 1
4 381 1
4 382 2
4 383 2
4 384 4
4 385 2094
4 386 1658
4 387 36
4 388 37
4 389 32
4 390 10
4 391 26
4 392 20
4 393 31
4 394 32
4 395 28
4 396 25
4 397 23
4 398 48
4 399 26
4 400 34
4 401 19
4 402 7
4 403 20
4 404 13
4 405 22
4 406 35
4 407 1518
4 408 45
4 409 30
4 410 33
4 411 40
4 412 21
4 413 38
4 414 27
4 415 16
4 416 27
4 417 58
4 418 3
4 419 39
4 420 27
4 421 21
4 422 34
4 423 477
4 424 14
4 425 21
4 426 26
4 427 18
4 428 19
4 429 20
4 430 25
4 431 15
4 432 22
4 433 27
4 435 27
4 436 284
4 437 28
4 438 22
4 439 5
4 440 18
4 441 58
4 442 29
4 443 43
4 444 14
4 445 22
4 446 18
4 447 4
4 448 27
4 449 14
4 450 29
4 451 30
4 452 38
4 453 73
4 454 70
4 455 32
4 456 20
4 457 30
4 458 24
4 459 27
4 460 32
4 461 694
4 462 58
4 463 24
4 464 21
4 465 1996
4 466 15
4 467 20
4 468 1485
4 469 27
4 470 39
4 471 17
4 472 1885
4 473 28
4 474 26
4 475 48
4 476 25
4 477 750
4 478 13
4 479 15
4 480 681
4 481 62
4 482 24
4 483 34
4 484 38
4 485 56
4 486 28
4 487 20
4 488 44
4 489 27
4 490 25
4 491 26
4 492 30
4 493 13
4 494 23
4 495 37
4 496 20
4 497 24
4 498 20
4 499 7
4 500 18
4 501 25
4 502 13
4 503 22
4 504 25
4 505 16
4 506 33
4 507 884
4 508 53
4 509 23
4 510 27
4 511 43
4 512 33
4 513 29
4 514 407
4 515 17
4 516 23
4 517 38
4 518 63
4 519 35
4 520 17
4 521 24
4 522 30
4 523 30
4 524 35
4 525 50
4 526 29
4 527 28
4 528 3094
4 529 42
4 530 30
4 531 32
4 532 40
4 533 31
4 534 21
4 535 5
4 536 1618
4 537 1740
4 538 22
4 539 2471
4 540 21
4 541 58
4 542 910
4 543 15
4 544 18
4 545 11
4 546 27
4 547 29
4 548 24
4 549 10
4 550 28
4 551 21
4 552 2656
4 553 31
4 554 16
4 555 21
4 556 18
4 557 16
4 558 25
4 559 23
4 560 22
4 561 21
4 562 42
4 563 25
4 564 39
4 565 30
4 566 24
4 567 35
4 568 16
4 569 23
4 570 28
4 571 138
4 572 21
4 573 26
4 574 4
4 575 22
4 576 31
4 577 36
4 578 53
4 579 44
4 580 20
4 581 24
4 582 14
4 583 70
4 584 27
4 585 3064
4 586 26
4 587 31
4 588 22
4 589 64
4 590 17
4 591 34
4 592 31
4 593 24
4 594 32
4 595 56
4 596 50
4 597 58
4 598 34
4 599 32
4 600 31
4 601 42
4 602 14
4 603 45
4 604 27
4 605 2049
4 606 29
4 607 32
4 608 14
4 609 27
4 610 33
4 611 15
4 612 33
4 613 27
4 614 26
4 615 34
4 616 33
4 617 28
4 618 71
4 619 34
4 620 26
4 621 34
4 622 22
4 623 30
4 624 28
4 625 45
4 626 38
4 627 31
4 628 29
4 629 40
4 630 15
4 631 21
4 632 36
4 633 41
4 634 26
4 635 35
4 636 22
4 637 41
4 638 39
4 639 27
4 640 32
4 641 19
4 642 28
4 643 35
4 644 2657
4 645 45
4 646 921
4 647 47
4 648 35
4 649 42
4 650 23
4 651 28
4 652 25
4 653 36
4 654 32
4 655 37
4 656 593
4 657 1370
4 658 34
4 659 664
4 660 25
4 661 26
4 662 30
4 663 25
4 664 3030
4 665 41
4 666 13
4 667 37
4 668 27
4 669 35
4 670 677
4 671 26
4 672 26
4 673 22
4 674 21
4 675 26
4 676 31
4 677 39
4 678 60
4 679 24
4 680 23
4 681 22
4 682 43
4 683 19
4 684 12
4 685 27
4 686 11
4 687 26
4 688 20
4 689 43
4 690 45
4 691 48
4 692 8
4 693 39
4 694 34
4 695 35
4 696 33
4 697 27
4 698 31
4 699 12
4 700 12
4 701 35
4 702 26
4 703 1749
4 704 40
4 705 32
4 706 2398
4 707 17
4 708 749
4 709 77
4 710 25
4 711 1288
4 712 20
4 713 630
4 714 40
4 715 25
4 716 62
4 717 7793
4 718 32
4 719 22
4 720 9
4 721 29
4 722 27
4 723 2320
4 724 37
4 725 2381
4 726 41
4 727 12
4 728 32
4 729 12
4 730 19
4 731 33
4 732 18
4 733 1654
4 734 26
4 735 69
4 736 1368
4 737 22
4 738 13
4 739 39
4 740 25
4 741 39
4 742 11
4 743 25
4 744 31
4 745 29
4 746 36
4 747 34
4 748 32
4 749 14
4 750 29
4 751 26
4 752 34
4 753 32
4 754 1384
4 755 2835
4 756 15
4 757 14
4 758 19
4 759 30
4 760 30
4 761 28
4 762 30
4 763 81
4 764 19
4 765 36
4 766 30
4 767 81
4 768 32
4 769 57
4 770 33
4 771 22
4 772 15
4 773 16
4 774 25
4 775 63
4 776 17
4 777 1557
4 778 31
4 779 21
4 780 28
4 781 26
4 782 20
4 783 17
4 784 39
4 785 31
4 786 45
4 787 19
4 788 25
4 789 29
4 790 2949
4 791 1201
4 792 48
4 793 21
4 794 2127
4 795 16
4 796 26
4 797 16
4 798 35
4 799 34
4 800 3900
4 801 16
4 802 21
4 803 1472
4 804 2622
4 805 57
4 806 17
4 807 36
4 808 31
4 809 29
4 810 16
4 811 21
4 812 24
4 813 31
4 814 24
4 815 38
4 816 432
4 817 27
4 818 15
4 819 29
4 820 20
4 821 24
4 822 30
4 823 36
4 824 37
4 825 30
4 826 41
4 827 32
4 828 17
4 829 29
4 830 24
4 831 36
4 832 55
4 833 53
4 834 9
4 835 35
4 836 16
4 837 32
4 838 8
4 839 28
4 840 26
4 841 25
4 842 58
4 843 176
4 844 14
4 845 36
4 846 50
4 847 29
4 848 30
4 849 461
4 850 1400
4 851 19
4 852 52
4 853 18
4 854 43
4 855 29
4 856 20
4 857 67
4 858 22
4 859 927
4 860 32
4 861 3
4 862 23
4 863 17
4 864 34
4 865 31
4 866 21
4 867 33
4 868 33
4 869 909
4 870 21
4 871 481
4 872 23
4 873 29
4 874 30
4 875 68
4 876 30
4 877 42
4 878 1310
4 879 21
4 880 29
4 881 1911
4 882 24
4 883 12
4 884 23
4 885 22
4 886 430
4 887 45
4 888 650
4 889 14
4 890 21
4 891 23
4 892 25
4 893 43
4 894 1612
4 895 13
4 896 51
4 897 41
4 898 28
4 899 27
4 900 10
4 901 1934
4 902 39
4 903 1574
4 904 19
4 905 942
4 906 16
4 907 23
4 908 15
4 909 513
4 910 11
4 911 24
4 912 15
4 913 18
4 914 31
4 915 13
4 916 6
4 917 23
4 918 43
4 919 2379
4 920 26
4 921 30
4 922 22
4 923 53
4 924 14
4 925 27
4 926 15
4 927 46
4 928 32
4 929 18
4 930 14
4 931 28
4 932 13
4 933 39
4 934 18
4 935 16
4 936 85
4 937 15
4 938 27
4 939 43
4 940 16
4 941 52
4 942 23
4 943 54
4 944 25
4 945 37
4 946 9
4 947 35
4 948 22
4 949 28
4 950 42
4 951 29
4 952 20
4 953 62
4 954 22
4 955 11
4 956 40
4 957 50
4 958 14
4 959 2001
4 960 2998
4 961 94
4 962 34
4 963 15
4 964 40
4 965 37
4 966 17
4 967 21
4 968 40
4 969 36
4 970 26
4 971 25
4 972 50
4 973 20
4 974 45
4 975 21
4 976 27
4 977 30
4 978 1677
4 979 680
4 980 28
4 981 27
4 982 14
4 983 2992
4 984 20
4 985 20
4 986 34
4 987 19
4 988 38
4 989 14
4 990 17
4 991 15
4 992 20
4 993 24
4 994 24
4 995 21
4 996 19
4 997 2150
4 998 26
4 999 21
4 1000 74
4 1001 9
4 1002 31
4 1003 42
4 1004 25
4 1005 27
4 1006 30
4 1007 21
4 1008 22
4 1009 15
4 1010 28
4 1011 24
4 1012 33
4 1013 24
4 1014 26
4 1015 37
4 1016 13
4 1017 16
4 1018 23
4 1019 19
4 1020 62
4 1021 38
4 1022 13
4 1023 38
4 1024 21
4 1025 492
4 1026 33
4 1027 1418
4 1028 50
4 1029 26
4 1030 35
4 1031 29
4 1032 39
4 1033 29
4 1034 20
4 1035 32
4 1036 60
4 1037 62
4 1038 31
4 1039 29
4 1040 1542
4 1041 40
4 1042 16
4 1043 27
4 1044 40
4 1045 23
4 1046 36
4 1047 4
4 1048 1103
4 1049 3509
4 1050 2351
4 1051 4119
4 1052 42
4 1053 38
4 1054 14
4 1055 21
4 1056 21
4 1057 32
4 1058 21
4 1059 16
4 1060 31
4 1061 342
4 1062 23
4 1063 26
4 1064 220
4 1065 527
4 1066 1601
4 1067 25
4 1068 17
4 1069 26
4 1070 18
4 1071 57
4 1072 35
4 1073 40
4 1074 59
4 1075 722
4 1076 37
4 1077 13
4 1078 18
4 1079 16
4 1080 8
4 1081 23
4 1082 24
4 1083 42
4 1084 23
4 1085 33
4 1086 18
4 1087 485
4 1088 29
4 1089 3515
4 1090 10
4 1091 25
4 1092 32
4 1093 1425
4 1094 21
4 1095 21
4 1096 18
4 1097 1429
4 1098 33
4 1099 34
4 1100 4
4 1101 26
4 1102 1571
4 1103 18
4 1104 30
4 1105 31
4 1106 17
4 1107 17
4 1108 1179
4 1109 9
4 1110 11
4 1111 12
4 1112 30
4 1113 13
4 1114 2090
4 1115 26
4 1116 12
4 1117 555
4 1118 12
4 1119 17
4 1120 12
4 1121 21
4 1122 22
4 1123 38
4 1124 26
4 1125 21
4 1126 36
4 1127 25
4 1128 23
4 1129 1393
4 1130 38
4 1131 21
4 1132 19
4 1133 527
4 1134 10
4 1135 28
4 1136 256
4 1137 21
4 1138 9
4 1139 17
4 1140 19
4 1141 9
4 1142 24
4 1143 32
4 1144 33
4 1145 26
4 1146 25
4 1147 2600
4 1148 20
4 1149 23
4 1150 38
4 1151 464
4 1152 31
4 1153 24
4 1154 207
4 1155 21
4 1156 19
4 1157 45
4 1158 47
4 1159 22
4 1160 14
4 1161 26
4 1162 36
4 1163 27
4 1164 12
4 1165 50
4 1166 22
4 1167 32
4 1168 1143
4 1169 20
4 1170 45
4 1171 28
4 1172 36
4 1173 36
4 1174 26
4 1175 27
4 1176 26
4 1177 36
4 1178 33
4 1179 73
4 1180 33
4 1181 659
4 1182 23
4 1183 29
4 1184 34
4 1185 31
4 1186 25
4 1187 1184
4 1188 23
4 1189 33
4 1190 16
4 1191 30
4 1192 1127
4 1193 26
4 1194 534
4 1195 25
4 1196 29
4 1197 616
4 1198 31
4 1199 10
4 1200 18
4 1201 35
4 1202 1223
4 1203 40
4 1204 24
4 1205 26
4 1206 22
4 1207 55
4 1208 2239
4 1209 51
4 1210 2943
4 1211 36
4 1212 4
4 1213 28
4 1214 25
4 1215 14
4 1216 29
4 1217 472
4 1218 27
4 1219 33
4 1220 719
4 1221 2410
4 1222 29
4 1223 10
4 1224 84
4 1225 26
4 1226 22
4 1227 24
4 1228 25
4 1229 17
4 1230 34
4 1231 838
4 1232 1608
4 1233 38
4 1234 34
4 1235 36
4 1236 27
4 1237 1822
4 1238 14
4 1239 36
4 1240 27
4 1241 17
4 1242 22
4 1243 21
4 1244 33
4 1245 21
4 1246 24
4 1247 24
4 1248 18
4 1249 15
4 1250 31
4 1251 24
4 1252 1626
4 1253 31
4 1254 28
4 1255 18
4 1256 912
4 1257 29
4 1258 4425
4 1259 70
4 1260 37
4 1261 39
4 1262 1114
4 1263 28
4 1264 22
4 1265 17
4 1266 59
4 1267 46
4 1268 31
4 1269 27
4 1270 41
4 1271 36
4 1272 31
4 1273 45
4 1274 10
4 1275 27
4 1276 36
4 1277 35
4 1278 1336
4 1279 27
4 1280 19
4 1281 11
4 1282 25
4 1283 26
4 1284 41
4 1285 22
4 1286 33
4 1287 22
4 1288 31
4 1289 38
4 1290 16
4 1291 18
4 1292 42
4 1293 28
4 1294 2842
4 1295 27
4 1296 34
4 1297 16
4 1298 25
4 1299 24
4 1300 16
4 1301 2644
4 1302 30
4 1303 16
4 1304 45
4 1305 21
4 1306 35
4 1307 16
4 1308 19
4 1309 25
4 1310 17
4 1311 28
4 1312 22
4 1313 26
4 1314 26
4 1315 20
4 1316 25
4 1317 39
4 1318 19
4 1319 37
4 1320 21
4 1321 32
4 1322 21
4 1323 23
4 1324 13
4 1325 22
4 1326 24
4 1327 18
4 1328 1418
4 1329 26
4 1330 24
4 1331 25
4 1332 11
4 1333 36
4 1334 20
4 1335 47
4 1336 17
4 1337 14
4 1338 13
4 1339 1695
4 1340 22
4 1341 40
4 1342 319
4 1343 25
4 1344 64
4 1345 26
4 1346 1112
4 1347 54
4 1348 40
4 1349 41
4 1350 30
4 1351 28
4 1352 37
4 1353 21
4 1354 17
4 1355 17
4 1356 26
4 1357 32
4 1358 31
4 1359 18
4 1360 5629
4 1361 20
4 1362 29
4 1363 31
4 1364 31
4 1365 29
4 1366 57
4 1367 2716
4 1368 19
4 1369 30
4 1370 42
4 1371 25
4 1372 33
4 1373 23
4 1374 55
4 1375 22
4 1376 15
4 1377 28
4 1378 3875
4 1379 724
4 1380 19
4 1381 29
4 1382 2001
4 1383 16
4 1384 30
4 1385 36
4 1386 22
4 1387 33
4 1388 576
4 1389 26
4 1390 15
4 1391 12
4 1392 43
4 1393 11
4 1394 22
4 1395 32
4 1396 20
4 1397 18
4 1398 20
4 1399 12
4 1400 29
4 1401 17
4 1402 33
4 1403 43
4 1404 19
4 1405 38
4 1406 21
4 1407 33
4 1408 20
4 1409 1
4 1410 17
4 1411 2996
4 1412 24
4 1413 35
4 1414 1724
4 1415 784
4 1416 43
4 1417 46
4 1418 35
4 1419 65
4 1420 36
4 1421 27
4 1422 33
4 1423 26
4 1424 3378
4 1425 6
4 1426 21
4 1427 32
4 1428 28
4 1429 1633
4 1430 25
4 1431 10
4 1432 19
4 1433 29
4 1434 34
4 1435 1044
4 1436 64
4 1437 42
4 1438 3139
4 1439 24
4 1440 30
4 1441 32
4 1442 25
4 1443 15
4 1444 25
4 1445 4601
4 1446 45
4 1447 29
4 1448 29
4 1449 20
4 1450 30
4 1451 17
4 1452 32
4 1453 19
4 1454 2829
4 1455 27
4 1456 36
4 1457 59
4 1458 56
4 1459 37
4 1460 39
4 1461 27
4 1462 40
4 1463 31
4 1464 21
4 1465 21
4 1466 22
4 1467 34
4 1468 19
4 1469 54
4 1470 21
4 1471 36
4 1472 67
4 1473 22
4 1474 33
4 1475 23
4 1476 27
4 1477 23
4 1478 31
4 1479 813
4 1480 27
4 1481 20
4 1482 58
4 1483 540
4 1484 39
4 1485 2
4 1486 35
4 1487 37
4 1488 29
4 1489 22
4 1490 39
4 1491 39
4 1492 17
4 1493 45
4 1494 34
4 1495 48
4 1496 60
4 1497 37
4 1498 26
4 1499 38
4 1500 23
4 1501 399
4 1502 36
4 1503 22
4 1504 38
4 1505 27
4 1506 517
4 1507 16
4 1508 29
4 1509 45
4 1510 15
4 1511 1409
4 1512 21
4 1513 31
4 1514 23
4 1515 16
4 1516 61
4 1517 46
4 1518 9
4 1519 36
4 1520 29
4 1521 22
4 1522 32
4 1523 1947
4 1524 32
4 1525 28
4 1526 41
4 1527 36
4 1528 33
4 1529 24
4 1530 8
4 1531 38
4 1532 18
4 1533 50
4 1534 29
4 1535 43
4 1536 2005
4 1537 29
4 1538 20
4 1539 36
4 1540 58
4 1541 40
4 1542 33
4 1543 1146
4 1544 43
4 1545 36
4 1546 40
4 1547 20
4 1548 39
4 1549 45
4 1550 35
4 1551 35
4 1552 2312
4 1553 30
4 1554 55
4 1555 28
4 1556 7
4 1557 34
4 1558 11
4 1559 3881
4 1560 29
4 1561 21
4 1562 24
4 1563 30
4 1564 20
4 1565 23
4 1566 57
4 1567 37
4 1568 27
4 1569 61
4 1570 22
4 1571 34
4 1572 23
4 1573 22
4 1574 24
4 1575 75
4 1576 34
4 1577 744
4 1578 30
4 1579 23
4 1580 44
4 1581 31
4 1582 30
4 1583 4874
4 1584 418
4 1585 21
4 1586 18
4 1587 12
4 1588 33
4 1589 24
4 1590 47
4 1591 35
4 1592 919
4 1593 1592
4 1594 36
4 1595 30
4 1596 35
4 1597 25
4 1598 16
4 1599 4752
4 1600 14
4 1601 26
4 1602 3158
4 1603 14
4 1604 18
4 1605 17
4 1606 33
4 1607 2539
4 1608 14
4 1609 33
4 1610 33
4 1611 11
4 1612 23
4 1613 26
4 1614 29
4 1615 31
4 1616 23
4 1617 25
4 1618 685
4 1619 15
4 1620 28
4 1621 4
4 1622 3019
4 1623 29
4 1624 39
4 1625 49
4 1626 33
4 1627 370
4 1628 22
4 1629 46
4 1630 32
4 1631 23
4 1632 56
4 1633 58
4 1634 30
4 1635 19
4 1636 38
4 1637 88
4 1638 24
4 1639 25
4 1640 4267
4 1641 28
4 1642 28
4 1643 22
4 1644 38
4 1645 38
4 1646 35
4 1647 30
4 1648 30
4 1649 1524
4 1650 29
4 1651 690
4 1652 39
4 1653 19
4 1654 32
4 1655 9
4 1656 27
4 1657 38
4 1658 38
4 1659 34
4 1660 30
4 1661 1333
4 1662 17
4 1663 23
4 1664 24
4 1665 28
4 1666 22
4 1667 26
4 1668 809
4 1669 15
4 1670 30
4 1671 31
4 1672 42
4 1673 37
4 1674 14
4 1675 28
4 1676 40
4 1677 23
4 1678 14
4 1679 36
4 1680 66
4 1681 25
4 1682 18
4 1683 16
4 1684 14
4 1685 14
4 1686 187
4 1687 1495
4 1688 36
4 1689 38
4 1690 15
4 1691 28
4 1692 19
4 1693 18
4 1694 22
4 1695 19
4 1696 27
4 1697 34
4 1698 13
4 1699 24
4 1700 21
4 1701 21
4 1702 224
4 1703 13
4 1704 25
4 1705 41
4 1706 3710
4 1707 31
4 1708 30
4 1709 25
4 1710 24
4 1711 1
4 1712 32
4 1713 18
4 1714 26
4 1715 13
4 1716 33
4 1717 26
4 1718 17
4 1719 37
4 1720 2061
4 1721 34
4 1722 24
4 1723 31
4 1724 52
4 1725 40
4 1726 41
4 1727 37
4 1728 20
4 1729 61
4 1730 15
4 1731 34
4 1732 9
4 1733 33
4 1734 24
4 1735 29
4 1736 16
4 1737 23
4 1738 5918
4 1739 21
4 1740 26
4 1741 54
4 1742 1515
4 1743 16
4 1744 50
4 1745 1451
4 1746 16
4 1747 33
4 1748 26
4 1749 28
4 1750 21
4 1751 67
4 1752 1042
4 1753 59
4 1754 22
4 1755 17
4 1756 25
4 1757 26
4 1758 39
4 1759 2819
4 1760 28
4 1761 18
4 1762 64
4 1763 29
4 1764 24
4 1765 29
4 1766 24
4 1767 31
4 1768 29
4 1769 26
4 1770 778
4 1771 40
4 1772 39
4 1773 22
4 1774 26
4 1775 28
4 1776 42
4 1777 2988
4 1778 35
4 1779 33
4 1780 43
4 1781 19
4 1782 19
4 1783 17
4 1784 20
4 1785 47
4 1786 12
4 1787 32
4 1788 31
4 1789 24
4 1790 40
4 1791 21
4 1792 31
4 1793 5
4 1794 26
4 1795 39
4 1796 2470
4 1797 1421
4 1798 37
4 1799 25
4 1800 25
4 1801 21
4 1802 38
4 1803 10
4 1804 1403
4 1805 36
4 1806 21
4 1807 25
4 1808 22
4 1809 3
4 1810 14
4 1811 42
4 1812 23
4 1813 28
4 1814 26
4 1815 29
4 1816 1784
4 1817 30
4 1818 25
4 1819 17
4 1820 20
4 1821 47
4 1822 24
4 1823 18
4 1824 22
4 1825 23
4 1826 160
4 1827 38
4 1828 19
4 1829 30
4 1830 19
4 1831 28
4 1832 1869
4 1833 37
4 1834 23
4 1835 16
4 1836 31
4 1837 34
4 1838 921
4 1839 34
4 1840 629
4 1841 27
4 1842 35
4 1843 22
4 1844 21
4 1845 27
4 1846 24
4 1847 393
4 1848 33
4 1849 30
4 1850 18
4 1851 1365
4 1852 26
4 1853 27
4 1854 34
4 1855 54
4 1856 20
4 1857 91
4 1858 1
4 1859 2
4 1860 26
4 1861 18
4 1862 21
4 1863 39
4 1864 35
4 1865 385
4 1866 2311
4 1867 23
4 1868 758
4 1869 2184
4 1870 14
4 1871 2419
4 1872 14
4 1873 17
4 1874 26
4 1875 27
4 1876 25
4 1877 44
4 1878 20
4 1879 22
4 1880 19
4 1881 16
4 1882 32
4 1883 54
4 1884 36
4 1885 37
4 1886 12
4 1887 35
4 1888 18
4 1889 17
4 1890 44
4 1891 22
4 1892 22
4 1893 22
4 1894 38
4 1895 46
4 1896 29
4 1897 38
4 1898 42
4 1899 34
4 1900 15
4 1901 30
4 1902 16
4 1903 25
4 1904 27
4 1905 29
4 1906 2903
4 1907 33
4 1908 16
4 1909 20
4 1910 10
4 1911 37
4 1912 21
4 1913 32
4 1914 22
4 1915 18
4 1916 22
4 1917 26
4 1918 56
4 1919 28
4 1920 17
4 1921 29
4 1922 17
4 1923 37
4 1924 389
4 1925 29
4 1926 15
4 1927 38
4 1928 19
4 1929 16
4 1930 41
4 1931 29
4 1932 24
4 1933 29
4 1934 19
4 1935 1485
4 1936 1142
4 1937 47
4 1938 29
4 1939 16
4 1940 228
4 1941 47
4 1942 28
4 1943 1304
4 1944 22
4 1945 19
4 1946 24
4 1947 40
4 1948 38
4 1949 23
4 1950 35
4 1951 23
4 1952 850
4 1953 25
4 1954 26
4 1955 46
4 1956 13
4 1957 863
4 1958 5
4 1959 3066
4 1960 31
4 1961 18
4 1962 9
4 1963 21
4 1964 23
4 1965 11
4 1966 31
4 1967 15
4 1968 32
4 1969 17
4 1970 16
4 1971 48
4 1972 25
4 1973 9
4 1974 345
4 1975 22
4 1976 2797
4 1977 21
4 1978 16
4 1979 31
4 1980 41
4 1981 13
4 1982 18
4 1983 1555
4 1984 2674
4 1985 26
4 1986 33
4 1987 43
4 1988 17
4 1989 23
4 1990 569
4 1991 47
4 1992 30
4 1993 19
4 1994 898
4 1995 83
4 1996 22
4 1997 15
4 1998 31
4 1999 28
4 2000 19
4 2001 57
4 2002 21
4 2003 31
4 2004 23
4 2005 2207
4 2006 24
4 2007 62
4 2008 46
4 2009 30
4 2010 32
4 2011 37
4 2012 45
4 2013 22
4 2014 21
4 2015 15
4 2016 42
4 2017 6
4 2018 19
4 2019 4231
4 2020 59
4 2021 39
4 2022 21
4 2023 431
4 2024 65
4 2025 40
4 2026 44
4 2027 40
4 2028 21
4 2029 21
4 2030 15
4 2031 15
4 2032 35
4 2033 2181
4 2034 36
4 2035 36
4 2036 865
4 2037 13
4 2038 22
4 2039 22
4 2040 25
4 2041 21
4 2042 1318
4 2043 14
4 2044 59
4 2045 23
4 2046 24
4 2047 22
4 2048 52
4 2049 25
4 2050 43
4 2051 24
4 2052 25
4 2053 28
4 2054 40
4 2055 7
4 2056 1179
4 2057 69
4 2058 45
4 2059 14
4 2060 149
4 2061 29
4 2062 38
4 2063 1179
4 2064 21
4 2065 24
4 2066 24
4 2067 14
4 2068 22
4 2069 18
4 2070 35
4 2071 26
4 2072 33
4 2073 24
4 2074 18
4 2075 49
4 2076 11
4 2077 19
4 2078 17
4 2079 51
4 2080 20
4 2081 34
4 2082 25
4 2083 40
4 2084 36
4 2085 42
4 2086 22
4 2087 29
4 2088 25
4 2089 29
4 2090 2802
4 2091 30
4 2092 22
4 2093 37
4 2094 51
4 2095 13
4 2096 31
4 2097 22
4 2098 12
4 2099 41
4 2100 30
4 2101 18
4 2102 22
4 2103 22
4 2104 22
4 2105 497
4 2106 17
4 2107 16
4 2108 24
4 2109 25
4 2110 21
4 2111 24
4 2112 23
4 2113 26
4 2114 26
4 2115 30
4 2116 27
4 2117 30
4 2118 27
4 2119 25
4 2120 22
4 2121 24
4 2122 35
4 2123 36
4 2124 30
4 2125 16
4 2126 40
4 2127 481
4 2128 12
4 2129 25
4 2130 1548
4 2131 45
4 2132 65
4 2133 3663
4 2134 22
4 2135 20
4 2136 62
4 2137 32
4 2138 2734
4 2139 19
4 2140 26
4 2141 27
4 2142 19
4 2143 685
4 2144 23
4 2145 36
4 2146 29
4 2147 18
4 2148 38
4 2149 19
4 2150 32
4 2151 33
4 2152 12
4 2153 22
4 2154 15
4 2155 13
4 2156 33
4 2157 45
4 2158 25
4 2159 1683
4 2160 24
4 2161 20
4 2162 13
4 2163 55
4 2164 2468
4 2165 31
4 2166 18
4 2167 19
4 2168 30
4 2169 16
4 2170 19
4 2171 2348
4 2172 21
4 2173 30
4 2174 30
4 2175 54
4 2176 14
4 2177 25
4 2178 15
4 2179 16
4 2180 14
4 2181 12
4 2182 12
4 2183 11
4 2184 7
4 2185 23
4 2186 28
4 2187 44
4 2188 8
4 2189 33
4 2190 26
4 2191 18
4 2192 20
4 2193 47
4 2194 26
4 2195 26
4 2196 25
4 2197 17
4 2198 26
4 2199 24
4 2200 19
4 2201 333
4 2202 16
4 2203 26
4 2204 33
4 2205 13
4 2206 878
4 2207 33
4 2208 44
4 2209 21
4 2210 16
4 2211 11
4 2212 13
4 2213 21
4 2214 27
4 2215 22
4 2216 14
4 2217 33
4 2218 23
4 2219 1961
4 2220 13
4 2221 43
4 2222 18
4 2223 13
4 2224 29
4 2225 50
4 2226 33
4 2227 37
4 2228 23
4 2229 1288
4 2230 3865
4 2231 2401
4 2232 301
4 2233 26
4 2234 6
4 2235 24
4 2236 21
4 2237 3
4 2238 26
4 2239 15
4 2240 10
4 2241 27
4 2242 31
4 2243 18
4 2244 11
4 2245 14
4 2246 31
4 2247 32
4 2248 38
4 2249 99
4 2250 22
4 2251 28
4 2252 17
4 2253 23
4 2254 35
4 2255 54
4 2256 855
4 2257 25
4 2258 304
4 2259 22
4 2260 23
4 2261 31
4 2262 18
4 2263 12
4 2264 14
4 2265 21
4 2266 30
4 2267 16
4 2268 24
4 2269 19
4 2270 22
4 2271 370
4 2272 423
4 2273 21
4 2274 36
4 2275 24
4 2276 22
4 2277 12
4 2278 10
4 2279 15
4 2280 35
4 2281 5
4 2282 22
4 2283 549
4 2284 23
4 2285 18
4 2286 19
4 2287 28
4 2288 26
4 2289 2510
4 2290 1864
4 2291 8
4 2292 29
4 2293 426
4 2294 25
4 2295 37
4 2296 3736
4 2297 32
4 2298 22
4 2299 619
4 2300 34
4 2301 1237
4 2302 1179
4 2303 587
4 2304 79
4 2305 2419
4 2306 22
4 2307 16
4 2308 22
4 2309 35
4 2310 31
4 2311 19
4 2312 55
4 2313 27
4 2314 34
4 2315 30
4 2316 3937
4 2317 500
4 2318 2483
4 2319 45
4 2320 3581
4 2321 528
4 2322 10
4 2323 22
4 2324 26
4 2325 18
4 2326 2296
4 2327 37
4 2328 8
4 2329 16
4 2330 3
4 2331 18
4 2332 14
4 2333 21
4 2334 2
4 2335 18
4 2336 6
4 2337 8
4 2338 46
4 2339 15
4 2340 33
4 2341 438
4 2342 16
4 2343 18
4 2344 21
4 2345 15
4 2346 15
4 2347 1
4 2348 16
4 2349 12
4 2350 9
4 2351 11
4 2352 28
4 2353 19
4 2354 28
4 2355 17
4 2356 23
4 2357 27
4 2358 30
4 2359 37
4 2360 21
4 2361 1656
4 2362 27
4 2363 16
4 2364 26
4 2365 23
4 2366 28
4 2367 24
4 2368 1702
4 2369 8
4 2370 660
4 2371 13
4 2372 21
4 2373 11
4 2374 24
4 2375 167
4 2376 23
4 2377 29
4 2378 20
4 2379 15
4 2380 2749
4 2381 25
4 2382 16
4 2383 21
4 2384 18
4 2385 11
4 2386 1451
4 2387 12
4 2388 13
4 2389 22
4 2390 32
4 2391 23
4 2392 19
4 2393 29
4 2394 29
4 2395 22
4 2396 22
4 2397 52
4 2398 17
4 2399 29
4 2400 14
4 2401 16
4 2402 16
4 2403 21
4 2404 613
4 2405 25
4 2406 28
4 2407 51
4 2408 1834
4 2409 29
4 2410 52
4 2411 25
4 2412 43
4 2413 19
4 2414 47
4 2415 33
4 2416 14
4 2417 9
4 2418 23
4 2419 33
4 2420 18
4 2421 27
4 2422 1373
4 2423 15
4 2424 15
4 2425 519
4 2426 21
4 2427 29
4 2428 39
4 2429 33
4 2430 15
4 2431 18
4 2432 1684
4 2433 32
4 2434 25
4 2435 22
4 2436 23
4 2437 1958
4 2438 18
4 2439 15
4 2440 15
4 2441 57
4 2442 14
4 2443 1381
4 2444 18
4 2445 24
4 2446 1372
4 2447 10
4 2448 20
4 2449 59
4 2450 27
4 2451 15
4 2452 29
4 2453 24
4 2454 5
4 2455 13
4 2456 604
4 2457 17
4 2458 25
4 2459 36
4 2460 24
4 2461 36
4 2462 934
4 2463 11
4 2464 31
4 2465 30
4 2466 35
4 2467 25
4 2468 25
4 2469 21
4 2470 37
4 2471 2673
4 2472 25
4 2473 19
4 2474 19
4 2475 672
4 2476 52
4 2477 34
4 2478 10
4 2479 17
4 2480 40
4 2481 2194
4 2482 25
4 2483 20
4 2484 19
4 2485 37
4 2486 1941
4 2487 28
4 2488 17
4 2489 32
4 2490 22
4 2491 942
4 2492 42
4 2493 15
4 2494 30
4 2495 28
4 2496 20
4 2497 10
4 2498 30
4 2499 19
4 2500 14
4 2501 21
4 2502 12
4 2503 21
4 2504 23
4 2505 32
4 2506 12
4 2507 24
4 2508 30
5 1 3267
5 2 15
5 3 7
5 4 8
5 5 11
5 6 5
5 7 7
5 8 465
5 9 7
5 10 8
5 11 7
5 12 8
5 13 3
5 14 17
5 15 4
5 16 8
5 17 8
5 18 3
5 19 11
5 20 7
5 21 2
5 22 637
5 23 815
5 24 19
5 25 4
5 26 15
5 27 275
5 28 7
5 29 5
5 30 6
5 31 4
5 32 8
5 33 1
5 34 4
5 35 6
5 36 7
5 37 9
5 38 1849
5 39 5
5 40 8
5 41 190
5 42 10
5 43 7
5 44 13
5 45 6
5 46 1
5 47 437
5 48 2
5 49 11
5 50 8
5 51 13
5 52 270
5 53 7
5 54 993
5 55 1
5 56 7
5 57 5
5 58 9
5 60 782
5 61 13
5 62 2000
5 63 4
5 64 166
5 65 4
5 66 528
5 67 4
5 68 812
5 69 7
5 70 7
5 71 6
5 72 4
5 73 11
5 74 4
5 75 1182
5 76 5
5 77 6
5 78 5
5 79 459
5 80 12
5 81 2
5 82 5
5 83 10
5 84 1
5 85 7
5 86 7
5 87 573
5 88 18
5 89 5
5 90 10
5 91 10
5 92 7
5 93 9
5 94 17
5 95 13
5 96 10
5 97 527
5 98 4
5 99 11
5 100 4
5 101 5
5 102 4
5 103 8
5 104 11
5 105 7
5 106 3
5 107 7
5 108 23
5 109 3
5 110 7
5 111 1
5 112 11
5 113 5
5 114 1024
5 115 1
5 116 189
5 117 3
5 118 6
5 119 17
5 120 1
5 121 7
5 122 8
5 123 4
5 124 5
5 125 237
5 126 3
5 127 6
5 128 629
5 129 8
5 130 5
5 131 8
5 132 281
5 133 10
5 134 10
5 135 8
5 136 5
5 137 9
5 138 1
5 139 3
5 140 1033
5 141 358
5 142 6
5 143 8
5 144 6
5 145 8
5 146 9
5 147 7
5 148 5
5 149 9
5 150 5
5 151 7
5 152 374
5 153 6
5 154 396
5 155 12
5 156 5
5 157 1228
5 158 1193
5 159 17
5 160 5
5 161 15
5 162 4
5 163 4
5 164 467
5 165 6
5 166 2186
5 167 8
5 168 9
5 169 4
5 171 11
5 172 977
5 173 4
5 174 1
5 175 7
5 176 1
5 177 5
5 178 9
5 179 7
5 180 19
5 181 3
5 182 5
5 183 8
5 184 9
5 185 6
5 186 6
5 187 5
5 188 8
5 189 4
5 190 5
5 191 1108
5 192 2
5 193 14
5 194 14
5 195 11
5 196 15
5 197 13
5 198 2829
5 199 8
5 200 5
5 201 5
5 202 6
5 203 4
5 204 5
5 205 4
5 206 11
5 207 8
5 208 812
5 209 103
5 210 9
5 211 8
5 213 18
5 214 5
5 215 7
5 216 676
5 217 14
5 218 7
5 219 7
5 220 9
5 221 7
5 222 9
5 223 14
5 224 2
5 225 10
5 226 813
5 227 15
5 228 4
5 229 5
5 230 9
5 231 8
5 232 10
5 233 4
5 234 10
5 235 22
5 236 521
5 237 7
5 238 637
5 239 5
5 240 8
5 241 8
5 242 7
5 243 4
5 244 4
5 245 4
5 246 6
5 247 8
5 248 4
5 249 3
5 250 16
5 251 3
5 252 8
5 253 8
5 254 16
5 255 1
5 256 5
5 257 6
5 258 6
5 259 5
5 260 10
5 261 4
5 262 6
5 263 9
5 264 952
5 265 650
5 266 8
5 267 9
5 268 10
5 269 7
5 270 4
5 271 5
5 272 10
5 273 3
5 274 6
5 276 7
5 277 11
5 278 5
5 279 9
5 280 8
5 281 6
5 282 150
5 283 4
5 284 9
5 285 4
5 286 2
5 287 6
5 288 23
5 289 14
5 290 3
5 291 4
5 293 3
5 294 6
5 295 4
5 296 6
5 297 4
5 298 5
5 299 102
5 300 7
5 301 9
5 302 8
5 303 5
5 304 8
5 305 4
5 306 8
5 307 9
5 308 11
5 309 10
5 310 15
5 312 143
5 313 6
5 314 8
5 315 11
5 316 3
5 317 9
5 318 15
5 319 10
5 320 250
5 321 204
5 322 5
5 323 14
5 324 789
5 325 7
5 326 12
5 327 210
5 328 13
5 329 9
5 330 6
5 331 4
5 332 11
5 333 6
5 334 6
5 335 4
5 336 2
5 337 11
5 338 7
5 339 11
5 340 405
5 341 15
5 342 7
5 343 2439
5 344 4
5 345 3
5 346 7
5 347 5
5 348 6
5 349 8
5 350 7
5 351 7
5 352 242
5 353 4
5 354 4
5 355 519
5 356 14
5 357 13
5 358 7
5 359 14
5 360 162
5 361 7
5 362 6
5 363 5
5 364 7
5 365 7
5 366 3
5 367 765
5 368 6
5 369 6
5 370 6
5 371 13
5 372 5
5 373 235
5 374 7
5 375 1
5 379 2
5 380 9
5 381 73
5 384 1
5 385 6
5 386 9
5 387 7
5 388 6
5 389 10
5 390 6
5 391 1096
5 392 8
5 393 4
5 394 17
5 395 3
5 396 11
5 397 11
5 398 3
5 399 6
5 400 775
5 401 1881
5 402 8
5 403 5
5 404 10
5 405 8
5 406 13
5 407 6
5 408 10
5 409 9
5 410 2
5 411 8
5 412 94
5 413 4
5 414 5
5 415 5
5 416 2
5 417 1662
5 418 1
5 419 13
5 420 4
5 421 9
5 422 5
5 423 3
5 424 7
5 425 9
5 426 9
5 427 9
5 428 11
5 429 5
5 430 8
5 431 472
5 432 12
5 433 324
5 434 1
5 435 7
5 436 13
5 437 12
5 438 3
5 439 41
5 440 9
5 441 10
5 442 8
5 443 7
5 444 4
5 445 9
5 446 572
5 447 2
5 448 8
5 449 773
5 450 13
5 451 6
5 452 5
5 453 19
5 454 12
5 455 3
5 456 6
5 457 4
5 458 5
5 459 7
5 460 6
5 461 13
5 462 4
5 463 6
5 464 8
5 465 3
5 466 4
5 467 331
5 468 4
5 469 6
5 470 13
5 471 166
5 472 2
5 473 545
5 474 240
5 475 9
5 476 8
5 477 7
5 478 6
5 479 4
5 480 8
5 481 9
5 482 11
5 483 10
5 484 5
5 485 559
5 486 8
5 487 6
5 488 7
5 489 7
5 490 303
5 491 1
5 492 2
5 493 9
5 494 10
5 495 10
5 496 3
5 497 5
5 498 8
5 499 1
5 500 9
5 501 5
5 502 9
5 503 4
5 504 154
5 505 9
5 506 1483
5 507 6
5 508 12
5 509 403
5 510 9
5 511 1064
5 512 7
5 513 222
5 514 11
5 515 615
5 516 9
5 517 9
5 518 17
5 519 7
5 520 8
5 521 6
5 522 6
5 523 12
5 524 7
5 525 6
5 526 4
5 527 10
5 528 10
5 529 7
5 530 3
5 531 7
5 532 10
5 533 7
5 534 8
5 535 113
5 536 12
5 537 7
5 538 6
5 539 13
5 540 4
5 541 183
5 542 4
5 543 3
5 544 519
5 545 2
5 546 2
5 547 7
5 548 2
5 549 4
5 550 4
5 551 5
5 552 15
5 553 6
5 554 4
5 555 5
5 556 790
5 557 2
5 558 13
5 559 5
5 560 5
5 561 143
5 562 5
5 563 108
5 564 3
5 565 8
5 566 716
5 567 13
5 568 14
5 569 12
5 570 210
5 571 13
5 572 3
5 573 6
5 574 2
5 575 9
5 576 13
5 577 3
5 578 6
5 579 6
5 580 7
5 581 7
5 582 6
5 583 16
5 584 10
5 585 1
5 586 1
5 587 6
5 588 3
5 589 10
5 590 6
5 591 7
5 592 1128
5 593 8
5 594 7
5 595 17
5 596 20
5 597 20
5 598 5
5 599 7
5 600 175
5 601 11
5 602 4
5 603 6
5 604 9
5 605 4
5 606 1700
5 607 8
5 608 4
5 609 9
5 610 10
5 611 7
5 612 11
5 613 2
5 614 1
5 615 11
5 616 10
5 617 8
5 618 15
5 619 4
5 620 9
5 621 7
5 622 5
5 623 347
5 624 1001
5 625 4
5 626 15
5 627 8
5 628 452
5 629 352
5 630 8
5 631 11
5 632 6
5 633 5
5 634 15
5 635 8
5 636 6
5 637 11
5 638 11
5 639 10
5 640 11
5 641 430
5 642 6
5 643 10
5 644 3
5 645 19
5 646 2
5 647 7
5 648 7
5 649 227
5 650 6
5 651 6
5 652 8
5 653 7
5 654 25
5 655 164
5 656 10
5 657 9
5 658 5
5 659 21
5 660 1
5 661 7
5 662 1
5 663 7
5 664 11
5 665 5
5 666 7
5 667 8
5 668 6
5 669 6
5 670 9
5 671 3
5 672 7
5 673 7
5 674 1307
5 675 6
5 676 13
5 677 14
5 678 9
5 679 6
5 680 398
5 681 15
5 682 9
5 683 4
5 684 3
5 685 3
5 686 7
5 687 8
5 688 255
5 689 7
5 690 9
5 691 9
5 692 559
5 693 10
5 694 6
5 695 7
5 696 268
5 697 2
5 698 6
5 699 3
5 700 2
5 701 4
5 702 8
5 703 22
5 704 14
5 705 7
5 706 10
5 707 3
5 708 13
5 709 12
5 710 6
5 711 7
5 712 1
5 713 4
5 714 9
5 715 2
5 716 16
5 717 4
5 718 8
5 719 9
5 720 367
5 721 142
5 722 3
5 723 8
5 724 983
5 725 3
5 726 1446
5 727 12
5 728 1
5 729 2
5 730 4
5 731 10
5 732 5
5 733 11
5 734 5
5 735 14
5 736 7
5 737 4
5 738 6
5 739 10
5 740 4
5 741 4
5 742 5
5 743 1
5 744 3
5 745 8
5 746 369
5 747 10
5 748 5
5 749 7
5 750 5
5 751 4
5 752 1865
5 753 13
5 754 8
5 755 8
5 756 5
5 757 9
5 758 511
5 759 4
5 760 8
5 761 8
5 762 8
5 763 19
5 764 5
5 765 4
5 766 4
5 767 1563
5 768 16
5 769 16
5 770 313
5 771 10
5 772 11
5 773 9
5 774 8
5 775 10
5 776 7
5 777 8
5 778 3
5 779 2
5 780 6
5 781 799
5 782 901
5 783 4
5 784 2
5 785 6
5 786 5
5 787 703
5 788 24
5 789 1299
5 790 8
5 791 4
5 792 735
5 793 6
5 794 4
5 795 6
5 796 8
5 797 8
5 798 13
5 799 9
5 800 2
5 801 10
5 802 7
5 803 10
5 804 17
5 805 16
5 806 1
5 807 4
5 808 5
5 809 10
5 810 8
5 811 16
5 812 13
5 813 1889
5 814 10
5 815 18
5 816 3
5 817 11
5 818 6
5 819 2
5 820 5
5 821 9
5 822 7
5 823 3
5 824 7
5 825 6
5 826 13
5 827 8
5 828 4
5 829 569
5 830 8
5 831 7
5 832 879
5 833 6
5 834 7
5 835 4
5 836 6
5 837 4
5 838 114
5 839 10
5 840 9
5 841 7
5 842 22
5 843 6
5 844 3
5 845 8
5 846 7
5 847 6
5 848 2
5 849 12
5 850 8
5 851 752
5 852 5
5 853 12
5 854 12
5 855 8
5 856 8
5 857 680
5 858 7
5 859 4
5 860 8
5 862 3
5 863 3
5 864 4
5 865 7
5 866 5
5 867 7
5 868 8
5 869 7
5 870 9
5 871 3
5 872 6
5 873 158
5 874 3
5 875 6
5 876 5
5 877 12
5 878 8
5 879 3
5 880 8
5 881 8
5 882 9
5 883 8
5 884 6
5 885 2
5 886 5
5 887 9
5 888 4
5 889 11
5 890 7
5 891 9
5 892 5
5 893 10
5 894 14
5 895 129
5 896 6
5 897 7
5 898 9
5 899 5
5 900 12
5 901 7
5 902 12
5 903 5
5 904 4
5 905 4
5 906 206
5 907 7
5 908 6
5 909 2
5 910 4
5 911 4
5 912 9
5 913 11
5 914 7
5 915 6
5 916 2
5 917 6
5 918 5
5 919 11
5 920 4
5 921 7
5 922 14
5 923 4
5 924 11
5 925 11
5 926 2
5 927 8
5 928 6
5 929 8
5 930 768
5 931 10
5 932 3
5 933 7
5 934 1065
5 935 8
5 936 216
5 937 2
5 938 9
5 939 1
5 940 4
5 941 14
5 942 274
5 943 17
5 944 352
5 946 14
5 947 2
5 948 4
5 949 8
5 950 3
5 951 8
5 952 5
5 953 296
5 954 1508
5 955 9
5 956 5
5 957 142
5 958 6
5 959 18
5 960 7
5 961 18
5 962 10
5 963 8
5 964 11
5 965 6
5 966 1019
5 967 9
5 968 7
5 969 8
5 970 6
5 971 8
5 972 745
5 973 221
5 974 964
5 975 5
5 976 1286
5 977 11
5 978 4
5 979 5
5 980 8
5 981 1568
5 982 11
5 983 13
5 984 5
5 985 22
5 986 7
5 987 8
5 988 4
5 989 8
5 990 5
5 991 694
5 992 5
5 993 1217
5 994 8
5 995 10
5 996 5
5 997 3
5 998 4
5 999 5
5 1000 13
5 1001 9
5 1002 13
5 1003 6
5 1004 274
5 1005 8
5 1006 13
5 1007 3
5 1008 7
5 1009 175
5 1010 2
5 1011 3
5 1012 4
5 1013 11
5 1014 4
5 1015 7
5 1016 6
5 1017 2
5 1018 9
5 1019 2
5 1020 12
5 1021 285
5 1022 4
5 1023 398
5 1024 10
5 1025 6
5 1026 9
5 1027 5
5 1028 16
5 1029 3
5 1030 9
5 1031 5
5 1032 6
5 1033 8
5 1034 7
5 1035 7
5 1036 13
5 1037 13
5 1038 7
5 1039 7
5 1040 10
5 1041 4
5 1042 3
5 1043 7
5 1044 23
5 1045 10
5 1046 3
5 1047 3
5 1048 7
5 1049 5
5 1050 18
5 1051 9
5 1052 14
5 1053 8
5 1054 3
5 1055 116
5 1056 4
5 1057 3
5 1058 8
5 1059 149
5 1060 9
5 1061 7
5 1062 996
5 1063 267
5 1064 13
5 1065 4
5 1066 4
5 1067 3
5 1068 13
5 1069 4
5 1070 8
5 1071 14
5 1072 7
5 1073 10
5 1074 16
5 1075 8
5 1076 4
5 1077 7
5 1078 627
5 1079 6
5 1080 321
5 1081 4
5 1082 1
5 1083 18
5 1084 3
5 1085 190
5 1086 4
5 1087 11
5 1088 2
5 1089 4
5 1090 8
5 1091 2
5 1092 6
5 1093 8
5 1094 10
5 1095 6
5 1096 6
5 1097 10
5 1098 18
5 1099 1291
5 1100 2
5 1101 2
5 1102 8
5 1103 393
5 1104 535
5 1105 6
5 1106 3
5 1107 360
5 1108 6
5 1109 1
5 1110 2
5 1111 1
5 1112 6
5 1113 2
5 1114 3
5 1115 2
5 1116 3
5 1117 7
5 1118 4
5 1119 5
5 1120 9
5 1121 6
5 1122 5
5 1123 14
5 1124 4
5 1125 4
5 1126 584
5 1127 3
5 1128 11
5 1129 3
5 1130 11
5 1131 3
5 1132 11
5 1133 9
5 1134 4
5 1135 7
5 1136 6
5 1137 1234
5 1138 4
5 1139 9
5 1140 6
5 1141 9
5 1142 4
5 1143 7
5 1144 9
5 1145 4
5 1146 7
5 1147 7
5 1148 9
5 1149 4
5 1150 3
5 1151 9
5 1152 3
5 1153 5
5 1154 2
5 1155 4
5 1156 10
5 1157 15
5 1158 8
5 1159 5
5 1160 8
5 1161 6
5 1162 7
5 1163 8
5 1164 6
5 1165 14
5 1166 13
5 1167 6
5 1168 5
5 1169 407
5 1170 6
5 1171 791
5 1172 2
5 1173 1163
5 1174 491
5 1175 4
5 1176 6
5 1177 6
5 1178 9
5 1179 22
5 1180 590
5 1181 17
5 1182 14
5 1183 7
5 1184 5
5 1185 10
5 1186 415
5 1187 8
5 1188 8
5 1189 9
5 1190 7
5 1191 13
5 1192 3
5 1193 8
5 1194 7
5 1195 9
5 1196 9
5 1197 6
5 1198 6
5 1199 9
5 1200 16
5 1201 7
5 1202 4
5 1203 8
5 1204 21
5 1205 4
5 1206 3
5 1207 15
5 1208 5
5 1209 8
5 1210 7
5 1211 5
5 1213 9
5 1214 6
5 1215 11
5 1216 7
5 1217 7
5 1218 767
5 1219 9
5 1220 7
5 1221 4
5 1222 5
5 1223 5
5 1224 13
5 1225 11
5 1226 2
5 1227 12
5 1228 8
5 1229 7
5 1230 399
5 1231 7
5 1232 10
5 1233 9
5 1234 188
5 1235 8
5 1236 7
5 1237 14
5 1238 119
5 1239 1300
5 1240 7
5 1241 8
5 1242 8
5 1243 9
5 1244 188
5 1245 7
5 1246 5
5 1247 17
5 1248 8
5 1249 280
5 1250 324
5 1251 16
5 1252 5
5 1253 3
5 1254 7
5 1255 12
5 1256 9
5 1257 14
5 1258 10
5 1259 1492
5 1260 8
5 1261 169
5 1262 2
5 1263 7
5 1264 3
5 1265 7
5 1266 3
5 1267 19
5 1268 11
5 1269 9
5 1270 9
5 1271 5
5 1272 7
5 1273 4
5 1274 4
5 1275 6
5 1276 16
5 1277 9
5 1278 10
5 1279 8
5 1280 9
5 1281 5
5 1282 5
5 1283 8
5 1284 7
5 1285 215
5 1286 9
5 1287 10
5 1288 8
5 1289 11
5 1290 11
5 1291 10
5 1292 19
5 1293 2
5 1294 8
5 1295 11
5 1296 7
5 1297 4
5 1298 9
5 1299 6
5 1300 5
5 1301 10
5 1302 10
5 1303 7
5 1304 13
5 1305 8
5 1306 11
5 1307 6
5 1308 11
5 1309 3
5 1310 16
5 1311 8
5 1312 522
5 1313 6
5 1314 6
5 1315 6
5 1316 7
5 1317 3
5 1318 8
5 1319 5
5 1320 7
5 1321 8
5 1322 7
5 1323 5
5 1324 4
5 1325 7
5 1326 9
5 1327 6
5 1328 7
5 1329 1433
5 1330 529
5 1331 11
5 1332 7
5 1333 3
5 1334 7
5 1335 12
5 1336 4
5 1337 6
5 1338 2
5 1339 10
5 1340 2
5 1341 7
5 1342 12
5 1343 6
5 1344 18
5 1345 4
5 1346 5
5 1347 421
5 1348 8
5 1349 9
5 1350 21
5 1351 6
5 1352 12
5 1353 5
5 1354 6
5 1355 7
5 1356 4
5 1357 2
5 1358 5
5 1359 6
5 1360 8
5 1361 4
5 1362 10
5 1363 5
5 1364 6
5 1365 6
5 1366 19
5 1367 10
5 1368 4
5 1369 8
5 1370 9
5 1371 2
5 1372 9
5 1373 6
5 1374 15
5 1375 6
5 1376 774
5 1377 2
5 1378 3
5 1379 10
5 1380 4
5 1381 9
5 1382 4
5 1383 8
5 1384 3
5 1385 944
5 1386 2
5 1387 9
5 1388 9
5 1389 8
5 1390 5
5 1391 7
5 1392 16
5 1393 7
5 1394 6
5 1395 458
5 1396 9
5 1397 371
5 1398 12
5 1399 1
5 1400 486
5 1401 10
5 1402 487
5 1403 21
5 1404 8
5 1405 3
5 1406 502
5 1407 9
5 1408 5
5 1409 2
5 1410 8
5 1411 6
5 1412 7
5 1413 1801
5 1414 1
5 1415 14
5 1416 3
5 1417 4
5 1418 6
5 1419 15
5 1420 8
5 1421 4
5 1422 6
5 1423 257
5 1424 5
5 1425 1
5 1426 14
5 1427 13
5 1428 13
5 1429 14
5 1430 6
5 1431 3
5 1432 8
5 1433 706
5 1434 9
5 1435 6
5 1436 19
5 1437 10
5 1438 5
5 1439 7
5 1440 6
5 1441 8
5 1442 4
5 1443 5
5 1444 8
5 1445 4
5 1446 14
5 1447 9
5 1448 10
5 1449 13
5 1450 3357
5 1451 809
5 1452 8
5 1453 9
5 1454 9
5 1455 496
5 1456 3
5 1457 204
5 1458 12
5 1459 5
5 1460 8
5 1461 11
5 1462 6
5 1463 6
5 1464 11
5 1465 17
5 1466 8
5 1467 20
5 1468 10
5 1469 16
5 1470 1962
5 1471 5
5 1472 42
5 1473 4
5 1474 10
5 1475 3
5 1476 7
5 1477 10
5 1478 9
5 1479 10
5 1480 15
5 1481 289
5 1482 8
5 1483 3
5 1484 10
5 1485 1
5 1486 14
5 1487 5
5 1488 9
5 1489 27
5 1490 2
5 1491 18
5 1492 5
5 1493 12
5 1494 15
5 1495 9
5 1496 170
5 1497 6
5 1498 12
5 1499 7
5 1500 1
5 1501 8
5 1502 13
5 1503 10
5 1504 5
5 1505 8
5 1506 9
5 1507 5
5 1508 5
5 1509 4
5 1510 7
5 1511 3
5 1512 3
5 1513 1
5 1514 7
5 1515 5
5 1516 18
5 1517 7
5 1518 8
5 1519 12
5 1520 7
5 1521 7
5 1522 7
5 1523 3
5 1524 5
5 1525 5
5 1526 4
5 1527 6
5 1528 8
5 1529 7
5 1530 1
5 1531 6
5 1532 258
5 1533 6
5 1534 3
5 1535 5
5 1536 17
5 1537 8
5 1538 5
5 1539 8
5 1540 11
5 1541 289
5 1542 9
5 1543 9
5 1544 9
5 1545 8
5 1546 13
5 1547 5
5 1548 5
5 1549 7
5 1550 5
5 1551 8
5 1552 9
5 1553 5
5 1554 14
5 1555 213
5 1556 233
5 1557 9
5 1558 5
5 1559 5
5 1560 8
5 1561 5
5 1562 3
5 1563 9
5 1564 9
5 1565 10
5 1566 12
5 1567 454
5 1568 6
5 1569 9
5 1570 5
5 1571 5
5 1572 3
5 1573 7
5 1574 714
5 1575 19
5 1576 6
5 1577 11
5 1578 1849
5 1579 5
5 1580 10
5 1581 8
5 1582 13
5 1583 10
5 1584 11
5 1585 4
5 1586 10
5 1587 28
5 1588 6
5 1589 2
5 1590 10
5 1591 9
5 1592 9
5 1593 8
5 1594 9
5 1595 4007
5 1596 7
5 1597 4
5 1599 8
5 1600 4
5 1601 6
5 1602 7
5 1603 4
5 1604 1752
5 1605 292
5 1606 10
5 1607 6
5 1608 166
5 1609 11
5 1610 5
5 1611 9
5 1612 9
5 1613 9
5 1614 7
5 1615 10
5 1616 588
5 1617 6
5 1618 6
5 1619 2037
5 1620 7
5 1621 1
5 1622 3
5 1623 21
5 1624 3
5 1625 8
5 1626 3
5 1627 1
5 1628 13
5 1629 326
5 1630 3
5 1631 2
5 1632 12
5 1633 9
5 1634 8
5 1635 8
5 1636 5
5 1637 31
5 1638 398
5 1639 8
5 1640 4
5 1641 7
5 1642 5
5 1643 6
5 1644 9
5 1645 742
5 1646 4
5 1647 5
5 1648 17
5 1649 9
5 1650 3
5 1651 6
5 1652 20
5 1653 8
5 1654 18
5 1655 2
5 1656 10
5 1657 6
5 1658 5
5 1659 7
5 1660 6
5 1661 5
5 1662 13
5 1663 6
5 1664 7
5 1665 2
5 1666 5
5 1667 7
5 1668 7
5 1669 7
5 1670 950
5 1671 11
5 1672 6
5 1673 3
5 1674 9
5 1675 1961
5 1676 6
5 1677 10
5 1678 1
5 1679 8
5 1680 10
5 1681 2
5 1682 3
5 1683 7
5 1684 1065
5 1685 317
5 1686 2
5 1687 10
5 1688 8
5 1689 6
5 1690 2
5 1691 5
5 1692 13
5 1693 6
5 1694 5
5 1695 5
5 1696 12
5 1697 10
5 1698 590
5 1699 7
5 1700 8
5 1701 3
5 1702 10
5 1703 4
5 1704 11
5 1705 11
5 1706 8
5 1707 3
5 1708 2
5 1709 4
5 1710 12
5 1712 6
5 1713 6
5 1714 10
5 1715 8
5 1716 6
5 1717 8
5 1718 6
5 1719 3
5 1720 8
5 1721 6
5 1722 1252
5 1723 9
5 1724 13
5 1725 24
5 1726 3
5 1727 975
5 1728 7
5 1729 9
5 1730 4
5 1731 8
5 1732 5
5 1733 9
5 1734 3
5 1735 6
5 1736 4
5 1737 9
5 1738 2
5 1739 12
5 1740 13
5 1741 12
5 1742 6
5 1743 8
5 1744 246
5 1745 5
5 1746 978
5 1747 6
5 1748 8
5 1749 7
5 1750 7
5 1751 2825
5 1752 7
5 1753 584
5 1754 10
5 1755 25
5 1756 6
5 1757 8
5 1758 8
5 1759 5
5 1760 7
5 1761 1396
5 1762 3
5 1763 5
5 1764 13
5 1765 6
5 1766 13
5 1767 364
5 1768 7
5 1769 10
5 1770 3
5 1771 5
5 1772 8
5 1773 8
5 1774 783
5 1775 10
5 1776 18
5 1777 9
5 1778 4
5 1779 6
5 1780 12
5 1781 2
5 1782 470
5 1783 3
5 1784 8
5 1785 3
5 1786 698
5 1787 10
5 1788 9
5 1789 9
5 1790 5
5 1791 3
5 1792 319
5 1793 1
5 1794 8
5 1795 10
5 1796 25
5 1797 7
5 1798 204
5 1799 389
5 1800 5
5 1801 4
5 1802 8
5 1803 6
5 1804 8
5 1805 320
5 1806 4
5 1807 7
5 1808 286
5 1809 2
5 1810 72
5 1811 10
5 1812 9
5 1813 4
5 1814 7
5 1815 16
5 1816 4
5 1817 6
5 1818 9
5 1819 5
5 1820 4
5 1821 10
5 1822 8
5 1823 925
5 1824 5
5 1825 7
5 1826 1
5 1827 11
5 1828 6
5 1829 5
5 1830 9
5 1831 13
5 1832 2
5 1833 8
5 1834 12
5 1835 6
5 1836 10
5 1837 4
5 1838 10
5 1839 1619
5 1840 4
5 1841 4
5 1842 12
5 1843 373
5 1844 15
5 1845 5
5 1846 5
5 1847 2
5 1848 9
5 1849 11
5 1850 5
5 1851 7
5 1852 1137
5 1853 7
5 1854 9
5 1855 1242
5 1856 368
5 1859 1
5 1861 5
5 1862 3
5 1863 6
5 1864 10
5 1865 11
5 1866 7
5 1867 3
5 1868 5
5 1869 8
5 1870 2
5 1871 5
5 1872 8
5 1873 6
5 1874 6
5 1875 10
5 1876 8
5 1877 9
5 1878 3
5 1879 5
5 1880 11
5 1881 5
5 1882 14
5 1883 17
5 1884 8
5 1885 3
5 1886 10
5 1887 13
5 1888 7
5 1889 4
5 1890 8
5 1891 6
5 1892 7
5 1893 11
5 1894 4
5 1895 10
5 1896 4
5 1897 13
5 1898 5
5 1899 5
5 1900 8
5 1901 9
5 1902 9
5 1903 14
5 1904 4
5 1905 4
5 1906 9
5 1907 9
5 1908 472
5 1909 6
5 1910 1
5 1911 6
5 1912 4
5 1913 109
5 1914 162
5 1915 3
5 1916 8
5 1917 12
5 1918 304
5 1919 10
5 1920 7
5 1921 4
5 1922 2348
5 1923 10
5 1924 32
5 1925 5
5 1926 1420
5 1927 7
5 1928 6
5 1929 777
5 1930 452
5 1931 6
5 1932 4
5 1933 5
5 1934 75
5 1935 31
5 1936 8
5 1937 184
5 1938 4
5 1939 161
5 1940 4
5 1941 14
5 1942 570
5 1943 5
5 1944 8
5 1945 960
5 1946 835
5 1947 9
5 1948 7
5 1949 10
5 1950 12
5 1951 253
5 1952 7
5 1953 3
5 1954 3
5 1955 5
5 1956 6
5 1957 10
5 1958 7
5 1959 3
5 1960 6
5 1961 4
5 1962 6
5 1963 5
5 1964 9
5 1965 3
5 1966 5
5 1967 6
5 1968 6
5 1969 8
5 1970 8
5 1971 7
5 1972 3
5 1973 2
5 1974 10
5 1975 7
5 1976 4
5 1977 4
5 1978 6
5 1979 622
5 1980 16
5 1981 9
5 1982 9
5 1983 5
5 1984 9
5 1985 5
5 1986 10
5 1987 2
5 1988 4
5 1989 12
5 1990 5
5 1991 14
5 1992 5
5 1993 308
5 1994 5
5 1995 20
5 1996 9
5 1997 164
5 1998 8
5 1999 10
5 2000 4
5 2001 13
5 2002 350
5 2003 1202
5 2004 212
5 2005 7
5 2006 6
5 2007 19
5 2008 313
5 2009 3
5 2010 11
5 2011 11
5 2012 9
5 2013 6
5 2014 7
5 2015 11
5 2016 8
5 2017 9
5 2018 7
5 2019 9
5 2020 18
5 2021 4
5 2022 5
5 2023 5
5 2024 16
5 2025 572
5 2026 6
5 2027 8
5 2028 9
5 2029 8
5 2030 11
5 2031 7
5 2032 4
5 2033 8
5 2034 3
5 2035 8
5 2036 8
5 2037 8
5 2038 9
5 2039 3
5 2040 886
5 2041 6
5 2042 5
5 2043 6
5 2044 12
5 2045 13
5 2046 4
5 2047 6
5 2048 15
5 2049 5
5 2050 8
5 2051 4
5 2052 8
5 2053 8
5 2054 18
5 2055 8
5 2056 3
5 2057 13
5 2058 22
5 2059 11
5 2060 8
5 2061 3
5 2062 2
5 2063 6
5 2064 433
5 2065 2
5 2066 2
5 2067 552
5 2068 776
5 2069 5
5 2070 7
5 2071 8
5 2072 7
5 2073 6
5 2074 12
5 2075 15
5 2076 4
5 2077 12
5 2078 1078
5 2079 11
5 2080 13
5 2081 6
5 2082 5
5 2083 9
5 2084 4
5 2085 3
5 2086 21
5 2087 11
5 2088 5
5 2089 6
5 2090 9
5 2091 9
5 2092 2
5 2093 5
5 2094 1060
5 2095 4
5 2096 5
5 2097 4
5 2098 965
5 2099 10
5 2100 608
5 2101 9
5 2102 1243
5 2103 14
5 2104 12
5 2105 4
5 2106 2
5 2107 21
5 2108 5
5 2109 8
5 2110 17
5 2111 10
5 2112 5
5 2113 9
5 2114 4
5 2115 6
5 2116 3
5 2117 3
5 2118 3
5 2119 16
5 2120 8
5 2121 4
5 2122 11
5 2123 10
5 2124 518
5 2125 8
5 2126 8
5 2127 8
5 2128 3
5 2129 188
5 2130 7
5 2131 10
5 2132 538
5 2133 7
5 2134 10
5 2135 3
5 2136 1110
5 2137 6
5 2138 9
5 2139 7
5 2140 7
5 2141 5
5 2142 11
5 2143 7
5 2144 3
5 2145 412
5 2146 4
5 2147 11
5 2148 7
5 2149 10
5 2150 6
5 2151 9
5 2152 5
5 2153 13
5 2154 2
5 2155 10
5 2156 9
5 2157 309
5 2158 460
5 2159 6
5 2160 740
5 2161 5
5 2162 8
5 2163 17
5 2164 6
5 2165 4
5 2166 134
5 2167 6
5 2168 802
5 2169 2
5 2170 330
5 2171 5
5 2172 8
5 2173 6
5 2174 3
5 2175 9
5 2176 8
5 2177 219
5 2178 6
5 2179 4
5 2180 1
5 2181 1003
5 2182 9
5 2183 6
5 2184 1
5 2185 6
5 2186 296
5 2187 7
5 2188 2
5 2189 3
5 2190 4
5 2191 8
5 2192 6
5 2193 1059
5 2194 4
5 2195 8
5 2196 5
5 2197 10
5 2198 7
5 2199 2
5 2200 5
5 2201 7
5 2202 5
5 2203 10
5 2204 6
5 2205 5
5 2206 7
5 2207 10
5 2208 4
5 2209 9
5 2210 5
5 2211 7
5 2212 1
5 2213 10
5 2214 5
5 2215 5
5 2216 6
5 2217 13
5 2218 5
5 2219 3
5 2220 4
5 2221 8
5 2222 4
5 2223 7
5 2224 16
5 2225 19
5 2226 8
5 2227 7
5 2228 6
5 2229 6
5 2230 7
5 2231 11
5 2232 3
5 2233 8
5 2234 1
5 2235 6
5 2236 8
5 2237 3
5 2238 7
5 2239 1215
5 2240 6
5 2241 6
5 2242 13
5 2243 18
5 2244 6
5 2245 957
5 2246 6
5 2247 331
5 2248 4
5 2250 5
5 2251 10
5 2252 10
5 2253 5
5 2254 233
5 2255 705
5 2256 11
5 2257 18325
5 2258 3
5 2259 14
5 2260 6
5 2261 12
5 2262 10
5 2263 4
5 2264 3
5 2265 7
5 2266 6
5 2267 7
5 2268 5
5 2269 3
5 2270 14
5 2271 10
5 2272 8
5 2273 165
5 2274 13
5 2275 7
5 2276 11
5 2277 5
5 2278 4
5 2279 3
5 2280 9
5 2282 6
5 2283 7
5 2284 6
5 2285 5
5 2286 5
5 2287 13
5 2288 1233
5 2289 8
5 2290 7
5 2291 8
5 2292 8
5 2293 8
5 2294 6
5 2295 20
5 2296 12
5 2297 10
5 2298 12
5 2299 17
5 2300 7
5 2301 8
5 2302 5
5 2303 5
5 2304 13
5 2305 6
5 2306 14
5 2307 8
5 2308 8
5 2309 11
5 2310 9
5 2311 3
5 2312 23
5 2313 4
5 2314 8
5 2315 4
5 2316 6
5 2317 6
5 2318 2
5 2319 9
5 2320 7
5 2321 5
5 2322 3
5 2323 11
5 2324 11
5 2325 4
5 2326 10
5 2327 13
5 2328 10
5 2329 7
5 2330 1
5 2331 606
5 2332 4
5 2333 10
5 2334 18
5 2335 6
5 2336 20
5 2337 8
5 2338 9
5 2339 605
5 2340 17
5 2341 9
5 2342 306
5 2343 370
5 2344 11
5 2345 8
5 2346 416
5 2348 7
5 2349 3
5 2350 1
5 2351 7
5 2352 5
5 2353 6
5 2354 14
5 2355 6
5 2356 12
5 2357 3
5 2358 6
5 2359 8
5 2360 4
5 2361 10
5 2362 1409
5 2363 7
5 2364 3
5 2365 1
5 2366 6
5 2367 10
5 2368 1
5 2369 6
5 2370 5
5 2371 4
5 2372 5
5 2373 8
5 2374 5
5 2375 6
5 2376 9
5 2377 7
5 2378 10
5 2379 1344
5 2380 10
5 2381 11
5 2382 3
5 2383 8
5 2384 8
5 2385 306
5 2386 6
5 2387 7
5 2388 6
5 2389 157
5 2390 3
5 2391 9
5 2392 13
5 2393 5
5 2394 318
5 2395 6
5 2396 7
5 2397 13
5 2398 6
5 2399 7
5 2400 4
5 2401 13
5 2402 806
5 2403 7
5 2404 7
5 2405 7
5 2406 10
5 2407 13
5 2408 4
5 2409 4
5 2410 11
5 2411 1
5 2412 16
5 2413 4
5 2414 164
5 2415 6
5 2416 4
5 2417 8
5 2418 247
5 2419 9
5 2420 6
5 2421 8
5 2422 16
5 2423 8
5 2424 8
5 2425 9
5 2426 3
5 2427 4
5 2428 16
5 2429 146
5 2430 2
5 2431 6
5 2432 3
5 2433 365
5 2434 4
5 2435 246
5 2436 8
5 2437 7
5 2438 7
5 2439 1843
5 2440 10
5 2441 14
5 2442 7
5 2444 10
5 2445 701
5 2446 5
5 2447 7
5 2448 6
5 2449 12
5 2450 213
5 2451 4
5 2452 4
5 2453 11
5 2455 1
5 2456 6
5 2457 5
5 2458 5
5 2459 219
5 2460 6
5 2461 9
5 2462 11
5 2463 6
5 2464 6
5 2465 10
5 2466 7
5 2467 741
5 2468 7
5 2469 3
5 2470 9
5 2471 9
5 2472 4
5 2473 4
5 2474 4
5 2475 7
5 2476 11
5 2477 4
5 2478 10
5 2479 15
5 2480 10
5 2481 5
5 2482 10
5 2483 3
5 2484 4
5 2485 11
5 2486 11
5 2487 532
5 2488 547
5 2489 8
5 2490 9
5 2491 7
5 2492 13
5 2493 1
5 2494 1182
5 2495 191
5 2496 2
5 2497 10
5 2498 7
5 2499 16
5 2500 6
5 2501 6
5 2502 4
5 2503 9
5 2504 6
5 2505 5
5 2506 2045
5 2507 8
5 2508 3
6 1 15
6 2 3719
6 3 8
6 4 19
6 5 1146
6 6 7
6 7 580
6 8 12
6 9 15
6 10 1205
6 11 15
6 12 11
6 13 12
6 14 24
6 15 14
6 16 11
6 17 14
6 18 8
6 19 11
6 20 12
6 21 16
6 22 19
6 23 13
6 24 30
6 25 385
6 26 26
6 27 8
6 28 443
6 29 18
6 30 9
6 31 18
6 32 13
6 33 7
6 34 10
6 35 4
6 36 5
6 37 9
6 38 36
6 39 14
6 40 13
6 41 16
6 42 16
6 43 9
6 44 11
6 45 5
6 46 2
6 47 13
6 48 12
6 49 6
6 50 14
6 51 2657
6 52 18
6 53 11
6 54 9
6 55 17
6 56 8
6 57 5
6 58 5
6 59 164
6 60 6
6 61 34
6 62 14
6 63 13
6 64 9
6 65 14
6 66 14
6 67 20
6 68 7
6 69 6
6 70 9
6 71 14
6 72 11
6 73 16
6 74 15
6 75 17
6 76 7
6 77 13
6 78 1255
6 79 15
6 80 17
6 81 13
6 82 16
6 83 6
6 84 15
6 85 12
6 86 15
6 87 19
6 88 48
6 89 17
6 90 10
6 91 14
6 92 9
6 93 14
6 94 22
6 95 2860
6 96 22
6 97 7
6 98 14
6 99 17
6 100 24
6 101 7
6 102 11
6 103 12
6 104 25
6 105 12
6 106 17
6 107 25
6 108 989
6 109 14
6 110 14
6 111 4
6 112 30
6 113 1351
6 114 13
6 115 9
6 116 9
6 117 12
6 118 14
6 119 23
6 120 11
6 121 8
6 122 15
6 123 449
6 124 13
6 125 17
6 126 16
6 127 9
6 128 12
6 129 15
6 130 10
6 131 1834
6 132 14
6 133 752
6 134 657
6 135 10
6 136 17
6 137 17
6 139 15
6 140 13
6 141 14
6 142 11
6 143 940
6 144 12
6 145 10
6 146 19
6 147 872
6 148 718
6 149 11
6 150 16
6 151 17
6 152 5
6 153 12
6 154 29
6 155 26
6 156 19
6 157 12
6 158 10
6 159 36
6 160 12
6 161 29
6 162 13
6 163 6
6 164 11
6 165 15
6 166 13
6 167 11
6 168 17
6 169 17
6 170 1
6 171 20
6 172 28
6 173 9
6 174 3
6 175 13
6 176 8
6 177 6
6 178 15
6 179 9
6 180 25
6 181 11
6 182 17
6 183 941
6 184 14
6 185 17
6 186 14
6 187 11
6 188 9
6 189 10
6 190 7
6 191 10
6 192 10
6 193 26
6 194 28
6 195 11
6 196 25
6 197 13
6 198 16
6 199 22
6 200 7
6 201 4
6 202 7
6 203 7
6 204 11
6 205 17
6 206 9
6 207 10
6 208 22
6 209 11
6 210 11
6 211 6
6 212 64
6 213 26
6 214 11
6 215 21
6 216 22
6 217 33
6 218 1339
6 219 17
6 220 10
6 221 1208
6 222 16
6 223 20
6 224 11
6 225 682
6 226 12
6 227 11
6 228 7
6 229 14
6 230 16
6 231 8
6 232 17
6 233 24
6 234 9
6 235 26
6 236 14
6 237 13
6 238 18
6 239 9
6 240 19
6 241 741
6 242 5
6 243 7
6 244 9
6 245 13
6 246 11
6 247 12
6 248 12
6 249 6
6 250 31
6 251 8
6 252 8
6 253 1538
6 254 20
6 255 11
6 256 25
6 257 15
6 258 5
6 259 1584
6 260 20
6 261 11
6 262 22
6 263 1082
6 264 12
6 265 10
6 266 17
6 267 19
6 268 22
6 269 6
6 270 12
6 271 14
6 272 28
6 273 13
6 274 19
6 275 11
6 276 13
6 277 671
6 278 15
6 279 14
6 280 17
6 281 10
6 282 6
6 283 12
6 284 15
6 285 9
6 286 12
6 287 6
6 288 30
6 289 15
6 290 9
6 291 11
6 293 15
6 294 12
6 295 7
6 296 12
6 297 10
6 298 16
6 299 660
6 300 8
6 301 16
6 302 10
6 303 8
6 304 12
6 305 10
6 306 7
6 307 11
6 308 27
6 309 9
6 310 1970
6 311 10
6 312 12
6 313 10
6 314 12
6 315 17
6 316 2
6 317 9
6 318 30
6 319 13
6 320 12
6 321 11
6 322 13
6 323 5
6 324 15
6 325 1581
6 326 10
6 327 9
6 328 20
6 329 13
6 330 12
6 331 12
6 332 18
6 333 14
6 334 13
6 335 13
6 336 16
6 337 13
6 338 11
6 339 3354
6 340 20
6 341 4638
6 342 14
6 343 33
6 344 17
6 345 8
6 346 11
6 347 20
6 348 976
6 349 11
6 350 8
6 351 10
6 352 21
6 353 19
6 354 15
6 355 9
6 356 14
6 357 13
6 358 7
6 359 4577
6 360 14
6 361 9
6 362 15
6 363 3
6 364 19
6 365 16
6 366 14
6 367 16
6 368 11
6 369 13
6 370 577
6 371 13
6 372 11
6 373 27
6 374 16
6 375 3
6 377 2
6 379 1
6 382 3
6 384 1
6 385 7
6 386 15
6 387 9
6 388 1568
6 389 8
6 390 7
6 391 12
6 392 9
6 393 8
6 394 2751
6 395 12
6 396 9
6 397 9
6 398 9
6 399 14
6 400 17
6 401 14
6 402 8
6 403 15
6 404 8
6 405 16
6 406 12
6 407 14
6 408 19
6 409 9
6 410 16
6 411 2670
6 412 15
6 413 20
6 414 13
6 415 15
6 416 8
6 417 33
6 418 1
6 419 17
6 420 15
6 421 9
6 422 375
6 423 7
6 424 277
6 425 8
6 426 11
6 427 20
6 428 17
6 429 13
6 430 8
6 431 12
6 432 25
6 433 9
6 435 1013
6 436 8
6 437 9
6 438 7
6 439 2
6 440 1073
6 441 1620
6 442 9
6 443 18
6 444 6
6 445 17
6 446 11
6 447 2
6 448 10
6 449 13
6 450 18
6 451 14
6 452 10
6 453 36
6 454 20
6 455 15
6 456 9
6 457 15
6 458 12
6 459 11
6 460 10
6 461 20
6 462 12
6 463 15
6 464 15
6 465 14
6 466 508
6 467 14
6 468 7
6 469 12
6 470 31
6 471 10
6 472 10
6 473 9
6 474 11
6 475 20
6 476 15
6 477 15
6 478 8
6 479 6
6 480 14
6 481 22
6 482 15
6 483 12
6 484 227
6 485 43
6 486 22
6 487 9
6 488 9
6 489 5
6 490 15
6 491 13
6 492 11
6 493 12
6 494 10
6 495 18
6 496 13
6 497 17
6 498 10
6 499 7
6 500 660
6 501 19
6 502 6
6 503 11
6 504 17
6 505 3149
6 506 11
6 507 2
6 508 24
6 509 11
6 510 11
6 511 10
6 512 18
6 513 9
6 514 24
6 515 10
6 516 7
6 517 10
6 518 24
6 519 14
6 520 16
6 521 7
6 522 5
6 523 6
6 524 13
6 525 18
6 526 9
6 527 15
6 528 12
6 529 9
6 530 3
6 531 13
6 532 11
6 533 17
6 534 10
6 535 9
6 536 7
6 537 6
6 538 8
6 539 44
6 540 13
6 541 24
6 542 5
6 543 6
6 544 13
6 545 7
6 546 19
6 547 10
6 548 6
6 549 6
6 550 15
6 551 6
6 552 10
6 553 6
6 554 7
6 555 6
6 556 5
6 557 11
6 558 15
6 559 11
6 560 14
6 561 12
6 562 6
6 563 4
6 564 8
6 565 10
6 566 13
6 567 11
6 568 9
6 569 6
6 570 8
6 571 20
6 572 10
6 573 13
6 574 2
6 575 15
6 576 13
6 577 14
6 578 12
6 579 18
6 580 6
6 581 8
6 582 6
6 583 20
6 584 358
6 585 13
6 586 12
6 587 10
6 588 8
6 589 26
6 590 8
6 591 15
6 592 14
6 593 12
6 594 10
6 595 22
6 596 29
6 597 1761
6 598 11
6 599 12
6 600 11
6 601 331
6 602 10
6 603 13
6 604 12
6 605 5
6 606 13
6 607 633
6 608 8
6 609 6
6 610 7
6 611 4
6 612 10
6 613 15
6 614 14
6 615 7
6 616 838
6 617 15
6 618 19
6 619 18
6 620 9
6 621 18
6 622 7
6 623 5
6 624 5
6 625 5
6 626 8
6 627 13
6 628 12
6 629 10
6 630 11
6 631 5
6 632 9
6 633 10
6 634 12
6 635 9
6 636 7
6 637 9
6 638 6
6 639 12
6 640 8
6 641 17
6 642 7
6 643 425
6 644 1
6 645 25
6 646 13
6 647 8
6 648 15
6 649 17
6 650 9
6 651 7
6 652 10
6 653 28
6 654 15
6 655 10
6 656 24
6 657 11
6 658 17
6 659 16
6 660 955
6 661 1333
6 662 6
6 663 5
6 664 29
6 665 10
6 666 18
6 667 9
6 668 800
6 669 12
6 670 19
6 671 13
6 672 3
6 673 6
6 674 12
6 675 12
6 676 12
6 677 160
6 678 25
6 679 12
6 680 7
6 681 4161
6 682 17
6 683 14
6 684 8
6 685 14
6 686 11
6 687 7
6 688 14
6 689 18
6 690 14
6 691 12
6 692 5
6 693 8
6 694 12
6 695 270
6 696 4
6 697 12
6 698 14
6 699 4
6 700 171
6 701 6
6 702 13
6 703 27
6 704 9
6 705 598
6 706 8
6 707 277
6 708 13
6 709 26
6 710 5
6 711 12
6 712 3
6 713 15
6 714 9
6 715 10
6 716 24
6 717 10
6 718 13
6 719 8
6 720 7
6 721 7
6 722 13
6 723 7
6 724 13
6 725 13
6 726 13
6 727 14
6 728 8
6 729 5
6 730 11
6 731 16
6 732 11
6 733 14
6 734 8
6 735 30
6 736 8
6 737 3
6 738 8
6 739 23
6 740 9
6 741 8
6 742 9
6 743 15
6 744 2
6 745 9
6 746 14
6 747 8
6 748 14
6 749 10
6 750 835
6 751 8
6 752 12
6 753 13
6 754 11
6 755 9
6 756 13
6 757 6
6 758 19
6 759 12
6 760 8
6 761 9
6 762 7
6 763 21
6 764 10
6 765 19
6 766 6
6 767 30
6 768 43
6 769 23
6 770 5
6 771 6
6 772 18
6 773 17
6 774 14
6 775 19
6 776 167
6 777 12
6 778 11
6 779 11
6 780 5
6 781 5
6 782 9
6 783 13
6 784 838
6 785 18
6 786 15
6 787 9
6 788 13
6 789 7
6 790 16
6 791 6
6 792 13
6 793 10
6 794 9
6 795 5
6 796 10
6 797 18
6 798 12
6 799 8
6 800 12
6 801 12
6 802 9
6 803 10
6 804 26
6 805 14
6 806 10
6 807 9
6 808 11
6 809 476
6 810 8
6 811 2254
6 812 13
6 813 12
6 814 11
6 815 352
6 816 10
6 817 21
6 818 5
6 819 13
6 820 10
6 821 17
6 822 12
6 823 9
6 824 7
6 825 15
6 826 26
6 827 10
6 828 18
6 829 8
6 830 8
6 831 6
6 832 21
6 833 7
6 834 11
6 835 7
6 836 13
6 837 11
6 838 2
6 839 9
6 840 15
6 841 7
6 842 19
6 843 17
6 844 236
6 845 9
6 846 9
6 847 18
6 848 8
6 849 14
6 850 14
6 851 8
6 852 8
6 853 6
6 854 8
6 855 9
6 856 7
6 857 26
6 858 6
6 859 17
6 860 25
6 861 1
6 862 8
6 863 5
6 864 337
6 865 8
6 866 5
6 867 15
6 868 6
6 869 10
6 870 5
6 871 14
6 872 4
6 873 7
6 874 10
6 875 13
6 876 10
6 877 13
6 878 9
6 879 781
6 880 782
6 881 11
6 882 11
6 883 9
6 884 17
6 885 12
6 886 8
6 887 15
6 888 10
6 889 1535
6 890 9
6 891 13
6 892 6
6 893 11
6 894 7
6 895 8
6 896 14
6 897 9
6 898 8
6 899 7
6 900 9
6 901 5
6 902 28
6 903 6
6 904 5
6 905 18
6 906 6
6 907 6
6 908 5
6 909 7
6 910 9
6 911 12
6 912 11
6 913 1640
6 914 8
6 915 11
6 916 4
6 917 10
6 918 4
6 919 19
6 920 6
6 921 11
6 922 8
6 923 6
6 924 12
6 925 3
6 926 10
6 927 12
6 928 6
6 929 6
6 930 12
6 931 15
6 932 7
6 933 545
6 934 10
6 935 7
6 936 26
6 937 6
6 938 10
6 939 6
6 940 9
6 941 14
6 942 4
6 943 24
6 944 11
6 945 4
6 946 15
6 947 10
6 948 10
6 949 11
6 950 13
6 951 15
6 952 15
6 953 25
6 954 11
6 955 13
6 956 7
6 957 9
6 958 13
6 959 14
6 960 8
6 961 36
6 962 15
6 963 16
6 964 1
6 965 11
6 966 20
6 967 18
6 968 17
6 969 9
6 970 19
6 971 1849
6 972 12
6 973 9
6 974 26
6 975 10
6 976 20
6 977 7
6 978 6
6 979 10
6 980 1044
6 981 17
6 982 14
6 983 15
6 984 11
6 985 15
6 986 7
6 987 2
6 988 6
6 989 12
6 990 3123
6 991 1
6 992 10
6 993 10
6 994 12
6 995 10
6 996 13
6 997 13
6 998 10
6 999 3
6 1000 36
6 1001 10
6 1002 14
6 1003 3
6 1004 6
6 1005 11
6 1006 12
6 1007 13
6 1008 7
6 1009 9
6 1010 1609
6 1011 7
6 1012 7
6 1013 16
6 1014 10
6 1015 9
6 1016 8
6 1017 7
6 1018 10
6 1019 6
6 1020 29
6 1021 4
6 1022 6
6 1023 11
6 1024 9
6 1025 9
6 1026 9
6 1027 6
6 1028 16
6 1029 16
6 1030 1068
6 1031 11
6 1032 10
6 1033 9
6 1034 9
6 1035 29
6 1036 19
6 1037 950
6 1038 8
6 1039 12
6 1040 9
6 1041 10
6 1042 8
6 1043 13
6 1044 18
6 1045 6
6 1046 13
6 1047 5
6 1048 14
6 1049 12
6 1050 17
6 1051 7
6 1052 14
6 1053 9
6 1054 3
6 1055 8
6 1056 10
6 1057 11
6 1058 12
6 1059 15
6 1060 14
6 1061 12
6 1062 18
6 1063 12
6 1064 21
6 1065 7
6 1066 9
6 1067 7
6 1068 17
6 1069 12
6 1070 7
6 1071 25
6 1072 14
6 1073 16
6 1074 24
6 1075 9
6 1076 9
6 1077 7
6 1078 11
6 1079 5
6 1080 6
6 1081 5
6 1082 4
6 1083 13
6 1084 5
6 1085 11
6 1086 7
6 1087 13
6 1088 9
6 1089 11
6 1090 3241
6 1091 12
6 1092 8
6 1093 10
6 1094 5
6 1095 3
6 1096 565
6 1097 12
6 1098 7
6 1099 12
6 1100 5
6 1101 11
6 1102 13
6 1103 9
6 1104 6
6 1105 10
6 1106 5
6 1107 7
6 1108 6
6 1109 3
6 1110 163
6 1111 5
6 1112 12
6 1113 2
6 1114 11
6 1115 10
6 1116 6
6 1117 9
6 1118 4
6 1119 9
6 1120 4
6 1121 8
6 1122 13
6 1123 13
6 1124 15
6 1125 17
6 1126 18
6 1127 6
6 1128 9
6 1129 8
6 1130 10
6 1131 6
6 1132 11
6 1133 18
6 1134 2
6 1135 11
6 1136 12
6 1137 13
6 1138 19
6 1139 18
6 1140 10
6 1141 1386
6 1142 10
6 1143 12
6 1144 9
6 1145 8
6 1146 11
6 1147 12
6 1148 4
6 1149 6
6 1150 13
6 1151 12
6 1152 6
6 1153 8
6 1154 9
6 1155 7
6 1156 5
6 1157 14
6 1158 12
6 1159 6
6 1160 8
6 1161 6
6 1162 16
6 1163 8
6 1164 1
6 1165 17
6 1166 842
6 1167 8
6 1168 10
6 1169 7
6 1170 485
6 1171 15
6 1172 8
6 1173 7
6 1174 9
6 1175 533
6 1176 784
6 1177 11
6 1178 12
6 1179 20
6 1180 6
6 1181 17
6 1182 9
6 1183 10
6 1184 3
6 1185 3
6 1186 7
6 1187 4
6 1188 9
6 1189 11
6 1190 4
6 1191 11
6 1192 4
6 1193 1409
6 1194 8
6 1195 3
6 1196 363
6 1197 3
6 1198 8
6 1199 536
6 1200 8
6 1201 3
6 1202 7
6 1203 7
6 1204 1
6 1206 1
6 1207 5
6 1208 4
6 1209 2
6 1210 2
6 1211 4
6 1213 4
6 1214 4
6 1215 678
6 1216 10
6 1217 3
6 1218 5
6 1219 6
6 1220 5
6 1221 10
6 1222 7
6 1223 2
6 1224 10
6 1225 3
6 1226 2
6 1227 7
6 1228 3
6 1229 722
6 1230 4
6 1231 4
6 1232 5
6 1233 452
6 1234 7
6 1235 6
6 1236 1274
6 1237 12
6 1238 1
6 1239 6
6 1240 6
6 1241 9
6 1242 5
6 1243 21
6 1244 12
6 1245 9
6 1246 15
6 1247 9
6 1248 16
6 1249 5
6 1250 16
6 1251 1705
6 1252 7
6 1253 14
6 1254 14
6 1255 1529
6 1256 13
6 1257 7
6 1258 6
6 1259 16
6 1260 15
6 1261 16
6 1262 6
6 1263 8
6 1264 8
6 1265 11
6 1266 920
6 1267 13
6 1268 11
6 1269 10
6 1270 10
6 1271 4
6 1272 15
6 1273 8
6 1274 4
6 1275 10
6 1276 18
6 1277 7
6 1278 26
6 1279 10
6 1280 354
6 1281 13
6 1282 366
6 1283 8
6 1284 216
6 1285 5
6 1286 8
6 1287 15
6 1288 547
6 1289 11
6 1290 588
6 1291 521
6 1292 13
6 1293 12
6 1294 17
6 1295 828
6 1296 11
6 1297 4
6 1298 8
6 1299 7
6 1300 5
6 1301 23
6 1302 11
6 1303 7
6 1304 12
6 1305 18
6 1306 2102
6 1307 9
6 1308 2073
6 1309 12
6 1310 12
6 1311 12
6 1312 5
6 1313 8
6 1314 365
6 1315 8
6 1316 10
6 1317 296
6 1318 7
6 1319 13
6 1320 12
6 1321 9
6 1322 8
6 1323 7
6 1324 10
6 1325 10
6 1326 7
6 1327 970
6 1328 9
6 1329 19
6 1330 7
6 1331 14
6 1332 533
6 1333 7
6 1334 6
6 1335 21
6 1336 475
6 1337 5
6 1338 9
6 1339 16
6 1340 18
6 1341 457
6 1342 14
6 1343 603
6 1344 25
6 1345 21
6 1346 13
6 1347 13
6 1348 16
6 1349 16
6 1350 9
6 1351 10
6 1352 13
6 1353 15
6 1354 3
6 1355 12
6 1356 1136
6 1357 10
6 1358 6
6 1359 15
6 1360 14
6 1361 7
6 1362 14
6 1363 5
6 1364 18
6 1365 12
6 1366 33
6 1367 9
6 1368 5
6 1369 7
6 1370 15
6 1371 6
6 1372 18
6 1373 6
6 1374 23
6 1375 6
6 1376 13
6 1377 799
6 1378 10
6 1379 585
6 1380 7
6 1381 19
6 1382 12
6 1383 12
6 1384 8
6 1385 21
6 1386 8
6 1387 11
6 1388 6
6 1389 20
6 1390 6
6 1391 10
6 1392 23
6 1393 739
6 1394 10
6 1395 16
6 1396 16
6 1397 8
6 1398 10
6 1399 7
6 1400 20
6 1401 18
6 1402 23
6 1403 24
6 1404 4
6 1405 4
6 1406 12
6 1407 13
6 1408 15
6 1409 5
6 1410 10
6 1411 16
6 1412 19
6 1413 15
6 1414 14
6 1415 17
6 1416 9
6 1417 12
6 1418 12
6 1419 36
6 1420 10
6 1421 6
6 1422 11
6 1423 16
6 1424 10
6 1425 3
6 1426 10
6 1427 10
6 1428 24
6 1429 23
6 1430 8
6 1431 6
6 1432 937
6 1433 21
6 1434 15
6 1435 18
6 1436 2266
6 1437 15
6 1438 8
6 1439 8
6 1440 1703
6 1441 18
6 1442 17
6 1443 7
6 1444 7
6 1445 7
6 1446 15
6 1447 15
6 1448 14
6 1449 797
6 1450 22
6 1451 12
6 1452 10
6 1453 18
6 1454 11
6 1455 12
6 1456 8
6 1457 38
6 1458 15
6 1459 8
6 1460 15
6 1461 19
6 1462 9
6 1463 13
6 1464 11
6 1465 11
6 1466 15
6 1467 934
6 1468 11
6 1469 34
6 1470 8
6 1471 18
6 1472 24
6 1473 20
6 1474 12
6 1475 8
6 1476 16
6 1477 10
6 1478 12
6 1479 12
6 1480 3100
6 1481 12
6 1482 529
6 1483 5
6 1484 15
6 1485 2
6 1486 12
6 1487 16
6 1488 11
6 1489 8
6 1490 16
6 1491 21
6 1492 249
6 1493 10
6 1494 10
6 1495 1298
6 1496 30
6 1497 18
6 1498 7
6 1499 21
6 1500 12
6 1501 6
6 1502 2878
6 1503 4
6 1504 11
6 1505 3
6 1506 14
6 1507 6
6 1508 15
6 1509 11
6 1510 8
6 1511 9
6 1512 20
6 1513 934
6 1514 8
6 1515 20
6 1516 23
6 1517 16
6 1518 4
6 1519 15
6 1520 9
6 1521 21
6 1522 17
6 1523 17
6 1524 12
6 1525 8
6 1526 22
6 1527 13
6 1528 16
6 1529 13
6 1530 228
6 1531 1119
6 1532 8
6 1533 12
6 1534 15
6 1535 21
6 1536 12
6 1537 23
6 1538 10
6 1539 18
6 1540 31
6 1541 25
6 1542 15
6 1543 16
6 1544 20
6 1545 17
6 1546 19
6 1547 6
6 1548 3172
6 1549 11
6 1550 20
6 1551 13
6 1552 11
6 1553 14
6 1554 32
6 1555 8
6 1556 6
6 1557 8
6 1558 14
6 1559 14
6 1560 13
6 1561 8
6 1562 9
6 1563 10
6 1564 9
6 1565 1403
6 1566 33
6 1567 19
6 1568 19
6 1569 37
6 1570 12
6 1571 13
6 1572 13
6 1573 16
6 1574 13
6 1575 24
6 1576 19
6 1577 24
6 1578 16
6 1579 15
6 1580 18
6 1581 24
6 1582 1771
6 1583 7
6 1584 12
6 1585 14
6 1586 2990
6 1587 17
6 1588 10
6 1589 10
6 1590 274
6 1591 14
6 1592 25
6 1593 10
6 1594 10
6 1595 20
6 1596 19
6 1597 24
6 1598 6
6 1599 16
6 1600 8
6 1601 10
6 1602 11
6 1603 1019
6 1604 10
6 1605 8
6 1606 8
6 1607 10
6 1608 15
6 1609 18
6 1610 22
6 1611 10
6 1612 1959
6 1613 12
6 1614 16
6 1615 10
6 1616 9
6 1617 7
6 1618 12
6 1619 11
6 1620 6
6 1621 2
6 1622 12
6 1623 17
6 1624 15
6 1625 14
6 1626 9
6 1627 1
6 1628 1210
6 1629 21
6 1630 5
6 1631 10
6 1632 264
6 1633 15
6 1634 13
6 1635 9
6 1636 8
6 1637 56
6 1638 8
6 1639 993
6 1640 20
6 1641 12
6 1642 722
6 1643 14
6 1644 13
6 1645 13
6 1646 11
6 1647 14
6 1648 9
6 1649 19
6 1650 18
6 1651 11
6 1652 897
6 1653 6
6 1654 1572
6 1655 1
6 1656 6
6 1657 14
6 1658 743
6 1659 1960
6 1660 13
6 1661 10
6 1662 10
6 1663 10
6 1664 16
6 1665 11
6 1666 9
6 1667 17
6 1668 4
6 1669 8
6 1670 23
6 1671 16
6 1672 13
6 1673 20
6 1674 2017
6 1675 12
6 1676 11
6 1677 23
6 1678 5
6 1679 22
6 1680 30
6 1681 11
6 1682 10
6 1683 9
6 1684 10
6 1685 11
6 1686 3
6 1687 8
6 1688 17
6 1689 19
6 1690 9
6 1691 6
6 1692 9
6 1693 16
6 1694 13
6 1695 6
6 1696 20
6 1697 15
6 1698 5
6 1699 13
6 1700 10
6 1701 11
6 1702 16
6 1703 15
6 1704 11
6 1705 13
6 1706 19
6 1707 12
6 1708 14
6 1709 2
6 1710 12
6 1711 1
6 1712 20
6 1713 9
6 1714 404
6 1715 12
6 1716 18
6 1717 19
6 1718 14
6 1719 17
6 1720 14
6 1721 11
6 1722 8
6 1723 21
6 1724 26
6 1725 25
6 1726 14
6 1727 15
6 1728 13
6 1729 261
6 1730 2
6 1731 11
6 1732 859
6 1733 698
6 1734 510
6 1735 10
6 1736 22
6 1737 1985
6 1738 11
6 1739 10
6 1740 13
6 1741 30
6 1742 13
6 1743 11
6 1744 34
6 1745 7
6 1746 8
6 1747 16
6 1748 20
6 1749 18
6 1750 10
6 1751 31
6 1752 13
6 1753 37
6 1754 19
6 1755 14
6 1756 5
6 1757 13
6 1758 13
6 1759 15
6 1760 12
6 1761 16
6 1762 10
6 1763 16
6 1764 24
6 1765 13
6 1766 22
6 1767 22
6 1768 9
6 1769 26
6 1770 8
6 1771 24
6 1772 15
6 1773 1075
6 1774 11
6 1775 6
6 1776 27
6 1777 6
6 1778 11
6 1779 12
6 1780 30
6 1781 11
6 1782 14
6 1783 20
6 1784 560
6 1785 16
6 1786 14
6 1787 21
6 1788 15
6 1789 22
6 1790 12
6 1791 14
6 1792 7
6 1793 1
6 1794 11
6 1795 14
6 1796 15
6 1797 16
6 1798 5
6 1799 15
6 1800 8
6 1801 5
6 1802 14
6 1803 7
6 1804 13
6 1805 19
6 1806 9
6 1807 16
6 1808 7
6 1809 136
6 1810 9
6 1811 19
6 1812 18
6 1813 6
6 1814 9
6 1815 1122
6 1816 9
6 1817 12
6 1818 15
6 1819 10
6 1820 12
6 1821 23
6 1822 257
6 1823 11
6 1824 11
6 1825 13
6 1827 16
6 1828 16
6 1829 10
6 1830 14
6 1831 482
6 1832 11
6 1833 13
6 1834 13
6 1835 11
6 1836 13
6 1837 19
6 1838 14
6 1839 17
6 1840 18
6 1841 17
6 1842 394
6 1843 9
6 1844 26
6 1845 8
6 1846 578
6 1847 11
6 1848 10
6 1849 2
6 1850 6
6 1851 9
6 1852 12
6 1853 11
6 1854 6
6 1855 22
6 1856 11
6 1857 1
6 1861 11
6 1862 15
6 1863 11
6 1864 9
6 1865 16
6 1866 5
6 1867 8
6 1868 12
6 1869 6
6 1870 5
6 1871 5
6 1872 9
6 1873 11
6 1874 9
6 1875 6
6 1876 9
6 1877 21
6 1878 10
6 1879 11
6 1880 15
6 1881 20
6 1882 2906
6 1883 25
6 1884 14
6 1885 11
6 1886 8
6 1887 15
6 1888 7
6 1889 9
6 1890 4
6 1891 11
6 1892 8
6 1893 9
6 1894 15
6 1895 10
6 1896 15
6 1897 8
6 1898 2400
6 1899 9
6 1900 1470
6 1901 23
6 1902 321
6 1903 9
6 1904 5
6 1905 9
6 1906 14
6 1907 17
6 1908 11
6 1909 13
6 1910 17
6 1911 9
6 1912 16
6 1913 15
6 1914 13
6 1915 7
6 1916 13
6 1917 13
6 1918 36
6 1919 1004
6 1920 8
6 1921 251
6 1922 17
6 1923 22
6 1924 41
6 1925 7
6 1926 25
6 1927 15
6 1928 13
6 1929 11
6 1930 8
6 1931 10
6 1932 11
6 1933 15
6 1934 24
6 1935 5
6 1936 4
6 1937 26
6 1938 12
6 1939 9
6 1940 9
6 1941 20
6 1942 8
6 1943 18
6 1944 14
6 1945 10
6 1946 6
6 1947 14
6 1948 1822
6 1949 8
6 1950 7
6 1951 16
6 1952 12
6 1953 10
6 1954 10
6 1955 27
6 1956 1
6 1957 14
6 1958 1761
6 1959 12
6 1960 731
6 1961 13
6 1962 5
6 1963 1960
6 1964 9
6 1965 6
6 1966 1454
6 1967 14
6 1968 10
6 1969 627
6 1970 24
6 1971 12
6 1972 16
6 1973 3
6 1974 32
6 1975 1844
6 1976 10
6 1977 13
6 1978 11
6 1979 11
6 1980 24
6 1981 14
6 1982 11
6 1983 16
6 1984 16
6 1985 17
6 1986 436
6 1987 28
6 1988 12
6 1989 15
6 1990 12
6 1991 9
6 1992 16
6 1993 15
6 1994 9
6 1995 34
6 1996 15
6 1997 3
6 1998 10
6 1999 25
6 2000 8
6 2001 31
6 2002 9
6 2003 17
6 2004 13
6 2005 5
6 2006 17
6 2007 1740
6 2008 23
6 2009 5
6 2010 822
6 2011 16
6 2012 13
6 2013 12
6 2014 7
6 2015 11
6 2016 13
6 2017 13
6 2018 18
6 2019 15
6 2020 21
6 2021 13
6 2022 10
6 2023 21
6 2024 24
6 2025 18
6 2026 1625
6 2027 30
6 2028 11
6 2029 8
6 2030 943
6 2031 7
6 2032 18
6 2033 8
6 2034 4
6 2035 1919
6 2036 6
6 2037 10
6 2038 1145
6 2039 10
6 2040 5
6 2041 11
6 2042 8
6 2043 11
6 2044 484
6 2045 9
6 2046 18
6 2047 18
6 2048 25
6 2049 1061
6 2050 8
6 2051 14
6 2052 11
6 2053 11
6 2054 15
6 2055 3
6 2056 18
6 2057 31
6 2058 29
6 2059 11
6 2060 24
6 2061 11
6 2062 14
6 2063 7
6 2064 13
6 2065 11
6 2066 7
6 2067 16
6 2068 9
6 2069 20
6 2070 14
6 2071 14
6 2072 15
6 2073 19
6 2074 10
6 2075 17
6 2076 16
6 2077 10
6 2078 15
6 2079 27
6 2080 11
6 2081 15
6 2082 9
6 2083 9
6 2084 13
6 2085 1744
6 2086 15
6 2087 14
6 2088 14
6 2089 10
6 2090 19
6 2091 14
6 2092 7
6 2093 11
6 2094 20
6 2095 8
6 2096 22
6 2097 12
6 2098 20
6 2099 745
6 2100 18
6 2101 13
6 2102 9
6 2103 12
6 2104 1636
6 2105 12
6 2106 8
6 2107 2035
6 2108 5
6 2109 1
6 2110 2691
6 2111 20
6 2112 16
6 2113 14
6 2114 5
6 2115 5
6 2116 18
6 2117 12
6 2118 5
6 2119 15
6 2120 12
6 2121 8
6 2122 17
6 2123 21
6 2124 12
6 2125 12
6 2126 17
6 2127 7
6 2128 13
6 2129 9
6 2130 9
6 2131 18
6 2132 19
6 2133 18
6 2134 21
6 2135 6
6 2136 29
6 2137 17
6 2138 8
6 2139 641
6 2140 21
6 2141 12
6 2142 6
6 2143 12
6 2144 13
6 2145 41
6 2146 18
6 2147 1790
6 2148 9
6 2149 9
6 2150 1206
6 2151 15
6 2152 23
6 2153 589
6 2154 10
6 2155 1242
6 2156 14
6 2157 17
6 2158 11
6 2159 14
6 2160 17
6 2161 8
6 2162 10
6 2163 26
6 2164 14
6 2165 17
6 2166 5
6 2167 8
6 2168 15
6 2169 8
6 2170 16
6 2171 15
6 2172 10
6 2173 8
6 2174 23
6 2175 845
6 2176 7
6 2177 6
6 2178 5
6 2179 15
6 2180 4
6 2181 14
6 2182 1971
6 2183 14
6 2184 2
6 2185 7
6 2186 8
6 2187 27
6 2189 9
6 2190 20
6 2191 7
6 2192 7
6 2193 28
6 2194 15
6 2195 16
6 2196 1395
6 2197 9
6 2198 6
6 2199 16
6 2200 676
6 2201 14
6 2202 8
6 2203 1780
6 2204 12
6 2205 5
6 2206 25
6 2207 14
6 2208 12
6 2209 11
6 2210 10
6 2211 12
6 2212 20
6 2213 13
6 2214 2
6 2215 6
6 2216 511
6 2217 3184
6 2218 8
6 2219 15
6 2220 11
6 2221 23
6 2222 10
6 2223 13
6 2224 11
6 2225 19
6 2226 22
6 2227 10
6 2228 13
6 2229 9
6 2230 18
6 2231 18
6 2232 22
6 2233 12
6 2234 4
6 2235 20
6 2236 11
6 2237 248
6 2238 16
6 2239 23
6 2240 17
6 2241 17
6 2242 17
6 2243 19
6 2244 15
6 2245 10
6 2246 5
6 2247 20
6 2248 14
6 2250 683
6 2251 15
6 2252 18
6 2253 13
6 2254 8
6 2255 29
6 2256 27
6 2257 55
6 2258 8
6 2259 8
6 2260 11
6 2261 1135
6 2262 9
6 2263 18
6 2264 4
6 2265 13
6 2266 562
6 2267 9
6 2268 12
6 2269 22
6 2270 8
6 2271 18
6 2272 15
6 2273 16
6 2274 20
6 2275 14
6 2276 230
6 2277 21
6 2278 6
6 2279 11
6 2280 14
6 2281 4
6 2282 15
6 2283 14
6 2284 556
6 2285 12
6 2286 9
6 2287 15
6 2288 15
6 2289 18
6 2290 16
6 2291 8
6 2292 11
6 2293 7
6 2294 17
6 2295 88
6 2296 11
6 2297 2611
6 2298 15
6 2299 39
6 2300 424
6 2301 6
6 2302 15
6 2303 12
6 2304 10
6 2305 14
6 2306 14
6 2307 17
6 2308 18
6 2309 15
6 2310 17
6 2311 21
6 2312 26
6 2313 13
6 2314 13
6 2315 16
6 2316 11
6 2317 14
6 2318 9
6 2319 29
6 2320 30
6 2321 12
6 2322 7
6 2323 19
6 2324 18
6 2325 9
6 2326 26
6 2327 36
6 2328 7
6 2329 378
6 2330 1026
6 2331 6
6 2332 11
6 2333 12
6 2334 1
6 2335 6
6 2336 13
6 2337 444
6 2338 26
6 2339 21
6 2340 27
6 2341 20
6 2342 15
6 2343 12
6 2344 17
6 2345 11
6 2346 26
6 2347 1
6 2348 11
6 2349 12
6 2350 13
6 2351 9
6 2352 11
6 2353 15
6 2354 17
6 2355 9
6 2356 20
6 2357 16
6 2358 7
6 2359 13
6 2360 4
6 2361 9
6 2362 17
6 2363 14
6 2364 458
6 2365 5
6 2366 6
6 2367 8
6 2368 6
6 2369 6
6 2370 8
6 2371 10
6 2372 12
6 2373 10
6 2374 12
6 2375 10
6 2376 7
6 2377 13
6 2378 9
6 2379 12
6 2380 21
6 2381 2136
6 2382 9
6 2383 7
6 2384 3
6 2385 16
6 2386 10
6 2387 15
6 2388 17
6 2389 7
6 2390 12
6 2391 10
6 2392 13
6 2393 18
6 2394 7
6 2395 12
6 2396 6
6 2397 801
6 2398 4
6 2399 23
6 2400 8
6 2401 2779
6 2402 11
6 2403 21
6 2404 10
6 2405 10
6 2406 15
6 2407 24
6 2408 11
6 2409 11
6 2410 18
6 2411 16
6 2412 30
6 2413 27
6 2414 13
6 2415 15
6 2416 20
6 2417 18
6 2418 11
6 2419 6
6 2420 10
6 2421 16
6 2422 21
6 2423 5
6 2424 1857
6 2425 12
6 2426 10
6 2427 14
6 2428 18
6 2429 8
6 2430 8
6 2431 23
6 2432 13
6 2433 18
6 2434 13
6 2435 11
6 2436 16
6 2437 11
6 2438 9
6 2439 18
6 2440 9
6 2441 17
6 2442 6
6 2443 7
6 2444 1766
6 2445 9
6 2446 13
6 2447 10
6 2448 758
6 2449 22
6 2450 6
6 2451 6
6 2452 8
6 2453 17
6 2454 4
6 2455 4
6 2456 9
6 2457 10
6 2458 14
6 2459 12
6 2460 12
6 2461 306
6 2462 17
6 2463 10
6 2464 13
6 2465 14
6 2466 11
6 2467 14
6 2468 10
6 2469 12
6 2470 11
6 2471 5
6 2472 8
6 2473 13
6 2474 17
6 2475 7
6 2476 21
6 2477 16
6 2478 8
6 2479 9
6 2480 10
6 2481 9
6 2482 18
6 2483 9
6 2484 919
6 2485 22
6 2486 15
6 2487 10
6 2488 10
6 2489 21
6 2490 12
6 2491 13
6 2492 25
6 2493 5
6 2494 16
6 2495 14
6 2496 7
6 2497 8
6 2498 459
6 2499 2570
6 2500 7
6 2501 17
6 2502 401
6 2503 11
6 2504 5
6 2505 701
6 2506 16
6 2507 19
6 2508 13
7 1 60
7 2 53
7 3 44
7 4 44
7 5 76
7 6 49
7 7 47
7 8 57
7 9 1034
7 10 52
7 11 48
7 12 2839
7 13 50
7 14 101
7 15 44
7 16 55
7 17 46
7 18 17
7 19 39
7 20 38
7 21 45
7 22 37
7 23 60
7 24 110
7 25 13
7 26 121
7 27 45
7 28 49
7 29 57
7 30 35
7 31 909
7 32 30
7 33 37
7 34 45
7 35 32
7 36 56
7 37 59
7 38 121
7 39 59
7 40 34
7 41 83
7 42 51
7 43 50
7 44 321
7 45 35
7 46 9
7 47 13
7 48 60
7 49 54
7 50 56
7 51 43
7 52 36
7 53 37
7 54 56
7 55 63
7 56 29
7 57 48
7 58 44
7 59 19
7 60 57
7 61 122
7 62 69
7 63 3164
7 64 37
7 65 30
7 66 47
7 67 1762
7 68 71
7 69 34
7 70 1607
7 71 1976
7 72 44
7 73 58
7 74 51
7 75 53
7 76 28
7 77 37
7 78 41
7 79 65
7 80 59
7 81 1908
7 82 52
7 83 42
7 84 34
7 85 48
7 86 62
7 87 29
7 88 153
7 89 57
7 90 46
7 91 30
7 92 43
7 93 35
7 94 118
7 95 56
7 96 113
7 97 42
7 98 41
7 99 57
7 100 75
7 101 38
7 102 50
7 103 396
7 104 103
7 105 46
7 106 60
7 107 50
7 108 53
7 109 576
7 110 1175
7 111 1
7 112 2118
7 113 70
7 114 47
7 115 54
7 116 55
7 117 50
7 118 787
7 119 106
7 120 83
7 121 59
7 122 59
7 123 32
7 124 45
7 125 43
7 126 74
7 127 49
7 128 62
7 129 38
7 130 47
7 131 91
7 132 64
7 133 59
7 134 72
7 135 44
7 136 39
7 137 1562
7 138 452
7 139 892
7 140 40
7 141 88
7 142 49
7 143 54
7 144 566
7 145 43
7 146 41
7 147 32
7 148 52
7 149 56
7 150 65
7 151 1015
7 152 30
7 153 56
7 154 109
7 155 108
7 156 47
7 157 50
7 158 35
7 159 96
7 160 52
7 161 1509
7 162 821
7 163 4572
7 164 44
7 165 42
7 166 41
7 167 52
7 168 46
7 169 1103
7 170 12
7 171 66
7 172 79
7 173 35
7 174 17
7 175 69
7 176 41
7 177 53
7 178 54
7 179 46
7 180 84
7 181 51
7 182 63
7 183 65
7 184 35
7 185 69
7 186 55
7 187 42
7 188 45
7 189 41
7 190 74
7 191 52
7 192 34
7 193 87
7 194 734
7 195 32
7 196 107
7 197 56
7 198 48
7 199 1160
7 200 48
7 201 29
7 202 46
7 203 47
7 204 2059
7 205 47
7 206 51
7 207 54
7 208 49
7 209 47
7 210 51
7 211 2993
7 212 7
7 213 118
7 214 591
7 215 46
7 216 48
7 217 358
7 218 38
7 219 23
7 220 34
7 221 50
7 222 60
7 223 55
7 224 39
7 225 25
7 226 2532
7 227 29
7 228 310
7 229 17
7 230 350
7 231 35
7 232 59
7 233 48
7 234 2394
7 235 87
7 236 56
7 237 53
7 238 58
7 239 43
7 240 1316
7 241 41
7 242 53
7 243 49
7 244 39
7 245 3262
7 246 53
7 247 619
7 248 60
7 249 52
7 250 348
7 251 1455
7 252 38
7 253 41
7 254 79
7 255 33
7 256 55
7 257 65
7 258 71
7 259 36
7 260 108
7 261 1567
7 262 45
7 263 46
7 264 36
7 265 60
7 266 74
7 267 70
7 268 81
7 269 39
7 270 4747
7 271 49
7 272 66
7 273 41
7 274 46
7 275 13
7 276 67
7 277 31
7 278 52
7 279 619
7 280 31
7 281 57
7 282 35
7 283 27
7 284 47
7 285 3695
7 286 44
7 287 37
7 288 103
7 289 2263
7 290 77
7 291 37
7 292 4
7 293 37
7 294 38
7 295 44
7 296 48
7 297 32
7 298 74
7 299 33
7 300 33
7 301 49
7 302 44
7 303 726
7 304 36
7 305 418
7 306 35
7 307 26
7 308 1054
7 309 39
7 310 55
7 311 49
7 312 48
7 313 39
7 314 47
7 315 35
7 316 12
7 317 42
7 318 70
7 319 51
7 320 52
7 321 53
7 322 61
7 323 29
7 324 42
7 325 39
7 326 32
7 327 28
7 328 52
7 329 47
7 330 56
7 331 48
7 332 2524
7 333 52
7 334 539
7 335 51
7 336 39
7 337 3320
7 338 1045
7 339 42
7 340 36
7 341 51
7 342 60
7 343 48
7 344 78
7 345 39
7 346 50
7 347 43
7 348 52
7 349 43
7 350 46
7 351 39
7 352 86
7 353 37
7 354 72
7 355 40
7 356 358
7 357 31
7 358 40
7 359 42
7 360 76
7 361 38
7 362 878
7 363 496
7 364 1318
7 365 36
7 366 49
7 367 61
7 368 1693
7 369 50
7 370 36
7 371 59
7 372 4504
7 373 83
7 374 994
7 375 9
7 376 4
7 377 3
7 378 5
7 379 99
7 381 2
7 382 3
7 383 1
7 384 53
7 385 40
7 386 62
7 387 4291
7 388 65
7 389 36
7 390 42
7 391 74
7 392 45
7 393 36
7 394 46
7 395 41
7 396 42
7 397 54
7 398 67
7 399 58
7 400 60
7 401 66
7 402 656
7 403 2283
7 404 481
7 405 3468
7 406 42
7 407 34
7 408 80
7 409 40
7 410 38
7 411 47
7 412 47
7 413 59
7 414 40
7 415 44
7 416 1350
7 417 84
7 418 334
7 419 43
7 420 1186
7 421 1890
7 422 47
7 423 51
7 424 45
7 425 54
7 426 3178
7 427 594
7 428 54
7 429 43
7 430 53
7 431 36
7 432 1069
7 433 42
7 434 4
7 435 54
7 436 45
7 437 719
7 438 1677
7 439 7
7 440 28
7 441 83
7 442 560
7 443 48
7 444 41
7 445 42
7 446 33
7 447 9
7 448 2599
7 449 63
7 450 4382
7 451 77
7 452 51
7 453 147
7 454 121
7 455 52
7 456 41
7 457 1516
7 458 44
7 459 1708
7 460 61
7 461 74
7 462 47
7 463 40
7 464 1349
7 465 35
7 466 25
7 467 63
7 468 35
7 469 44
7 470 63
7 471 21
7 472 32
7 473 39
7 474 46
7 475 79
7 476 64
7 477 72
7 478 30
7 479 650
7 480 30
7 481 928
7 482 48
7 483 49
7 484 37
7 485 134
7 486 51
7 487 877
7 488 667
7 489 2005
7 490 31
7 491 41
7 492 54
7 493 43
7 494 39
7 495 3102
7 496 33
7 497 27
7 498 75
7 499 1030
7 500 38
7 501 647
7 502 682
7 503 41
7 504 23
7 505 60
7 506 49
7 507 51
7 508 82
7 509 36
7 510 32
7 511 42
7 512 39
7 513 53
7 514 93
7 515 51
7 516 51
7 517 45
7 518 102
7 519 885
7 520 49
7 521 31
7 522 35
7 523 59
7 524 53
7 525 951
7 526 50
7 527 22
7 528 62
7 529 1052
7 530 52
7 531 56
7 532 53
7 533 48
7 534 40
7 535 11
7 536 37
7 537 43
7 538 40
7 539 91
7 540 992
7 541 93
7 542 29
7 543 35
7 544 41
7 545 736
7 546 1820
7 547 36
7 548 29
7 549 32
7 550 39
7 551 48
7 552 46
7 553 36
7 554 43
7 555 57
7 556 28
7 557 1345
7 558 47
7 559 43
7 560 5770
7 561 47
7 562 1533
7 563 25
7 564 2632
7 565 51
7 566 43
7 567 67
7 568 72
7 569 49
7 570 41
7 571 2645
7 572 1081
7 573 1571
7 574 437
7 575 37
7 576 760
7 577 49
7 578 65
7 579 65
7 580 808
7 581 30
7 582 38
7 583 104
7 584 57
7 585 108
7 586 38
7 587 50
7 588 38
7 589 112
7 590 46
7 591 82
7 592 51
7 593 39
7 594 934
7 595 115
7 596 1174
7 597 98
7 598 49
7 599 49
7 600 28
7 601 52
7 602 33
7 603 79
7 604 81
7 605 25
7 606 49
7 607 33
7 608 30
7 609 30
7 610 1286
7 611 49
7 612 47
7 613 34
7 614 50
7 615 56
7 616 67
7 617 68
7 618 88
7 619 67
7 620 37
7 621 45
7 622 50
7 623 56
7 624 49
7 625 38
7 626 59
7 627 40
7 628 44
7 629 71
7 630 36
7 631 53
7 632 66
7 633 277
7 634 47
7 635 49
7 636 49
7 637 56
7 638 45
7 639 1613
7 640 34
7 641 44
7 642 36
7 643 37
7 644 52
7 645 113
7 646 65
7 647 60
7 648 43
7 649 58
7 650 58
7 651 52
7 652 38
7 653 98
7 654 3149
7 655 63
7 656 103
7 657 66
7 658 62
7 659 46
7 660 61
7 661 46
7 662 20
7 663 53
7 664 93
7 665 400
7 666 56
7 667 38
7 668 56
7 669 1374
7 670 84
7 671 61
7 672 35
7 673 29
7 674 46
7 675 56
7 676 56
7 677 76
7 678 1261
7 679 45
7 680 53
7 681 44
7 682 5593
7 683 764
7 684 29
7 685 44
7 686 37
7 687 34
7 688 60
7 689 2376
7 690 1353
7 691 52
7 692 15
7 693 5129
7 694 44
7 695 51
7 696 56
7 697 830
7 698 37
7 699 853
7 700 8
7 701 1620
7 702 46
7 703 85
7 704 52
7 705 37
7 706 34
7 707 30
7 708 83
7 709 167
7 710 40
7 711 49
7 712 31
7 713 60
7 714 42
7 715 49
7 716 73
7 717 1583
7 718 4322
7 719 35
7 720 11
7 721 45
7 722 47
7 723 39
7 724 32
7 725 54
7 726 58
7 727 39
7 728 39
7 729 32
7 730 1530
7 731 37
7 732 39
7 733 46
7 734 57
7 735 98
7 736 47
7 737 46
7 738 41
7 739 857
7 740 48
7 741 46
7 742 37
7 743 38
7 744 66
7 745 53
7 746 50
7 747 60
7 748 517
7 749 47
7 750 53
7 751 48
7 752 49
7 753 71
7 754 84
7 755 59
7 756 2750
7 757 56
7 758 57
7 759 63
7 760 698
7 761 952
7 762 56
7 763 84
7 764 48
7 765 56
7 766 1496
7 767 164
7 768 76
7 769 85
7 770 28
7 771 43
7 772 44
7 773 53
7 774 54
7 775 102
7 776 65
7 777 64
7 778 45
7 779 43
7 780 64
7 781 41
7 782 35
7 783 31
7 784 65
7 785 50
7 786 72
7 787 37
7 788 58
7 789 30
7 790 49
7 791 52
7 792 50
7 793 595
7 794 47
7 795 33
7 796 935
7 797 44
7 798 57
7 799 32
7 800 31
7 801 2463
7 802 46
7 803 65
7 804 77
7 805 112
7 806 40
7 807 77
7 808 52
7 809 54
7 810 1985
7 811 46
7 812 54
7 813 34
7 814 37
7 815 48
7 816 56
7 817 50
7 818 36
7 819 55
7 820 755
7 821 64
7 822 46
7 823 1844
7 824 58
7 825 41
7 826 79
7 827 1750
7 828 34
7 829 46
7 830 48
7 831 1624
7 832 101
7 833 50
7 834 47
7 835 65
7 836 3631
7 837 53
7 838 8
7 839 46
7 840 44
7 841 25
7 842 103
7 843 30
7 844 26
7 845 58
7 846 4446
7 847 74
7 848 38
7 849 96
7 850 36
7 851 42
7 852 789
7 853 49
7 854 45
7 855 56
7 856 40
7 857 128
7 858 47
7 859 40
7 860 38
7 862 1045
7 863 37
7 864 51
7 865 704
7 866 29
7 867 48
7 868 55
7 869 77
7 870 47
7 871 37
7 872 45
7 873 25
7 874 50
7 875 337
7 876 36
7 877 45
7 878 46
7 879 44
7 880 36
7 881 57
7 882 1147
7 883 36
7 884 52
7 885 41
7 886 46
7 887 444
7 888 41
7 889 43
7 890 57
7 891 47
7 892 40
7 893 49
7 894 58
7 895 27
7 896 45
7 897 47
7 898 48
7 899 42
7 900 25
7 901 41
7 902 464
7 903 50
7 904 1556
7 905 51
7 906 15
7 907 30
7 908 34
7 909 28
7 910 431
7 911 28
7 912 27
7 913 29
7 914 573
7 915 46
7 916 1266
7 917 73
7 918 46
7 919 77
7 920 3648
7 921 49
7 922 376
7 923 57
7 924 42
7 925 38
7 926 18
7 927 69
7 928 53
7 929 41
7 930 39
7 931 3457
7 932 42
7 933 65
7 934 33
7 935 32
7 936 101
7 937 34
7 938 47
7 939 76
7 940 28
7 941 80
7 942 36
7 943 76
7 944 42
7 945 51
7 946 55
7 947 44
7 948 1679
7 949 47
7 950 44
7 951 57
7 952 1465
7 953 79
7 954 34
7 955 33
7 956 29
7 957 23
7 958 32
7 959 38
7 960 28
7 961 84
7 962 33
7 963 31
7 964 27
7 965 21
7 966 28
7 967 33
7 968 28
7 969 976
7 970 41
7 971 47
7 972 50
7 973 42
7 974 99
7 975 40
7 976 55
7 977 52
7 978 43
7 979 31
7 980 1750
7 981 35
7 982 472
7 983 55
7 984 51
7 985 919
7 986 56
7 987 39
7 988 28
7 989 969
7 990 30
7 991 14
7 992 44
7 993 43
7 994 42
7 995 32
7 996 30
7 997 37
7 998 283
7 999 52
7 1000 98
7 1001 38
7 1002 43
7 1003 36
7 1004 53
7 1005 47
7 1006 39
7 1007 47
7 1008 46
7 1009 65
7 1010 74
7 1011 59
7 1012 33
7 1013 340
7 1014 2021
7 1015 43
7 1016 29
7 1017 374
7 1018 42
7 1019 980
7 1020 3296
7 1021 53
7 1022 30
7 1023 52
7 1024 36
7 1025 36
7 1026 42
7 1027 32
7 1028 1237
7 1029 43
7 1030 54
7 1031 65
7 1032 37
7 1033 43
7 1034 585
7 1035 32
7 1036 92
7 1037 116
7 1038 41
7 1039 35
7 1040 24
7 1041 29
7 1042 28
7 1043 41
7 1044 51
7 1045 34
7 1046 35
7 1047 28
7 1048 40
7 1049 37
7 1050 111
7 1051 42
7 1052 73
7 1053 1556
7 1054 37
7 1055 24
7 1056 49
7 1057 38
7 1058 64
7 1059 43
7 1060 65
7 1061 47
7 1062 50
7 1063 40
7 1064 83
7 1065 48
7 1066 27
7 1067 39
7 1068 43
7 1069 62
7 1070 47
7 1071 112
7 1072 53
7 1073 39
7 1074 69
7 1075 53
7 1076 79
7 1077 3780
7 1078 38
7 1079 40
7 1080 22
7 1081 30
7 1082 1524
7 1083 78
7 1084 52
7 1085 57
7 1086 705
7 1087 46
7 1088 36
7 1089 60
7 1090 33
7 1091 2186
7 1092 84
7 1093 42
7 1094 29
7 1095 24
7 1096 39
7 1097 38
7 1098 53
7 1099 32
7 1100 658
7 1101 44
7 1102 59
7 1103 31
7 1104 33
7 1105 44
7 1106 13
7 1107 27
7 1108 17
7 1109 11
7 1110 20
7 1111 789
7 1112 1300
7 1113 464
7 1114 26
7 1115 43
7 1116 26
7 1117 27
7 1118 26
7 1119 30
7 1120 25
7 1121 1337
7 1122 43
7 1123 46
7 1124 1373
7 1125 1328
7 1126 42
7 1127 26
7 1128 27
7 1129 30
7 1130 44
7 1131 35
7 1132 2769
7 1133 50
7 1134 16
7 1135 59
7 1136 65
7 1137 46
7 1138 31
7 1139 49
7 1140 659
7 1141 40
7 1142 46
7 1143 2289
7 1144 44
7 1145 36
7 1146 80
7 1147 45
7 1148 387
7 1149 28
7 1150 46
7 1151 53
7 1152 62
7 1153 46
7 1154 33
7 1155 32
7 1156 20
7 1157 57
7 1158 59
7 1159 62
7 1160 3188
7 1161 736
7 1162 34
7 1163 1291
7 1164 25
7 1165 61
7 1166 55
7 1167 28
7 1168 48
7 1169 45
7 1170 78
7 1171 81
7 1172 56
7 1173 34
7 1174 46
7 1175 30
7 1176 60
7 1177 33
7 1178 52
7 1179 113
7 1180 34
7 1181 38
7 1182 25
7 1183 31
7 1184 1367
7 1185 32
7 1186 56
7 1187 32
7 1188 547
7 1189 39
7 1190 47
7 1191 62
7 1192 30
7 1193 47
7 1194 46
7 1195 942
7 1196 29
7 1197 23
7 1198 53
7 1199 26
7 1200 28
7 1201 1238
7 1202 28
7 1203 29
7 1204 44
7 1205 34
7 1206 36
7 1207 81
7 1208 36
7 1209 47
7 1210 38
7 1211 45
7 1212 7
7 1213 425
7 1214 2356
7 1215 48
7 1216 2079
7 1217 45
7 1218 34
7 1219 462
7 1220 49
7 1221 49
7 1222 2115
7 1223 46
7 1224 959
7 1225 49
7 1226 32
7 1227 41
7 1228 41
7 1229 31
7 1230 44
7 1231 24
7 1232 37
7 1233 61
7 1234 60
7 1235 48
7 1236 48
7 1237 76
7 1238 19
7 1239 38
7 1240 29
7 1241 29
7 1242 37
7 1243 86
7 1244 54
7 1245 45
7 1246 47
7 1247 2076
7 1248 40
7 1249 30
7 1250 28
7 1251 54
7 1252 54
7 1253 46
7 1254 57
7 1255 49
7 1256 47
7 1257 2140
7 1258 29
7 1259 88
7 1260 54
7 1261 52
7 1262 31
7 1263 41
7 1264 44
7 1265 46
7 1266 54
7 1267 1217
7 1268 66
7 1269 75
7 1270 53
7 1271 48
7 1272 1306
7 1273 60
7 1274 9
7 1275 41
7 1276 85
7 1277 40
7 1278 101
7 1279 45
7 1280 35
7 1281 28
7 1282 32
7 1283 38
7 1284 52
7 1285 50
7 1286 1717
7 1287 74
7 1288 55
7 1289 36
7 1290 33
7 1291 50
7 1292 67
7 1293 47
7 1294 44
7 1295 34
7 1296 74
7 1297 29
7 1298 40
7 1299 637
7 1300 36
7 1301 73
7 1302 61
7 1303 46
7 1304 1564
7 1305 56
7 1306 61
7 1307 32
7 1308 36
7 1309 58
7 1310 592
7 1311 33
7 1312 38
7 1313 33
7 1314 53
7 1315 42
7 1316 1372
7 1317 63
7 1318 65
7 1319 51
7 1320 598
7 1321 207
7 1322 37
7 1323 31
7 1324 40
7 1325 43
7 1326 1359
7 1327 29
7 1328 46
7 1329 42
7 1330 34
7 1331 2415
7 1332 32
7 1333 43
7 1334 59
7 1335 1963
7 1336 27
7 1337 41
7 1338 1874
7 1339 68
7 1340 55
7 1341 46
7 1342 38
7 1343 36
7 1344 126
7 1345 58
7 1346 38
7 1347 95
7 1348 1763
7 1349 44
7 1350 53
7 1351 46
7 1352 39
7 1353 47
7 1354 25
7 1355 1347
7 1356 55
7 1357 58
7 1358 41
7 1359 43
7 1360 45
7 1361 1506
7 1362 58
7 1363 59
7 1364 69
7 1365 51
7 1366 73
7 1367 51
7 1368 283
7 1369 3069
7 1370 68
7 1371 403
7 1372 80
7 1373 59
7 1374 916
7 1375 53
7 1376 47
7 1377 96
7 1378 43
7 1379 52
7 1380 52
7 1381 595
7 1382 46
7 1383 59
7 1384 69
7 1385 46
7 1386 36
7 1387 34
7 1388 49
7 1389 1593
7 1390 45
7 1391 1642
7 1392 107
7 1393 22
7 1394 2519
7 1395 72
7 1396 40
7 1397 33
7 1398 52
7 1399 267
7 1400 52
7 1401 29
7 1402 41
7 1403 246
7 1404 17
7 1405 31
7 1406 11
7 1407 40
7 1408 36
7 1409 2
7 1410 27
7 1411 32
7 1412 24
7 1413 40
7 1414 60
7 1415 61
7 1416 35
7 1417 340
7 1418 38
7 1419 76
7 1420 31
7 1421 29
7 1422 338
7 1423 49
7 1424 41
7 1425 9
7 1426 5063
7 1427 2453
7 1428 47
7 1429 81
7 1430 48
7 1431 35
7 1432 33
7 1433 56
7 1434 1016
7 1435 37
7 1436 84
7 1437 58
7 1438 62
7 1439 1000
7 1440 47
7 1441 2132
7 1442 3719
7 1443 36
7 1444 27
7 1445 32
7 1446 2275
7 1447 49
7 1448 1960
7 1449 53
7 1450 63
7 1451 62
7 1452 37
7 1453 2520
7 1454 40
7 1455 26
7 1456 924
7 1457 109
7 1458 93
7 1459 48
7 1460 28
7 1461 58
7 1462 1019
7 1463 39
7 1464 36
7 1465 464
7 1466 46
7 1467 66
7 1468 43
7 1469 96
7 1470 38
7 1471 488
7 1472 81
7 1473 51
7 1474 68
7 1475 422
7 1476 47
7 1477 43
7 1478 56
7 1479 49
7 1480 55
7 1481 53
7 1482 105
7 1483 26
7 1484 226
7 1485 2
7 1486 59
7 1487 1676
7 1488 56
7 1489 44
7 1490 594
7 1491 80
7 1492 46
7 1493 72
7 1494 62
7 1495 57
7 1496 93
7 1497 59
7 1498 1431
7 1499 62
7 1500 370
7 1501 46
7 1502 49
7 1503 40
7 1504 41
7 1505 45
7 1506 47
7 1507 51
7 1508 50
7 1509 68
7 1510 38
7 1511 33
7 1512 2325
7 1513 48
7 1514 50
7 1515 60
7 1516 121
7 1517 58
7 1518 102
7 1519 62
7 1520 22
7 1521 47
7 1522 47
7 1523 44
7 1524 41
7 1525 481
7 1526 61
7 1527 61
7 1528 50
7 1529 52
7 1530 56
7 1531 33
7 1532 24
7 1533 60
7 1534 59
7 1535 3596
7 1536 100
7 1537 66
7 1538 4274
7 1539 50
7 1540 97
7 1541 93
7 1542 45
7 1543 69
7 1544 65
7 1545 6069
7 1546 732
7 1547 64
7 1548 75
7 1549 70
7 1550 76
7 1551 35
7 1552 62
7 1553 929
7 1554 88
7 1555 34
7 1556 15
7 1557 57
7 1558 47
7 1559 40
7 1560 46
7 1561 44
7 1562 39
7 1563 42
7 1564 68
7 1565 37
7 1566 816
7 1567 43
7 1568 4741
7 1569 65
7 1570 58
7 1571 1189
7 1572 44
7 1573 48
7 1574 39
7 1575 92
7 1576 41
7 1577 79
7 1578 33
7 1579 39
7 1580 60
7 1581 49
7 1582 48
7 1583 51
7 1584 69
7 1585 78
7 1586 1303
7 1587 554
7 1588 54
7 1589 967
7 1590 98
7 1591 67
7 1592 84
7 1593 37
7 1594 41
7 1595 54
7 1596 58
7 1597 41
7 1598 18
7 1599 27
7 1600 33
7 1601 51
7 1602 47
7 1603 37
7 1604 24
7 1605 44
7 1606 1980
7 1607 42
7 1608 53
7 1609 39
7 1610 2332
7 1611 50
7 1612 37
7 1613 56
7 1614 47
7 1615 753
7 1616 34
7 1617 39
7 1618 55
7 1619 29
7 1620 77
7 1621 182
7 1622 37
7 1623 55
7 1624 2037
7 1625 69
7 1626 45
7 1627 6
7 1628 41
7 1629 71
7 1630 783
7 1631 51
7 1632 76
7 1633 71
7 1634 46
7 1635 40
7 1636 86
7 1637 200
7 1638 34
7 1639 48
7 1640 47
7 1641 37
7 1642 38
7 1643 63
7 1644 37
7 1645 74
7 1646 367
7 1647 77
7 1648 2314
7 1649 62
7 1650 52
7 1651 40
7 1652 96
7 1653 32
7 1654 80
7 1655 16
7 1656 70
7 1657 1135
7 1658 60
7 1659 67
7 1660 39
7 1661 53
7 1662 39
7 1663 1320
7 1664 44
7 1665 46
7 1666 52
7 1667 51
7 1668 33
7 1669 43
7 1670 41
7 1671 52
7 1672 3404
7 1673 541
7 1674 45
7 1675 50
7 1676 55
7 1677 52
7 1678 547
7 1679 40
7 1680 132
7 1681 38
7 1682 35
7 1683 46
7 1684 39
7 1685 16
7 1686 8
7 1687 38
7 1688 46
7 1689 67
7 1690 39
7 1691 47
7 1692 55
7 1693 758
7 1694 35
7 1695 61
7 1696 59
7 1697 54
7 1698 47
7 1699 660
7 1700 48
7 1701 45
7 1702 62
7 1703 46
7 1704 58
7 1705 48
7 1706 67
7 1707 80
7 1708 54
7 1709 889
7 1710 46
7 1711 142
7 1712 42
7 1713 2210
7 1714 32
7 1715 34
7 1716 65
7 1717 1926
7 1718 61
7 1719 59
7 1720 58
7 1721 1300
7 1722 27
7 1723 924
7 1724 86
7 1725 105
7 1726 51
7 1727 68
7 1728 643
7 1729 100
7 1730 520
7 1731 1628
7 1732 52
7 1733 44
7 1734 63
7 1735 716
7 1736 44
7 1737 48
7 1738 96
7 1739 47
7 1740 45
7 1741 2686
7 1742 49
7 1743 33
7 1744 97
7 1745 77
7 1746 60
7 1747 56
7 1748 55
7 1749 67
7 1750 56
7 1751 135
7 1752 35
7 1753 114
7 1754 2008
7 1755 44
7 1756 57
7 1757 63
7 1758 3467
7 1759 51
7 1760 58
7 1761 61
7 1762 66
7 1763 57
7 1764 40
7 1765 43
7 1766 64
7 1767 52
7 1768 1271
7 1769 55
7 1770 26
7 1771 2200
7 1772 528
7 1773 54
7 1774 56
7 1775 57
7 1776 94
7 1777 48
7 1778 74
7 1779 52
7 1780 112
7 1781 50
7 1782 56
7 1783 45
7 1784 29
7 1785 57
7 1786 60
7 1787 56
7 1788 81
7 1789 44
7 1790 907
7 1791 50
7 1792 44
7 1793 151
7 1794 72
7 1795 101
7 1796 104
7 1797 39
7 1798 48
7 1799 22
7 1800 42
7 1801 36
7 1802 68
7 1803 43
7 1804 40
7 1805 56
7 1806 29
7 1807 56
7 1808 44
7 1809 13
7 1810 21
7 1811 71
7 1812 5287
7 1813 46
7 1814 36
7 1815 37
7 1816 37
7 1817 45
7 1818 32
7 1819 2652
7 1820 37
7 1821 38
7 1822 43
7 1823 26
7 1824 26
7 1825 32
7 1827 56
7 1828 50
7 1829 52
7 1830 57
7 1831 39
7 1832 36
7 1833 51
7 1834 568
7 1835 36
7 1836 52
7 1837 89
7 1838 68
7 1839 52
7 1840 73
7 1841 59
7 1842 81
7 1843 50
7 1844 4993
7 1845 916
7 1846 56
7 1847 58
7 1848 255
7 1849 46
7 1850 1284
7 1851 66
7 1852 45
7 1853 581
7 1854 910
7 1855 103
7 1856 17
7 1857 1
7 1858 2
7 1859 190
7 1860 1
7 1861 564
7 1862 854
7 1863 51
7 1864 41
7 1865 80
7 1866 34
7 1867 44
7 1868 28
7 1869 47
7 1870 22
7 1871 18
7 1872 23
7 1873 43
7 1874 40
7 1875 44
7 1876 1653
7 1877 71
7 1878 507
7 1879 1287
7 1880 51
7 1881 43
7 1882 56
7 1883 79
7 1884 63
7 1885 741
7 1886 50
7 1887 49
7 1888 1484
7 1889 18
7 1890 2278
7 1891 2787
7 1892 3176
7 1893 46
7 1894 51
7 1895 57
7 1896 37
7 1897 46
7 1898 49
7 1899 1751
7 1900 31
7 1901 899
7 1902 42
7 1903 3033
7 1904 35
7 1905 1808
7 1906 38
7 1907 44
7 1908 45
7 1909 41
7 1910 30
7 1911 998
7 1912 2666
7 1913 53
7 1914 45
7 1915 34
7 1916 55
7 1917 49
7 1918 95
7 1919 35
7 1920 34
7 1921 47
7 1922 41
7 1923 451
7 1924 108
7 1925 820
7 1926 43
7 1927 55
7 1928 1195
7 1929 57
7 1930 59
7 1931 73
7 1932 35
7 1933 45
7 1934 61
7 1935 48
7 1936 39
7 1937 94
7 1938 412
7 1939 59
7 1940 24
7 1941 95
7 1942 49
7 1943 51
7 1944 54
7 1945 30
7 1946 49
7 1947 48
7 1948 78
7 1949 33
7 1950 1810
7 1951 41
7 1952 38
7 1953 31
7 1954 39
7 1955 71
7 1956 58
7 1957 654
7 1958 50
7 1959 42
7 1960 51
7 1961 41
7 1962 290
7 1963 49
7 1964 37
7 1965 27
7 1966 67
7 1967 36
7 1968 1056
7 1969 46
7 1970 380
7 1971 72
7 1972 49
7 1973 14
7 1974 68
7 1975 26
7 1976 54
7 1977 30
7 1978 27
7 1979 47
7 1980 90
7 1981 37
7 1982 43
7 1983 51
7 1984 50
7 1985 43
7 1986 59
7 1987 73
7 1988 47
7 1989 59
7 1990 26
7 1991 69
7 1992 47
7 1993 55
7 1994 35
7 1995 143
7 1996 53
7 1997 7
7 1998 40
7 1999 591
7 2000 716
7 2001 98
7 2002 31
7 2003 54
7 2004 29
7 2005 43
7 2006 34
7 2007 110
7 2008 87
7 2009 472
7 2010 34
7 2011 39
7 2012 48
7 2013 46
7 2014 43
7 2015 29
7 2016 74
7 2017 1858
7 2018 48
7 2019 42
7 2020 58
7 2021 35
7 2022 62
7 2023 52
7 2024 120
7 2025 61
7 2026 53
7 2027 605
7 2028 552
7 2029 37
7 2030 43
7 2031 36
7 2032 60
7 2033 44
7 2034 438
7 2035 38
7 2036 22
7 2037 28
7 2038 26
7 2039 251
7 2040 40
7 2041 44
7 2042 33
7 2043 3819
7 2044 104
7 2045 28
7 2046 687
7 2047 39
7 2048 118
7 2049 50
7 2050 38
7 2051 30
7 2052 51
7 2053 39
7 2054 72
7 2055 25
7 2056 39
7 2057 102
7 2058 83
7 2059 37
7 2060 42
7 2061 28
7 2062 40
7 2063 19
7 2064 20
7 2065 16
7 2066 37
7 2067 49
7 2068 36
7 2069 56
7 2070 51
7 2071 48
7 2072 51
7 2073 42
7 2074 45
7 2075 841
7 2076 51
7 2077 526
7 2078 41
7 2079 82
7 2080 690
7 2081 54
7 2082 27
7 2083 56
7 2084 51
7 2085 79
7 2086 233
7 2087 61
7 2088 38
7 2089 41
7 2090 43
7 2091 1901
7 2092 47
7 2093 47
7 2094 78
7 2095 40
7 2096 711
7 2097 628
7 2098 26
7 2099 40
7 2100 35
7 2101 39
7 2102 33
7 2103 932
7 2104 68
7 2105 43
7 2106 46
7 2107 58
7 2108 37
7 2109 42
7 2110 44
7 2111 1951
7 2112 54
7 2113 40
7 2114 28
7 2115 48
7 2116 43
7 2117 348
7 2118 38
7 2119 113
7 2120 51
7 2121 44
7 2122 512
7 2123 56
7 2124 63
7 2125 44
7 2126 57
7 2127 27
7 2128 39
7 2129 41
7 2130 28
7 2131 3757
7 2132 92
7 2133 41
7 2134 23
7 2135 25
7 2136 107
7 2137 363
7 2138 29
7 2139 46
7 2140 3326
7 2141 366
7 2142 45
7 2143 41
7 2144 53
7 2145 100
7 2146 64
7 2147 50
7 2148 65
7 2149 48
7 2150 79
7 2151 46
7 2152 388
7 2153 35
7 2154 43
7 2155 66
7 2156 65
7 2157 54
7 2158 58
7 2159 62
7 2160 44
7 2161 1070
7 2162 31
7 2163 107
7 2164 26
7 2165 52
7 2166 13
7 2167 53
7 2168 46
7 2169 223
7 2170 36
7 2171 49
7 2172 29
7 2173 532
7 2174 57
7 2175 72
7 2176 34
7 2177 32
7 2178 33
7 2179 23
7 2180 30
7 2181 41
7 2182 23
7 2183 26
7 2184 9
7 2185 35
7 2186 47
7 2187 98
7 2188 342
7 2189 482
7 2190 51
7 2191 259
7 2192 45
7 2193 78
7 2194 58
7 2195 49
7 2196 33
7 2197 41
7 2198 381
7 2199 46
7 2200 41
7 2201 26
7 2202 24
7 2203 52
7 2204 47
7 2205 46
7 2206 68
7 2207 54
7 2208 82
7 2209 56
7 2210 38
7 2211 66
7 2212 35
7 2213 47
7 2214 454
7 2215 37
7 2216 24
7 2217 89
7 2218 40
7 2219 52
7 2220 24
7 2221 50
7 2222 333
7 2223 26
7 2224 488
7 2225 24
7 2226 243
7 2227 19
7 2228 19
7 2229 2
7 2230 12
7 2231 11
7 2232 6
7 2233 7
7 2234 4
7 2235 15
7 2236 15
7 2237 1
7 2238 29
7 2239 27
7 2240 9
7 2241 12
7 2242 16
7 2243 20
7 2244 14
7 2245 10
7 2246 13
7 2247 14
7 2248 52
7 2249 4
7 2250 45
7 2251 35
7 2252 3375
7 2253 43
7 2254 39
7 2255 83
7 2256 65
7 2257 29
7 2258 13
7 2259 17
7 2260 25
7 2261 16
7 2262 15
7 2263 19
7 2264 1106
7 2265 45
7 2266 34
7 2267 376
7 2268 46
7 2269 28
7 2270 42
7 2271 41
7 2272 23
7 2273 40
7 2274 89
7 2275 17
7 2276 34
7 2277 27
7 2278 17
7 2279 23
7 2280 27
7 2281 10
7 2282 44
7 2283 31
7 2284 30
7 2285 32
7 2286 12
7 2287 50
7 2288 35
7 2289 32
7 2290 29
7 2291 27
7 2292 30
7 2293 38
7 2294 23
7 2295 82
7 2296 32
7 2297 38
7 2298 1406
7 2299 65
7 2300 47
7 2301 34
7 2302 36
7 2303 14
7 2304 32
7 2305 19
7 2306 629
7 2307 1965
7 2308 32
7 2309 42
7 2310 41
7 2311 63
7 2312 96
7 2313 48
7 2314 30
7 2315 275
7 2316 34
7 2317 39
7 2318 24
7 2319 45
7 2320 8
7 2321 35
7 2322 129
7 2323 15
7 2324 48
7 2325 47
7 2326 70
7 2327 77
7 2328 22
7 2329 43
7 2330 22
7 2331 30
7 2332 37
7 2333 31
7 2334 3
7 2335 34
7 2336 55
7 2337 31
7 2338 87
7 2339 54
7 2340 81
7 2341 100
7 2342 28
7 2343 25
7 2344 874
7 2345 42
7 2346 84
7 2347 188
7 2348 407
7 2349 23
7 2350 36
7 2351 35
7 2352 28
7 2353 26
7 2354 51
7 2355 702
7 2356 412
7 2357 31
7 2358 25
7 2359 49
7 2360 32
7 2361 28
7 2362 52
7 2363 492
7 2364 31
7 2365 44
7 2366 34
7 2367 797
7 2368 26
7 2369 25
7 2370 22
7 2371 38
7 2372 37
7 2373 35
7 2374 35
7 2375 18
7 2376 37
7 2377 54
7 2378 33
7 2379 36
7 2380 74
7 2381 40
7 2382 34
7 2383 35
7 2384 530
7 2385 20
7 2386 32
7 2387 59
7 2388 52
7 2389 58
7 2390 31
7 2391 62
7 2392 629
7 2393 46
7 2394 55
7 2395 37
7 2396 576
7 2397 83
7 2398 24
7 2399 73
7 2400 42
7 2401 26
7 2402 47
7 2403 4987
7 2404 36
7 2405 1805
7 2406 46
7 2407 88
7 2408 45
7 2409 1718
7 2410 56
7 2411 68
7 2412 1148
7 2413 35
7 2414 47
7 2415 693
7 2416 46
7 2417 452
7 2418 36
7 2419 42
7 2420 30
7 2421 914
7 2422 84
7 2423 1583
7 2424 23
7 2425 46
7 2426 40
7 2427 51
7 2428 40
7 2429 43
7 2430 1357
7 2431 667
7 2432 30
7 2433 46
7 2434 2037
7 2435 27
7 2436 45
7 2437 55
7 2438 34
7 2439 33
7 2440 30
7 2441 105
7 2442 32
7 2443 42
7 2444 37
7 2445 42
7 2446 50
7 2447 35
7 2448 39
7 2449 424
7 2450 26
7 2451 238
7 2452 29
7 2453 46
7 2454 776
7 2455 26
7 2456 38
7 2457 43
7 2458 41
7 2459 50
7 2460 45
7 2461 46
7 2462 60
7 2463 34
7 2464 52
7 2465 51
7 2466 48
7 2467 52
7 2468 32
7 2469 35
7 2470 64
7 2471 36
7 2472 31
7 2473 26
7 2474 942
7 2475 28
7 2476 11751
7 2477 49
7 2478 37
7 2479 498
7 2480 923
7 2481 34
7 2482 34
7 2483 25
7 2484 39
7 2485 58
7 2486 71
7 2487 32
7 2488 39
7 2489 54
7 2490 482
7 2491 29
7 2492 1975
7 2493 26
7 2494 44
7 2495 31
7 2496 786
7 2497 314
7 2498 45
7 2499 41
7 2500 30
7 2501 33
7 2502 29
7 2503 59
7 2504 33
7 2505 82
7 2506 38
7 2507 42
7 2508 2463
8 1 24
8 2 24
8 3 1709
8 4 39
8 5 56
8 6 1623
8 7 31
8 8 41
8 9 54
8 10 43
8 11 1295
8 12 30
8 13 28
8 14 80
8 15 36
8 16 30
8 17 32
8 18 7
8 19 183
8 20 23
8 21 454
8 22 17
8 23 46
8 24 60
8 25 3
8 26 72
8 27 38
8 28 30
8 29 1915
8 30 3211
8 31 33
8 32 444
8 33 24
8 34 22
8 35 25
8 36 1602
8 37 20
8 38 53
8 39 2706
8 40 31
8 41 63
8 42 25
8 43 382
8 44 39
8 45 21
8 46 13
8 47 27
8 48 2074
8 49 58
8 50 22
8 51 39
8 52 30
8 53 29
8 54 46
8 55 36
8 56 29
8 57 29
8 58 31
8 59 16
8 60 40
8 61 110
8 62 38
8 63 27
8 64 21
8 65 3602
8 66 22
8 67 30
8 68 25
8 69 24
8 70 41
8 71 14
8 72 26
8 73 33
8 74 31
8 75 25
8 76 2198
8 77 27
8 78 184
8 79 28
8 80 36
8 81 21
8 82 22
8 83 25
8 84 29
8 85 37
8 86 43
8 87 30
8 88 1747
8 89 23
8 90 39
8 91 27
8 92 42
8 93 38
8 94 64
8 95 27
8 96 53
8 97 24
8 98 2271
8 99 37
8 100 1129
8 101 2016
8 102 32
8 103 43
8 104 96
8 105 35
8 106 212
8 107 36
8 108 30
8 109 23
8 110 26
8 111 7
8 112 64
8 113 32
8 114 42
8 115 21
8 116 32
8 117 25
8 118 28
8 119 59
8 120 14
8 121 33
8 122 41
8 123 24
8 124 24
8 125 38
8 126 23
8 127 28
8 128 27
8 129 43
8 130 1442
8 131 21
8 132 36
8 133 40
8 134 25
8 135 32
8 136 30
8 137 53
8 138 11
8 139 18
8 140 36
8 141 25
8 142 34
8 143 37
8 144 40
8 145 35
8 146 29
8 147 30
8 148 30
8 149 44
8 150 39
8 151 59
8 152 25
8 153 34
8 154 59
8 155 2473
8 156 27
8 157 34
8 158 24
8 159 2884
8 160 28
8 161 50
8 162 25
8 163 28
8 164 40
8 165 27
8 166 23
8 167 34
8 168 30
8 169 25
8 170 4
8 171 51
8 172 46
8 173 31
8 174 8
8 175 27
8 176 36
8 177 20
8 178 35
8 179 33
8 180 58
8 181 44
8 182 42
8 183 22
8 184 39
8 185 29
8 186 27
8 187 1259
8 188 26
8 189 20
8 190 21
8 191 16
8 192 598
8 193 46
8 194 60
8 195 30
8 196 71
8 197 427
8 198 36
8 199 26
8 200 1404
8 201 610
8 202 42
8 203 25
8 204 23
8 205 32
8 206 693
8 207 26
8 208 38
8 209 30
8 210 27
8 211 54
8 212 3
8 213 78
8 214 33
8 215 42
8 216 21
8 217 34
8 218 22
8 219 842
8 220 191
8 221 32
8 222 47
8 223 2211
8 224 20
8 225 1856
8 226 29
8 227 38
8 228 8
8 229 1168
8 230 42
8 231 24
8 232 23
8 233 42
8 234 24
8 235 1073
8 236 24
8 237 39
8 238 50
8 239 31
8 240 22
8 241 33
8 242 35
8 243 2050
8 244 37
8 245 24
8 246 33
8 247 25
8 248 15
8 249 17
8 250 46
8 251 10
8 252 30
8 253 21
8 254 47
8 255 12
8 256 18
8 257 32
8 258 2431
8 259 26
8 260 901
8 261 15
8 262 31
8 263 37
8 264 32
8 265 18
8 266 36
8 267 293
8 268 44
8 269 1111
8 270 18
8 271 448
8 272 59
8 273 27
8 274 581
8 275 17
8 276 21
8 277 23
8 278 827
8 279 32
8 280 40
8 281 547
8 282 23
8 283 33
8 284 1807
8 285 20
8 286 26
8 287 29
8 288 84
8 289 31
8 290 23
8 291 32
8 292 7
8 293 39
8 294 25
8 295 52
8 296 17
8 297 24
8 298 35
8 299 11
8 300 1718
8 301 20
8 302 29
8 303 19
8 304 37
8 305 35
8 306 22
8 307 3664
8 308 62
8 309 747
8 310 37
8 311 274
8 312 28
8 313 27
8 314 41
8 315 2624
8 316 133
8 317 22
8 318 824
8 319 34
8 320 32
8 321 37
8 322 35
8 323 40
8 324 43
8 325 34
8 326 32
8 327 23
8 328 29
8 329 15
8 330 23
8 331 1428
8 332 22
8 333 34
8 334 53
8 335 20
8 336 19
8 337 33
8 338 16
8 339 18
8 340 28
8 341 34
8 342 37
8 343 22
8 344 38
8 345 30
8 346 38
8 347 35
8 348 27
8 349 38
8 350 29
8 351 32
8 352 64
8 353 21
8 354 21
8 355 32
8 356 35
8 357 27
8 358 274
8 359 25
8 360 21
8 361 42
8 362 38
8 363 25
8 364 26
8 365 40
8 366 195
8 367 32
8 368 29
8 369 1065
8 370 44
8 371 37
8 372 33
8 373 51
8 374 34
8 375 75
8 376 306
8 377 253
8 378 3
8 379 2
8 380 1
8 381 4
8 383 2
8 384 1
8 385 30
8 386 31
8 387 26
8 388 31
8 389 661
8 390 38
8 391 28
8 392 48
8 393 671
8 394 18
8 395 764
8 396 35
8 397 41
8 398 20
8 399 15
8 400 36
8 401 24
8 402 17
8 403 50
8 404 21
8 405 23
8 406 499
8 407 44
8 408 1395
8 409 43
8 410 41
8 411 37
8 412 17
8 413 27
8 414 41
8 415 24
8 416 13
8 417 67
8 418 14
8 419 6812
8 420 30
8 421 37
8 422 29
8 423 39
8 424 28
8 425 17
8 426 32
8 427 28
8 428 38
8 429 35
8 430 25
8 431 33
8 432 28
8 433 35
8 434 2
8 435 43
8 436 33
8 437 25
8 438 24
8 439 1
8 440 21
8 441 68
8 442 32
8 443 23
8 444 19
8 445 27
8 446 30
8 447 2
8 448 30
8 449 31
8 450 35
8 451 40
8 452 33
8 453 63
8 454 53
8 455 2549
8 456 23
8 457 36
8 458 1964
8 459 36
8 460 2563
8 461 84
8 462 25
8 463 52
8 464 36
8 465 28
8 466 20
8 467 18
8 468 30
8 469 43
8 470 45
8 471 20
8 472 13
8 473 24
8 474 28
8 475 590
8 476 29
8 477 22
8 478 11
8 479 27
8 480 18
8 481 49
8 482 50
8 483 16
8 484 26
8 485 94
8 486 32
8 487 26
8 488 38
8 489 20
8 490 37
8 491 2034
8 492 20
8 493 2917
8 494 36
8 495 74
8 496 14
8 497 28
8 498 29
8 499 13
8 500 25
8 501 17
8 502 16
8 503 953
8 504 30
8 505 37
8 506 36
8 507 31
8 508 66
8 509 21
8 510 47
8 511 34
8 512 36
8 513 48
8 514 67
8 515 16
8 516 42
8 517 27
8 518 44
8 519 27
8 520 1970
8 521 27
8 522 33
8 523 23
8 524 37
8 525 30
8 526 26
8 527 35
8 528 31
8 529 44
8 530 2624
8 531 491
8 532 38
8 533 26
8 534 2411
8 535 8
8 536 33
8 537 22
8 538 28
8 539 70
8 540 22
8 541 67
8 542 23
8 543 39
8 544 26
8 545 26
8 546 26
8 547 31
8 548 37
8 549 36
8 550 1153
8 551 28
8 552 36
8 553 34
8 554 20
8 555 34
8 556 18
8 557 25
8 558 37
8 559 31
8 560 23
8 561 18
8 562 17
8 563 23
8 564 35
8 565 28
8 566 38
8 567 1868
8 568 71
8 569 52
8 570 17
8 571 58
8 572 35
8 573 33
8 574 17
8 575 23
8 576 40
8 577 31
8 578 32
8 579 32
8 580 22
8 581 41
8 582 25
8 583 53
8 584 31
8 585 25
8 586 59
8 587 2063
8 588 1148
8 589 66
8 590 3855
8 591 1303
8 592 35
8 593 92
8 594 34
8 595 2267
8 596 56
8 597 62
8 598 25
8 599 23
8 600 33
8 601 30
8 602 1873
8 603 33
8 604 36
8 605 22
8 606 18
8 607 25
8 608 43
8 609 39
8 610 36
8 611 27
8 612 33
8 613 25
8 614 1447
8 615 28
8 616 29
8 617 25
8 618 58
8 619 36
8 620 42
8 621 48
8 622 25
8 623 36
8 624 25
8 625 923
8 626 26
8 627 45
8 628 27
8 629 36
8 630 1805
8 631 19
8 632 35
8 633 25
8 634 1234
8 635 32
8 636 976
8 637 41
8 638 2123
8 639 29
8 640 611
8 641 29
8 642 40
8 643 36
8 644 28
8 645 50
8 646 35
8 647 29
8 648 790
8 649 41
8 650 20
8 651 24
8 652 2030
8 653 94
8 654 20
8 655 21
8 656 51
8 657 41
8 658 50
8 659 33
8 660 11
8 661 30
8 662 11
8 663 23
8 664 68
8 665 23
8 666 21
8 667 33
8 668 38
8 669 20
8 670 44
8 671 25
8 672 44
8 673 25
8 674 31
8 675 37
8 676 39
8 677 46
8 678 43
8 679 15
8 680 28
8 681 31
8 682 1811
8 683 22
8 684 1044
8 685 1982
8 686 20
8 687 2694
8 688 23
8 689 20
8 690 37
8 691 1687
8 692 17
8 693 30
8 694 27
8 695 30
8 696 24
8 697 45
8 698 470
8 699 20
8 700 18
8 701 30
8 702 48
8 703 87
8 704 26
8 705 40
8 706 30
8 707 31
8 708 53
8 709 59
8 710 1233
8 711 48
8 712 19
8 713 32
8 714 33
8 715 34
8 716 52
8 717 27
8 718 41
8 719 2351
8 720 16
8 721 11
8 722 32
8 723 29
8 724 29
8 725 31
8 726 53
8 727 1358
8 728 25
8 729 17
8 730 30
8 731 3340
8 732 41
8 733 26
8 734 43
8 735 55
8 736 29
8 737 360
8 738 1544
8 739 57
8 740 31
8 741 30
8 742 1677
8 743 2977
8 744 33
8 745 39
8 746 24
8 747 38
8 748 40
8 749 23
8 750 44
8 751 14
8 752 33
8 753 979
8 754 25
8 755 20
8 756 19
8 757 37
8 758 24
8 759 29
8 760 23
8 761 43
8 762 38
8 763 49
8 764 40
8 765 17
8 766 25
8 767 52
8 768 52
8 769 1099
8 770 36
8 771 29
8 772 30
8 773 17
8 774 3243
8 775 84
8 776 42
8 777 20
8 778 25
8 779 3007
8 780 26
8 781 16
8 782 16
8 783 1959
8 784 28
8 785 28
8 786 1783
8 787 30
8 788 37
8 789 24
8 790 41
8 791 24
8 792 43
8 793 28
8 794 26
8 795 3382
8 796 44
8 797 27
8 798 1415
8 799 19
8 800 35
8 801 16
8 802 27
8 803 35
8 804 61
8 805 1178
8 806 24
8 807 539
8 808 38
8 809 31
8 810 29
8 811 38
8 812 51
8 813 25
8 814 1297
8 815 33
8 816 23
8 817 28
8 818 39
8 819 1322
8 820 21
8 821 564
8 822 1173
8 823 23
8 824 2766
8 825 29
8 826 2093
8 827 30
8 828 3629
8 829 16
8 830 1018
8 831 21
8 832 84
8 833 27
8 834 32
8 835 25
8 836 25
8 837 1414
8 838 4
8 839 37
8 840 33
8 841 26
8 842 643
8 843 45
8 844 6
8 845 806
8 846 29
8 847 18
8 848 37
8 849 75
8 850 27
8 851 36
8 852 21
8 853 27
8 854 26
8 855 35
8 856 36
8 857 50
8 858 21
8 859 31
8 860 28
8 861 2
8 862 26
8 863 31
8 864 26
8 865 26
8 866 23
8 867 32
8 868 24
8 869 27
8 870 45
8 871 26
8 872 30
8 873 22
8 874 23
8 875 56
8 876 2977
8 877 25
8 878 33
8 879 26
8 880 43
8 881 20
8 882 35
8 883 21
8 884 17
8 885 2637
8 886 33
8 887 46
8 888 26
8 889 18
8 890 14
8 891 1162
8 892 31
8 893 50
8 894 28
8 895 9
8 896 39
8 897 20
8 898 2733
8 899 25
8 900 15
8 901 17
8 902 52
8 903 18
8 904 9
8 905 15
8 906 20
8 907 18
8 908 21
8 909 30
8 910 16
8 911 535
8 912 258
8 913 16
8 914 17
8 915 26
8 916 15
8 917 34
8 918 443
8 919 51
8 920 23
8 921 31
8 922 25
8 923 16
8 924 856
8 925 21
8 926 12
8 927 39
8 928 42
8 929 33
8 930 40
8 931 24
8 932 37
8 933 40
8 934 25
8 935 23
8 936 46
8 937 268
8 938 30
8 939 18
8 940 1272
8 941 1348
8 942 23
8 943 77
8 944 34
8 945 37
8 946 51
8 947 1124
8 948 21
8 949 1559
8 950 1240
8 951 2631
8 952 31
8 953 69
8 954 25
8 955 21
8 956 37
8 957 21
8 958 22
8 959 46
8 960 30
8 961 73
8 962 41
8 963 22
8 964 1097
8 965 44
8 966 34
8 967 49
8 968 29
8 969 41
8 970 954
8 971 23
8 972 34
8 973 23
8 974 36
8 975 23
8 976 40
8 977 748
8 978 44
8 979 38
8 980 24
8 981 32
8 982 24
8 983 31
8 984 41
8 985 2560
8 986 28
8 987 36
8 988 38
8 989 26
8 990 25
8 991 9
8 992 23
8 993 39
8 994 2234
8 995 638
8 996 128
8 997 46
8 998 37
8 999 24
8 1000 67
8 1001 497
8 1002 16
8 1003 22
8 1004 24
8 1005 23
8 1006 27
8 1007 36
8 1008 15
8 1009 19
8 1010 29
8 1011 26
8 1012 24
8 1013 32
8 1014 37
8 1015 34
8 1016 31
8 1017 9
8 1018 443
8 1019 16
8 1020 66
8 1021 26
8 1022 24
8 1023 28
8 1024 44
8 1025 20
8 1026 36
8 1027 48
8 1028 42
8 1029 42
8 1030 44
8 1031 1299
8 1032 47
8 1033 871
8 1034 13
8 1035 30
8 1036 1259
8 1037 68
8 1038 38
8 1039 44
8 1040 32
8 1041 30
8 1042 4362
8 1043 30
8 1044 66
8 1045 34
8 1046 27
8 1047 28
8 1048 45
8 1049 32
8 1050 69
8 1051 20
8 1052 240
8 1053 24
8 1054 662
8 1055 18
8 1056 36
8 1057 37
8 1058 1353
8 1059 34
8 1060 672
8 1061 35
8 1062 30
8 1063 27
8 1064 44
8 1065 41
8 1066 25
8 1067 30
8 1068 20
8 1069 730
8 1070 28
8 1071 54
8 1072 606
8 1073 39
8 1074 66
8 1075 36
8 1076 14
8 1077 28
8 1078 23
8 1079 22
8 1080 5
8 1081 20
8 1082 29
8 1083 61
8 1084 1072
8 1085 29
8 1086 31
8 1087 27
8 1088 23
8 1089 20
8 1090 18
8 1091 33
8 1092 25
8 1093 27
8 1094 33
8 1095 36
8 1096 21
8 1097 33
8 1098 24
8 1099 37
8 1100 9
8 1101 21
8 1102 45
8 1103 22
8 1104 29
8 1105 42
8 1106 16
8 1107 12
8 1108 19
8 1109 4
8 1110 21
8 1111 8
8 1112 2182
8 1113 15
8 1114 15
8 1115 16
8 1116 16
8 1117 13
8 1118 14
8 1119 9
8 1120 29
8 1121 34
8 1122 1243
8 1123 2209
8 1124 29
8 1125 26
8 1126 29
8 1127 15
8 1128 26
8 1129 18
8 1130 1166
8 1131 287
8 1132 25
8 1133 20
8 1134 12
8 1135 39
8 1136 25
8 1137 18
8 1138 41
8 1139 29
8 1140 37
8 1141 19
8 1142 693
8 1143 25
8 1144 26
8 1145 1468
8 1146 32
8 1147 38
8 1148 27
8 1149 33
8 1150 559
8 1151 29
8 1152 566
8 1153 2426
8 1154 23
8 1155 28
8 1156 28
8 1157 47
8 1158 876
8 1159 470
8 1160 28
8 1161 29
8 1162 41
8 1163 26
8 1164 163
8 1165 744
8 1166 42
8 1167 2873
8 1168 26
8 1169 33
8 1170 45
8 1171 26
8 1172 30
8 1173 29
8 1174 22
8 1175 35
8 1176 40
8 1177 28
8 1178 45
8 1179 1279
8 1180 29
8 1181 64
8 1182 31
8 1183 40
8 1184 39
8 1185 36
8 1186 26
8 1187 27
8 1188 30
8 1189 31
8 1190 41
8 1191 716
8 1192 36
8 1193 35
8 1194 26
8 1195 34
8 1196 26
8 1197 30
8 1198 25
8 1199 42
8 1200 24
8 1201 23
8 1202 22
8 1203 33
8 1204 41
8 1205 31
8 1206 25
8 1207 56
8 1208 28
8 1209 2955
8 1210 34
8 1211 29
8 1212 3
8 1213 27
8 1214 32
8 1215 33
8 1216 37
8 1217 31
8 1218 26
8 1219 27
8 1220 32
8 1221 43
8 1222 42
8 1223 22
8 1224 52
8 1225 2804
8 1226 1477
8 1227 28
8 1228 36
8 1229 23
8 1230 39
8 1231 32
8 1232 31
8 1233 54
8 1234 33
8 1235 788
8 1236 19
8 1237 74
8 1238 15
8 1239 30
8 1240 647
8 1241 56
8 1242 37
8 1243 61
8 1244 30
8 1245 27
8 1246 2665
8 1247 24
8 1248 36
8 1249 24
8 1250 37
8 1251 29
8 1252 16
8 1253 30
8 1254 32
8 1255 31
8 1256 36
8 1257 38
8 1258 25
8 1259 73
8 1260 1194
8 1261 28
8 1262 20
8 1263 827
8 1264 35
8 1265 16
8 1266 30
8 1267 56
8 1268 23
8 1269 678
8 1270 25
8 1271 1191
8 1272 19
8 1273 617
8 1274 14
8 1275 35
8 1276 44
8 1277 659
8 1278 61
8 1279 31
8 1280 21
8 1281 17
8 1282 35
8 1283 43
8 1284 29
8 1285 39
8 1286 28
8 1287 37
8 1288 31
8 1289 22
8 1290 21
8 1291 30
8 1292 50
8 1293 25
8 1294 22
8 1295 27
8 1296 25
8 1297 221
8 1298 50
8 1299 18
8 1300 29
8 1301 65
8 1302 1685
8 1303 1064
8 1304 73
8 1305 873
8 1306 49
8 1307 1442
8 1308 33
8 1309 24
8 1310 19
8 1311 42
8 1312 26
8 1313 1332
8 1314 23
8 1315 996
8 1316 25
8 1317 30
8 1318 28
8 1319 1407
8 1320 29
8 1321 25
8 1322 40
8 1323 30
8 1324 391
8 1325 26
8 1326 16
8 1327 28
8 1328 35
8 1329 30
8 1330 26
8 1331 21
8 1332 50
8 1333 32
8 1334 42
8 1335 77
8 1336 31
8 1337 21
8 1338 34
8 1339 34
8 1340 36
8 1341 37
8 1342 42
8 1343 26
8 1344 55
8 1345 33
8 1346 21
8 1347 44
8 1348 27
8 1349 27
8 1350 1383
8 1351 27
8 1352 2141
8 1353 40
8 1354 1206
8 1355 25
8 1356 16
8 1357 26
8 1358 738
8 1359 27
8 1360 27
8 1361 23
8 1362 36
8 1363 30
8 1364 48
8 1365 757
8 1366 70
8 1367 26
8 1368 11
8 1369 16
8 1370 37
8 1371 16
8 1372 388
8 1373 13
8 1374 58
8 1375 27
8 1376 33
8 1377 42
8 1378 29
8 1379 32
8 1380 1081
8 1381 33
8 1382 33
8 1383 26
8 1384 28
8 1385 27
8 1386 30
8 1387 26
8 1388 22
8 1389 28
8 1390 1011
8 1391 26
8 1392 572
8 1393 8
8 1394 16
8 1395 26
8 1396 129
8 1397 19
8 1398 21
8 1399 10
8 1400 26
8 1401 15
8 1402 27
8 1403 355072
8 1404 13
8 1405 775
8 1406 22
8 1407 27
8 1408 523
8 1409 9
8 1410 48
8 1411 25
8 1412 177
8 1413 22
8 1414 23
8 1415 40
8 1416 24
8 1417 37
8 1418 1725
8 1419 49
8 1420 980
8 1421 41
8 1422 24
8 1423 24
8 1424 19
8 1425 149
8 1426 25
8 1427 16
8 1428 1613
8 1429 44
8 1430 42
8 1431 32
8 1432 24
8 1433 20
8 1434 28
8 1435 34
8 1436 46
8 1437 27
8 1438 18
8 1439 37
8 1440 33
8 1441 33
8 1442 22
8 1443 19
8 1444 17
8 1445 23
8 1446 33
8 1447 1560
8 1448 38
8 1449 33
8 1450 29
8 1451 22
8 1452 23
8 1453 26
8 1454 30
8 1455 26
8 1456 30
8 1457 62
8 1458 82
8 1459 32
8 1460 29
8 1461 23
8 1462 25
8 1463 22
8 1464 14
8 1465 31
8 1466 55
8 1467 33
8 1468 34
8 1469 63
8 1470 29
8 1471 35
8 1472 62
8 1473 502
8 1474 1336
8 1475 28
8 1476 29
8 1477 91
8 1478 32
8 1479 26
8 1480 30
8 1481 43
8 1482 55
8 1483 17
8 1484 25
8 1485 827
8 1486 900
8 1487 24
8 1488 29
8 1489 28
8 1490 1228
8 1491 47
8 1492 15
8 1493 1697
8 1494 326
8 1495 14
8 1496 43
8 1497 42
8 1498 41
8 1499 34
8 1500 24
8 1501 24
8 1502 36
8 1503 29
8 1504 46
8 1505 16
8 1506 19
8 1507 23
8 1508 11
8 1509 17
8 1510 8
8 1511 16
8 1512 16
8 1513 22
8 1514 20
8 1515 13
8 1516 682
8 1517 782
8 1518 7
8 1519 12
8 1520 19
8 1521 1170
8 1522 13
8 1523 29
8 1524 18
8 1525 14
8 1526 13
8 1527 19
8 1528 1891
8 1529 22
8 1530 1518
8 1531 17
8 1532 13
8 1533 24
8 1534 1028
8 1535 21
8 1536 21
8 1537 17
8 1538 19
8 1539 1397
8 1540 30
8 1541 32
8 1542 1211
8 1543 23
8 1544 18
8 1545 21
8 1546 27
8 1547 1714
8 1548 21
8 1549 9
8 1550 23
8 1551 498
8 1552 28
8 1553 13
8 1554 19
8 1555 17
8 1556 7
8 1557 12
8 1558 16
8 1559 13
8 1560 17
8 1561 17
8 1562 14
8 1563 9
8 1564 3
8 1565 2
8 1566 9
8 1567 5
8 1568 4
8 1569 12
8 1570 5
8 1571 1
8 1572 7
8 1573 2
8 1574 1
8 1575 100
8 1576 3
8 1577 4
8 1578 2
8 1579 14
8 1580 24
8 1581 13
8 1582 17
8 1583 13
8 1584 22
8 1585 12
8 1586 16
8 1587 10
8 1588 17
8 1589 15
8 1590 38
8 1591 2634
8 1592 18
8 1593 15
8 1594 17
8 1595 16
8 1596 12
8 1597 17
8 1598 10
8 1599 17
8 1600 126
8 1601 16
8 1602 25
8 1603 1537
8 1604 20
8 1605 14
8 1606 20
8 1607 14
8 1608 16
8 1609 333
8 1610 19
8 1611 529
8 1612 22
8 1613 16
8 1614 506
8 1615 13
8 1616 17
8 1617 78
8 1618 16
8 1619 11
8 1620 11
8 1621 3
8 1622 19
8 1623 11
8 1624 14
8 1625 8
8 1626 16
8 1627 2
8 1628 15
8 1629 34
8 1630 11
8 1631 37
8 1632 61
8 1633 17
8 1634 1627
8 1635 22
8 1636 18
8 1637 585
8 1638 9
8 1639 17
8 1640 10
8 1641 878
8 1642 20
8 1643 476
8 1644 40
8 1645 21
8 1646 19
8 1647 17
8 1648 19
8 1649 8
8 1650 18
8 1651 26
8 1652 39
8 1653 6
8 1654 21
8 1655 8
8 1656 43
8 1657 18
8 1658 22
8 1659 26
8 1660 19
8 1661 30
8 1662 923
8 1663 27
8 1664 22
8 1665 25
8 1666 31
8 1667 3566
8 1668 27
8 1669 22
8 1670 42
8 1671 36
8 1672 44
8 1673 31
8 1674 30
8 1675 33
8 1676 37
8 1677 24
8 1678 6
8 1679 1218
8 1680 1390
8 1681 1733
8 1682 580
8 1683 1369
8 1684 15
8 1685 10
8 1686 6
8 1687 30
8 1688 1554
8 1689 448
8 1690 32
8 1691 23
8 1692 328
8 1693 32
8 1694 24
8 1695 744
8 1696 17
8 1697 823
8 1698 17
8 1699 26
8 1700 25
8 1701 31
8 1702 19
8 1703 137
8 1704 233
8 1705 24
8 1706 37
8 1707 2117
8 1708 20
8 1709 17
8 1710 795
8 1711 1
8 1712 31
8 1713 30
8 1714 19
8 1715 466
8 1716 50
8 1717 26
8 1718 25
8 1719 35
8 1720 25
8 1721 25
8 1722 25
8 1723 27
8 1724 43
8 1725 71
8 1726 42
8 1727 33
8 1728 19
8 1729 63
8 1730 8
8 1731 23
8 1732 32
8 1733 32
8 1734 19
8 1735 34
8 1736 26
8 1737 22
8 1738 23
8 1739 2972
8 1740 401
8 1741 47
8 1742 29
8 1743 293
8 1744 50
8 1745 29
8 1746 15
8 1747 337
8 1748 36
8 1749 34
8 1750 28
8 1751 69
8 1752 19
8 1753 57
8 1754 26
8 1755 23
8 1756 3694
8 1757 328
8 1758 33
8 1759 34
8 1760 33
8 1761 19
8 1762 2938
8 1763 823
8 1764 28
8 1765 343
8 1766 30
8 1767 24
8 1768 27
8 1769 668
8 1770 24
8 1771 32
8 1772 46
8 1773 34
8 1774 28
8 1775 214
8 1776 62
8 1777 20
8 1778 1855
8 1779 38
8 1780 57
8 1781 18
8 1782 19
8 1783 26
8 1784 29
8 1785 22
8 1786 16
8 1787 26
8 1788 179
8 1789 1042
8 1790 30
8 1791 16
8 1792 18
8 1793 7
8 1794 1129
8 1795 1273
8 1796 36
8 1797 39
8 1798 28
8 1799 17
8 1800 13
8 1801 1080
8 1802 27
8 1803 297
8 1804 22
8 1805 18
8 1806 20
8 1807 23
8 1808 20
8 1809 5
8 1810 21
8 1811 42
8 1812 28
8 1813 925
8 1814 41
8 1815 21
8 1816 22
8 1817 30
8 1818 10
8 1819 30
8 1820 20
8 1821 25
8 1822 11
8 1823 27
8 1824 333
8 1825 14
8 1827 32
8 1828 26
8 1829 39
8 1830 1002
8 1831 26
8 1832 26
8 1833 936
8 1834 34
8 1835 20
8 1836 993
8 1837 34
8 1838 25
8 1839 38
8 1840 26
8 1841 32
8 1842 33
8 1843 27
8 1844 31
8 1845 18
8 1846 27
8 1847 22
8 1848 23
8 1849 23
8 1850 17
8 1851 13
8 1852 28
8 1853 12
8 1854 14
8 1855 60
8 1856 15
8 1857 2
8 1858 2
8 1861 20
8 1862 18
8 1863 20
8 1864 28
8 1865 31
8 1866 13
8 1867 11
8 1868 17
8 1869 15
8 1870 648
8 1871 16
8 1872 15
8 1873 31
8 1874 522
8 1875 22
8 1876 19
8 1877 36
8 1878 17
8 1879 38
8 1880 31
8 1881 25
8 1882 28
8 1883 58
8 1884 27
8 1885 32
8 1886 18
8 1887 193
8 1888 16
8 1889 13
8 1890 15
8 1891 25
8 1892 22
8 1893 25
8 1894 41
8 1895 28
8 1896 19
8 1897 27
8 1898 23
8 1899 22
8 1900 16
8 1901 39
8 1902 20
8 1903 33
8 1904 1424
8 1905 26
8 1906 32
8 1907 2169
8 1908 25
8 1909 24
8 1910 18
8 1911 26
8 1912 24
8 1913 20
8 1914 27
8 1915 828
8 1916 1346
8 1917 177
8 1918 41
8 1919 27
8 1920 22
8 1921 24
8 1922 27
8 1923 30
8 1924 60
8 1925 24
8 1926 24
8 1927 255
8 1928 25
8 1929 25
8 1930 33
8 1931 21
8 1932 26
8 1933 38
8 1934 25
8 1935 31
8 1936 31
8 1937 33
8 1938 28
8 1939 18
8 1940 15
8 1941 2124
8 1942 36
8 1943 13
8 1944 1076
8 1945 18
8 1946 23
8 1947 36
8 1948 33
8 1949 26
8 1950 946
8 1951 21
8 1952 22
8 1953 32
8 1954 23
8 1955 32
8 1956 22
8 1957 24
8 1958 26
8 1959 19
8 1960 28
8 1961 899
8 1962 11
8 1963 32
8 1964 23
8 1965 19
8 1966 36
8 1967 34
8 1968 44
8 1969 17
8 1970 25
8 1971 63
8 1972 32
8 1973 217
8 1974 37
8 1975 59
8 1976 19
8 1977 31
8 1978 24
8 1979 38
8 1980 1723
8 1981 25
8 1982 940
8 1983 24
8 1984 28
8 1985 28
8 1986 37
8 1987 27
8 1988 1194
8 1989 22
8 1990 24
8 1991 52
8 1992 28
8 1993 25
8 1994 18
8 1995 114
8 1996 18
8 1997 13
8 1998 39
8 1999 27
8 2000 31
8 2001 61
8 2002 39
8 2003 28
8 2004 20
8 2005 16
8 2006 22
8 2007 63
8 2008 48
8 2009 45
8 2010 29
8 2011 1202
8 2012 24
8 2013 1457
8 2014 24
8 2015 840
8 2016 38
8 2017 26
8 2018 546
8 2019 24
8 2020 1686
8 2021 45
8 2022 32
8 2023 30
8 2024 58
8 2025 29
8 2026 22
8 2027 75
8 2028 28
8 2029 50
8 2030 22
8 2031 22
8 2032 32
8 2033 27
8 2034 42
8 2035 22
8 2036 16
8 2037 32
8 2038 23
8 2039 16
8 2040 23
8 2041 1262
8 2042 33
8 2043 35
8 2044 48
8 2045 1974
8 2046 27
8 2047 29
8 2048 339
8 2049 22
8 2050 1634
8 2051 911
8 2052 1749
8 2053 781
8 2054 76
8 2055 18
8 2056 29
8 2057 58
8 2058 55
8 2059 226
8 2060 24
8 2061 47
8 2062 1357
8 2063 31
8 2064 27
8 2065 122
8 2066 33
8 2067 17
8 2068 21
8 2069 23
8 2070 35
8 2071 48
8 2072 1012
8 2073 20
8 2074 22
8 2075 47
8 2076 19
8 2077 24
8 2078 23
8 2079 59
8 2080 24
8 2081 31
8 2082 17
8 2083 36
8 2084 25
8 2085 25
8 2086 39
8 2087 20
8 2088 29
8 2089 1236
8 2090 26
8 2091 16
8 2092 25
8 2093 48
8 2094 52
8 2095 29
8 2096 28
8 2097 46
8 2098 37
8 2099 29
8 2100 17
8 2101 575
8 2102 23
8 2103 26
8 2104 24
8 2105 26
8 2106 31
8 2107 25
8 2108 34
8 2109 45
8 2110 37
8 2111 35
8 2112 27
8 2113 32
8 2114 36
8 2115 43
8 2116 24
8 2117 24
8 2118 27
8 2119 24
8 2120 20
8 2121 17
8 2122 39
8 2123 38
8 2124 29
8 2125 26
8 2126 30
8 2127 40
8 2128 21
8 2129 36
8 2130 19
8 2131 30
8 2132 50
8 2133 22
8 2134 32
8 2135 10
8 2136 56
8 2137 29
8 2138 25
8 2139 31
8 2140 31
8 2141 39
8 2142 26
8 2143 38
8 2144 2871
8 2145 54
8 2146 1576
8 2147 24
8 2148 2766
8 2149 23
8 2150 16
8 2151 30
8 2152 22
8 2153 28
8 2154 2237
8 2155 33
8 2156 29
8 2157 24
8 2158 36
8 2159 24
8 2160 36
8 2161 22
8 2162 24
8 2163 61
8 2164 29
8 2165 25
8 2166 14
8 2167 39
8 2168 31
8 2169 17
8 2170 1340
8 2171 13
8 2172 2636
8 2173 21
8 2174 45
8 2175 42
8 2176 150
8 2177 21
8 2178 977
8 2179 913
8 2180 1510
8 2181 38
8 2182 20
8 2183 3194
8 2184 7
8 2185 2395
8 2186 18
8 2187 1671
8 2188 19
8 2189 16
8 2190 1099
8 2191 30
8 2192 25
8 2193 54
8 2194 37
8 2195 44
8 2196 37
8 2197 19
8 2198 24
8 2199 27
8 2200 21
8 2201 32
8 2202 34
8 2203 29
8 2204 18
8 2205 34
8 2206 65
8 2207 34
8 2208 16
8 2209 34
8 2210 1999
8 2211 31
8 2212 27
8 2213 28
8 2214 16
8 2215 41
8 2216 24
8 2217 24
8 2218 24
8 2219 17
8 2220 29
8 2221 56
8 2222 21
8 2223 36
8 2224 29
8 2225 64
8 2226 29
8 2227 1692
8 2228 52
8 2229 41
8 2230 48
8 2231 23
8 2232 25
8 2233 1372
8 2234 14
8 2235 567
8 2236 36
8 2237 4
8 2238 29
8 2239 28
8 2240 35
8 2241 981
8 2242 38
8 2243 1188
8 2244 1106
8 2245 22
8 2246 32
8 2247 20
8 2248 46
8 2249 3
8 2250 28
8 2251 36
8 2252 28
8 2253 33
8 2254 19
8 2255 63
8 2256 56
8 2257 32
8 2258 13
8 2259 458
8 2260 34
8 2261 31
8 2262 2431
8 2263 1014
8 2264 19
8 2265 493
8 2266 22
8 2267 18
8 2268 2069
8 2269 32
8 2270 193
8 2271 30
8 2272 39
8 2273 25
8 2274 1515
8 2275 29
8 2276 35
8 2277 3291
8 2278 13
8 2279 2011
8 2280 26
8 2281 6
8 2282 1560
8 2283 33
8 2284 31
8 2285 23
8 2286 9
8 2287 313
8 2288 30
8 2289 31
8 2290 27
8 2291 37
8 2292 42
8 2293 18
8 2294 32
8 2295 64
8 2296 29
8 2297 32
8 2298 38
8 2299 68
8 2300 25
8 2301 37
8 2302 36
8 2303 29
8 2304 25
8 2305 26
8 2306 32
8 2307 22
8 2308 386
8 2309 29
8 2310 30
8 2311 27
8 2312 89
8 2313 35
8 2314 31
8 2315 31
8 2316 30
8 2317 32
8 2318 38
8 2319 69
8 2320 42
8 2321 21
8 2322 17
8 2323 31
8 2324 32
8 2325 31
8 2326 75
8 2327 259
8 2328 858
8 2329 27
8 2330 7
8 2331 29
8 2332 15
8 2333 29
8 2334 1
8 2335 1707
8 2336 28
8 2337 21
8 2338 64
8 2339 23
8 2340 58
8 2341 61
8 2342 23
8 2343 27
8 2344 29
8 2345 29
8 2346 30
8 2347 12
8 2348 46
8 2349 42
8 2350 1105
8 2351 26
8 2352 694
8 2353 34
8 2354 37
8 2355 32
8 2356 42
8 2357 24
8 2358 33
8 2359 701
8 2360 26
8 2361 26
8 2362 160
8 2363 23
8 2364 30
8 2365 46
8 2366 22
8 2367 30
8 2368 48
8 2369 357
8 2370 11
8 2371 512
8 2372 685
8 2373 995
8 2374 31
8 2375 33
8 2376 35
8 2377 22
8 2378 21
8 2379 19
8 2380 64
8 2381 14
8 2382 28
8 2383 587
8 2384 16
8 2385 21
8 2386 25
8 2387 387
8 2388 33
8 2389 33
8 2390 38
8 2391 34
8 2392 35
8 2393 24
8 2394 25
8 2395 1575
8 2396 39
8 2397 62
8 2398 26
8 2399 47
8 2400 1860
8 2401 23
8 2402 17
8 2403 21
8 2404 15
8 2405 24
8 2406 37
8 2407 1069
8 2408 23
8 2409 26
8 2410 750
8 2411 34
8 2412 90
8 2413 42
8 2414 27
8 2415 40
8 2416 17
8 2417 12
8 2418 24
8 2419 842
8 2420 24
8 2421 27
8 2422 53
8 2423 18
8 2424 41
8 2425 29
8 2426 30
8 2427 374
8 2428 57
8 2429 20
8 2430 27
8 2431 42
8 2432 22
8 2433 43
8 2434 21
8 2435 30
8 2436 37
8 2437 35
8 2438 41
8 2439 22
8 2440 24
8 2441 59
8 2442 29
8 2443 25
8 2444 34
8 2445 23
8 2446 14
8 2447 25
8 2448 20
8 2449 62
8 2450 26
8 2451 35
8 2452 28
8 2453 54
8 2454 11
8 2455 12
8 2456 18
8 2457 23
8 2458 15
8 2459 35
8 2460 26
8 2461 26
8 2462 19
8 2463 1365
8 2464 22
8 2465 922
8 2466 49
8 2467 36
8 2468 2499
8 2469 31
8 2470 819
8 2471 32
8 2472 41
8 2473 14
8 2474 18
8 2475 36
8 2476 57
8 2477 26
8 2478 1174
8 2479 21
8 2480 38
8 2481 18
8 2482 26
8 2483 21
8 2484 19
8 2485 71
8 2486 52
8 2487 32
8 2488 29
8 2489 31
8 2490 43
8 2491 24
8 2492 45
8 2493 1418
8 2494 43
8 2495 28
8 2496 14
8 2497 16
8 2498 30
8 2499 22
8 2500 29
8 2501 2230
8 2502 21
8 2503 24
8 2504 35
8 2505 33
8 2506 32
8 2507 44
8 2508 27
