%%MatrixMarket matrix coordinate integer general
%
11 5722 62848
1 1 75
1 2 148
1 3 72
1 4 54
1 5 34
1 6 40
1 7 45
1 8 59
1 9 51
1 10 40
1 11 66
1 12 40
1 13 70
1 14 52
1 15 20
1 16 25
1 17 47
1 18 67
1 19 24
1 20 104
1 21 33
1 22 62
1 23 72
1 24 59
1 25 50
1 26 72
1 27 48
1 28 34
1 29 32
1 30 16
1 31 50
1 32 28
1 33 62
1 34 66
1 35 14
1 36 42
1 37 46
1 38 50
1 39 46
1 40 42
1 41 45
1 42 154
1 43 44
1 44 39
1 45 6
1 46 42918
1 47 48
1 48 11963
1 49 37
1 50 26
1 51 47
1 52 41
1 53 26
1 54 1131
1 55 81
1 56 72
1 57 41
1 58 4324
1 59 78
1 60 51
1 61 42
1 62 55
1 63 67
1 64 47
1 65 47
1 66 5387
1 67 46
1 68 48
1 69 41
1 70 68
1 71 69
1 72 41
1 73 42
1 74 61
1 75 53
1 76 49
1 77 48
1 78 37
1 79 132
1 80 26
1 81 87
1 82 30
1 83 59
1 84 57
1 85 73
1 86 26
1 87 52
1 88 41
1 89 47
1 90 60
1 91 51
1 92 46
1 93 82
1 94 32
1 95 31
1 96 33
1 97 65
1 98 54
1 99 43
1 100 38
1 101 57
1 102 1544
1 103 45
1 104 68
1 105 76
1 106 19
1 107 50
1 108 69
1 109 38
1 110 30
1 111 49
1 112 39
1 113 45
1 114 37
1 115 78
1 116 16
1 117 13
1 118 46
1 119 58
1 120 90
1 121 56
1 122 40
1 123 29
1 124 47
1 125 46
1 126 6
1 127 27
1 128 67
1 129 67
1 130 66
1 131 43
1 132 30
1 133 74
1 134 18
1 135 119
1 136 45
1 137 61
1 138 67
1 139 124
1 140 95
1 141 46
1 142 48
1 143 46
1 144 71
1 145 32
1 146 35
1 147 74
1 148 44
1 149 51
1 150 33
1 151 2797
1 152 93
1 153 45
1 154 62
1 155 60
1 156 86
1 157 29
1 158 37
1 159 68
1 160 59
1 161 86
1 162 39
1 163 49
1 164 61
1 165 54
1 166 53
1 167 81
1 168 22
1 169 30
1 170 35
1 171 61
1 172 77
1 173 34
1 174 42
1 175 66
1 176 96
1 177 24
1 178 48
1 179 19
1 180 72
1 181 55
1 182 74
1 183 51
1 184 52
1 185 45
1 186 30
1 187 46
1 188 54
1 189 40
1 190 41
1 191 52
1 192 45
1 193 5412
1 194 64
1 195 1378
1 196 28
1 197 11
1 198 57
1 199 17
1 200 71
1 201 45
1 202 42
1 203 31
1 204 38
1 205 63
1 206 37
1 207 58
1 208 8
1 209 75
1 210 35
1 211 73
1 212 54
1 213 4402
1 214 5701
1 215 105
1 216 84
1 217 55
1 218 21
1 219 58
1 220 31
1 221 26
1 222 31
1 223 59
1 224 33
1 225 66
1 226 56
1 227 33
1 228 29
1 229 108
1 230 39
1 231 27
1 232 49
1 233 35
1 234 54
1 235 1182
1 236 49
1 237 40
1 238 55
1 239 85
1 240 59
1 241 305
1 242 53
1 243 106
1 244 4227
1 245 4646
1 246 64
1 247 30
1 248 51
1 249 41
1 250 97
1 251 15
1 252 25
1 253 31
1 254 26
1 255 44
1 256 45
1 257 72
1 258 16
1 259 41
1 260 48
1 261 23
1 262 58
1 263 31
1 264 62
1 265 71
1 266 14
1 267 27
1 268 68
1 269 106
1 270 42
1 271 54
1 272 67
1 273 38
1 274 48
1 275 23
1 276 101
1 277 95
1 278 51
1 279 47
1 280 3140
1 281 66
1 282 41
1 283 49
1 284 60
1 285 37
1 286 54
1 287 71
1 288 51
1 289 13
1 290 40
1 291 54
1 292 53
1 293 55
1 294 59
1 295 38
1 296 70
1 297 97
1 298 48
1 299 54
1 300 46
1 301 61
1 302 29
1 303 57
1 304 65
1 305 3
1 306 61
1 307 71
1 308 56
1 309 19
1 310 101
1 311 76
1 312 12
1 313 35
1 314 2793
1 315 54
1 316 48
1 317 65
1 318 58
1 319 40
1 320 38
1 321 41
1 322 48
1 323 45
1 324 74
1 325 51
1 326 35
1 327 65
1 328 40
1 329 83
1 330 61
1 331 20967
1 332 19
1 333 62
1 334 8
1 335 48
1 336 18
1 337 33
1 338 26
1 339 34
1 340 41
1 341 43
1 342 25
1 343 25
1 344 26
1 345 72
1 346 36
1 347 23
1 348 30
1 349 51
1 350 39
1 351 4319
1 352 53
1 353 3080
1 354 38
1 355 22
1 356 67
1 357 29
1 358 44
1 359 89
1 360 46
1 361 44
1 362 91
1 363 54
1 364 24
1 365 34
1 366 18
1 367 34
1 368 34
1 369 33
1 370 2656
1 371 24
1 372 22
1 373 60
1 374 63
1 375 73
1 376 62
1 377 50
1 378 61
1 379 70
1 380 39
1 381 32
1 382 16127
1 383 45
1 384 28
1 385 34
1 386 35
1 387 55
1 388 42
1 389 42
1 390 38
1 391 19
1 392 62
1 393 46
1 394 62
1 395 57
1 396 96
1 397 25
1 398 35
1 399 37
1 400 43
1 401 34
1 402 39
1 403 71
1 404 51
1 405 37
1 406 115
1 407 31
1 408 41
1 409 67
1 410 37
1 411 54
1 412 47
1 413 32
1 414 34
1 415 64
1 416 27
1 417 42
1 418 37
1 419 38
1 420 30
1 421 26
1 422 35
1 423 42
1 424 45
1 425 50
1 426 41
1 427 40
1 428 67
1 429 69
1 430 55
1 431 36
1 432 49
1 433 40
1 434 40
1 435 60
1 436 47
1 437 27
1 438 29
1 439 24
1 440 57
1 441 27
1 442 93
1 443 39
1 444 50
1 445 28
1 446 55
1 447 52
1 448 55
1 449 70
1 450 51
1 451 43
1 452 73
1 453 61
1 454 59
1 455 39
1 456 54
1 457 22
1 458 36
1 459 28
1 460 62
1 461 30544
1 462 39
1 463 44
1 464 38
1 465 37
1 466 49
1 467 41
1 468 39
1 469 37
1 470 80
1 471 33
1 472 44
1 473 56
1 474 2100
1 475 51
1 476 35
1 477 2443
1 478 50
1 479 31
1 480 47
1 481 36
1 482 61
1 483 43
1 484 36
1 485 51
1 486 52
1 487 41
1 488 30
1 489 58
1 490 216
1 491 57
1 492 33
1 493 35
1 494 31
1 495 19
1 496 33
1 497 49
1 498 24
1 499 41
1 500 54
1 501 67
1 502 39
1 503 30
1 504 23
1 505 26
1 506 55
1 507 121
1 508 83
1 509 26
1 510 51
1 511 19
1 512 33
1 513 51
1 514 2710
1 515 84
1 516 10220
1 517 49
1 518 61
1 519 44
1 520 7884
1 521 18
1 522 63
1 523 26
1 524 45
1 525 44
1 526 60
1 527 49
1 528 48
1 529 53
1 530 33
1 531 56
1 532 711
1 533 45
1 534 58
1 535 44
1 536 33
1 537 59
1 538 30
1 539 59
1 540 42
1 541 633
1 542 28
1 543 64
1 544 7027
1 545 93
1 546 39
1 547 39
1 548 50
1 549 1244
1 550 29
1 551 36
1 552 83
1 553 74
1 554 59
1 555 24
1 556 26
1 557 16
1 558 60
1 559 24
1 560 44
1 561 29
1 562 5182
1 563 54
1 564 28
1 565 48
1 566 56
1 567 38
1 568 31
1 569 67
1 570 57
1 571 37
1 572 37
1 573 37
1 574 65
1 575 49
1 576 49
1 577 85
1 578 48
1 579 1468
1 580 44
1 581 39
1 582 25
1 583 47
1 584 36
1 585 36
1 586 20
1 587 20
1 588 24
1 589 38
1 590 37
1 591 49
1 592 32
1 593 21
1 594 24
1 595 28
1 596 37
1 597 57
1 598 2184
1 599 53
1 600 33
1 601 32
1 602 46
1 603 39
1 604 29
1 605 2356
1 606 42
1 607 28
1 608 26
1 609 42
1 610 56
1 611 60
1 612 81
1 613 23
1 614 43
1 615 33
1 616 16
1 617 34
1 618 47
1 619 60
1 620 32
1 621 2089
1 622 38
1 623 63
1 624 40
1 625 67
1 626 48
1 627 62
1 628 69
1 629 50
1 630 30
1 631 3115
1 632 70
1 633 61
1 634 33
1 635 40
1 636 51
1 637 40
1 638 23
1 639 29
1 640 34
1 641 43
1 642 41
1 643 69
1 644 62
1 645 45
1 646 36
1 647 48
1 648 21
1 649 30
1 650 32
1 651 52
1 652 93
1 653 26
1 654 44
1 655 33
1 656 2573
1 657 50
1 658 74
1 659 97
1 660 4
1 661 46
1 662 45
1 663 62
1 664 35
1 665 18
1 666 48
1 667 44
1 668 4165
1 669 49
1 670 30
1 671 40
1 672 51
1 673 34
1 674 52
1 675 27
1 676 24
1 677 35
1 678 22
1 679 3161
1 680 49
1 681 29
1 682 39
1 683 59
1 684 51
1 685 65
1 686 30
1 687 58
1 688 46
1 689 56
1 690 21
1 691 19
1 692 47
1 693 61
1 694 58
1 695 41
1 696 51
1 697 32
1 698 22
1 699 55
1 700 4476
1 701 2713
1 702 26
1 703 60
1 704 47
1 705 28
1 706 31
1 707 5297
1 708 39
1 709 69
1 710 21
1 711 92
1 712 36
1 713 44
1 714 13464
1 715 59
1 716 68
1 717 40
1 718 38
1 719 51
1 720 43
1 721 28
1 722 48
1 723 29
1 724 59
1 725 50
1 726 46
1 727 63
1 728 49
1 729 753
1 730 32
1 731 42
1 732 17
1 733 49
1 734 32
1 735 61
1 736 31
1 737 80
1 738 16
1 739 42
1 740 40
1 741 64
1 742 39
1 743 60
1 744 79
1 745 59
1 746 24
1 747 78
1 748 38
1 749 1794
1 750 64
1 751 37
1 752 28
1 753 28
1 754 51
1 755 30
1 756 45
1 757 51
1 758 56
1 759 47
1 760 32
1 761 11
1 762 59
1 763 41
1 764 45
1 765 11
1 766 49
1 767 36
1 768 65
1 769 33
1 770 61
1 771 38
1 772 25
1 773 37
1 774 58
1 775 38
1 776 54
1 777 47
1 778 35
1 779 63
1 780 58
1 781 22
1 782 59
1 783 59
1 784 44
1 785 28
1 786 32
1 787 36
1 788 49
1 789 51
1 790 32
1 791 54
1 792 54
1 793 60
1 794 36
1 795 45
1 796 26
1 797 45
1 798 227
1 799 52
1 800 22
1 801 46
1 802 51
1 803 31
1 804 50
1 805 25
1 806 46
1 807 24
1 808 9946
1 809 39
1 810 37
1 811 52
1 812 44
1 813 39
1 814 22
1 815 25
1 816 31
1 817 67
1 818 523
1 819 58
1 820 32
1 821 71
1 822 17
1 823 26
1 824 58
1 825 26
1 826 72
1 827 29
1 828 53
1 829 43
1 830 42
1 831 67
1 832 37
1 833 5155
1 834 58
1 835 39
1 836 51
1 837 43
1 838 42
1 839 71
1 840 25
1 841 24500
1 842 1755
1 843 40
1 844 39
1 845 33
1 846 28
1 847 46
1 848 47
1 849 48
1 850 57
1 851 33
1 852 29
1 853 28
1 854 29
1 855 58
1 856 73
1 857 100
1 858 60
1 859 53
1 860 35
1 861 39
1 862 17
1 863 34
1 864 51
1 865 56
1 866 25
1 867 19
1 868 33
1 869 48
1 870 72
1 871 24
1 872 47
1 873 11
1 874 45
1 875 42
1 876 35
1 877 33
1 878 60
1 879 36
1 880 69
1 881 36
1 882 32
1 883 22
1 884 36
1 885 44
1 886 39
1 887 52
1 888 48
1 889 40
1 890 55
1 891 28
1 892 42
1 893 56
1 894 39
1 895 54
1 896 51
1 897 46
1 898 39
1 899 44
1 900 39
1 901 48
1 902 52
1 903 57
1 904 4487
1 905 51
1 906 42
1 907 35
1 908 77
1 909 26
1 910 46
1 911 36
1 912 55
1 913 26
1 914 53
1 915 47
1 916 50
1 917 51
1 918 35
1 919 43
1 920 58
1 921 53
1 922 34
1 923 49
1 924 71
1 925 24
1 926 29
1 927 39
1 928 6016
1 929 25
1 930 35
1 931 40
1 932 45
1 933 43
1 934 44
1 935 32
1 936 41
1 937 41
1 938 4518
1 939 31
1 940 42
1 941 33
1 942 91
1 943 36
1 944 61
1 945 27
1 946 31
1 947 42
1 948 39
1 949 19
1 950 32
1 951 53
1 952 29
1 953 22
1 954 16
1 955 90
1 956 44
1 957 41
1 958 34
1 959 54
1 960 2564
1 961 33
1 962 25
1 963 52
1 964 35
1 965 4373
1 966 74
1 967 43
1 968 45
1 969 40
1 970 68
1 971 57
1 972 53
1 973 57
1 974 71
1 975 82
1 976 24
1 977 18
1 978 20
1 979 20
1 980 70
1 981 31
1 982 19
1 983 50
1 984 15
1 985 51
1 986 82
1 987 52
1 988 26
1 989 39
1 990 19
1 991 61
1 992 42
1 993 41
1 994 73
1 995 29
1 996 1823
1 997 16
1 998 32
1 999 45
1 1000 89
1 1001 21
1 1002 74
1 1003 38
1 1004 28
1 1005 21
1 1006 24
1 1007 68
1 1008 29
1 1009 42
1 1010 41
1 1011 37
1 1012 43
1 1013 34
1 1014 80
1 1015 31
1 1016 32
1 1017 45
1 1018 13
1 1019 49
1 1020 27
1 1021 18
1 1022 50
1 1023 70
1 1024 51
1 1025 39
1 1026 5592
1 1027 39
1 1028 48
1 1029 44
1 1030 83
1 1031 64
1 1032 23
1 1033 32
1 1034 65
1 1035 37
1 1036 23
1 1037 59
1 1038 38
1 1039 50
1 1040 27
1 1041 90
1 1042 37
1 1043 50
1 1044 57
1 1045 50
1 1046 42
1 1047 54
1 1048 29
1 1049 42
1 1050 65
1 1051 23
1 1052 44
1 1053 61
1 1054 91
1 1055 22
1 1056 53
1 1057 22
1 1058 30
1 1059 66
1 1060 20
1 1061 63
1 1062 45
1 1063 32
1 1064 18
1 1065 55
1 1066 36
1 1067 40
1 1068 32
1 1069 8657
1 1070 26
1 1071 26
1 1072 27
1 1073 1070
1 1074 29
1 1075 51
1 1076 46
1 1077 80
1 1078 29
1 1079 35
1 1080 39
1 1081 37
1 1082 46
1 1083 31
1 1084 23
1 1085 49
1 1086 85
1 1087 62
1 1088 34
1 1089 59
1 1090 24
1 1091 70
1 1092 33
1 1093 63
1 1094 41
1 1095 23
1 1096 44
1 1097 29
1 1098 3981
1 1099 51
1 1100 23
1 1101 52
1 1102 29
1 1103 44
1 1104 50
1 1105 45
1 1106 30
1 1107 43
1 1108 42
1 1109 36
1 1110 28
1 1111 28
1 1112 50
1 1113 35
1 1114 47
1 1115 48
1 1116 5853
1 1117 36
1 1118 65
1 1119 34
1 1120 54
1 1121 30
1 1122 27
1 1123 49
1 1124 32
1 1125 43
1 1126 18
1 1127 82
1 1128 65
1 1129 35
1 1130 52
1 1131 58
1 1132 18
1 1133 4004
1 1134 78
1 1135 2972
1 1136 44
1 1137 33
1 1138 72
1 1139 37
1 1140 19
1 1141 42
1 1142 36
1 1143 46
1 1144 61
1 1145 43
1 1146 37
1 1147 14221
1 1148 56
1 1149 41
1 1150 47
1 1151 36
1 1152 45
1 1153 44
1 1154 45
1 1155 18
1 1156 32
1 1157 25
1 1158 34
1 1159 544
1 1160 41
1 1161 63
1 1162 14
1 1163 39
1 1164 71
1 1165 53
1 1166 28
1 1167 23
1 1168 43
1 1169 52
1 1170 41
1 1171 87
1 1172 17
1 1173 2883
1 1174 25
1 1175 60
1 1176 23
1 1177 46
1 1178 39
1 1179 20
1 1180 45
1 1181 43
1 1182 42
1 1183 27
1 1184 31
1 1185 32
1 1186 34
1 1187 28
1 1188 30
1 1189 32
1 1190 46
1 1191 27
1 1192 42
1 1193 27
1 1194 16
1 1195 36
1 1196 39
1 1197 44
1 1198 50
1 1199 79
1 1200 4144
1 1201 32
1 1202 42
1 1203 43
1 1204 30
1 1205 5014
1 1206 37
1 1207 27
1 1208 21
1 1209 37
1 1210 31
1 1211 35
1 1212 60
1 1213 52
1 1214 29
1 1215 36
1 1216 49
1 1217 43
1 1218 38
1 1219 51
1 1220 57
1 1221 42
1 1222 57
1 1223 31
1 1224 43
1 1225 31
1 1226 21
1 1227 22
1 1228 43
1 1229 30
1 1230 73
1 1231 3737
1 1232 35
1 1233 49
1 1234 57
1 1235 49
1 1236 149
1 1237 34
1 1238 66
1 1239 61
1 1240 56
1 1241 45
1 1242 44
1 1243 31
1 1244 48
1 1245 30
1 1246 45
1 1247 30
1 1248 24
1 1249 42
1 1250 28
1 1251 70
1 1252 85
1 1253 34
1 1254 71
1 1255 36
1 1256 14
1 1257 28
1 1258 45
1 1259 43
1 1260 71
1 1261 2746
1 1262 38
1 1263 63
1 1264 27
1 1265 30
1 1266 31
1 1267 31
1 1268 71
1 1269 41
1 1270 44
1 1271 23
1 1272 31
1 1273 47
1 1274 48
1 1275 34
1 1276 37
1 1277 36
1 1278 50
1 1279 15
1 1280 74
1 1281 8
1 1282 37
1 1283 24
1 1284 41
1 1285 891
1 1286 58
1 1287 36
1 1288 46
1 1289 54
1 1290 42
1 1291 35
1 1292 26
1 1293 61
1 1294 23
1 1295 17
1 1296 28
1 1297 20
1 1298 52
1 1299 90
1 1300 91
1 1301 42
1 1302 64
1 1303 17
1 1304 34
1 1305 48
1 1306 22
1 1307 54
1 1308 1567
1 1309 2923
1 1310 7574
1 1311 20
1 1312 46
1 1313 31
1 1314 33
1 1315 28
1 1316 27
1 1317 66
1 1318 46
1 1319 35
1 1320 32
1 1321 35
1 1322 46
1 1323 48
1 1324 6652
1 1325 30
1 1326 44
1 1327 54
1 1328 35
1 1329 47
1 1330 52
1 1331 44
1 1332 33
1 1333 41
1 1334 39
1 1335 50
1 1336 61
1 1337 45
1 1338 43
1 1339 21
1 1340 38
1 1341 6234
1 1342 48
1 1343 80
1 1344 60
1 1345 23
1 1346 52
1 1347 52
1 1348 19
1 1349 21
1 1350 44
1 1351 63
1 1352 27
1 1353 30
1 1354 32
1 1355 68
1 1356 43
1 1357 25
1 1358 6968
1 1359 51
1 1360 23
1 1361 19
1 1362 37
1 1363 39
1 1364 13
1 1365 4273
1 1366 20
1 1367 57
1 1368 39
1 1369 38
1 1370 32
1 1371 57
1 1372 29
1 1373 26
1 1374 51
1 1375 59
1 1376 36
1 1377 53
1 1378 30
1 1379 57
1 1380 1848
1 1381 56
1 1382 111
1 1383 54
1 1384 31
1 1385 47
1 1386 29
1 1387 39
1 1388 36
1 1389 58
1 1390 19
1 1391 31
1 1392 74
1 1393 38
1 1394 30
1 1395 44
1 1396 58
1 1397 31
1 1398 13
1 1399 21
1 1400 46
1 1401 59
1 1402 28
1 1403 42
1 1404 31
1 1405 33
1 1406 67
1 1407 45
1 1408 31
1 1409 32
1 1410 31
1 1411 9527
1 1412 35
1 1413 37
1 1414 45
1 1415 47
1 1416 52
1 1417 36
1 1418 22
1 1419 680
1 1420 36
1 1421 22
1 1422 51
1 1423 28
1 1424 42
1 1425 53
1 1426 39
1 1427 70
1 1428 18
1 1429 35
1 1430 34
1 1431 49
1 1432 38
1 1433 35
1 1434 28
1 1435 37
1 1436 29
1 1437 22
1 1438 23
1 1439 24
1 1440 49
1 1441 35
1 1442 50
1 1443 905
1 1444 28
1 1445 66
1 1446 9
1 1447 62
1 1448 17
1 1449 51
1 1450 44
1 1451 45
1 1452 32
1 1453 3993
1 1454 32
1 1455 28
1 1456 37
1 1457 63
1 1458 26
1 1459 37
1 1460 22
1 1461 13
1 1462 48
1 1463 44
1 1464 43
1 1465 70
1 1466 39
1 1467 28
1 1468 43
1 1469 5
1 1470 41
1 1471 23
1 1472 38
1 1473 36
1 1474 45
1 1475 60
1 1476 49
1 1477 19
1 1478 24
1 1479 6453
1 1480 48
1 1481 32
1 1482 65
1 1483 48
1 1484 35
1 1485 45
1 1486 73
1 1487 35
1 1488 9977
1 1489 56
1 1490 64
1 1491 40
1 1492 49
1 1493 32
1 1494 58
1 1495 28
1 1496 37
1 1497 42
1 1498 20
1 1499 49
1 1500 30
1 1501 37
1 1502 18
1 1503 41
1 1504 60
1 1505 61
1 1506 28
1 1507 25
1 1508 27
1 1509 2306
1 1510 25
1 1511 43
1 1512 35
1 1513 5255
1 1514 33
1 1515 30
1 1516 26
1 1517 22
1 1518 48
1 1519 47
1 1520 69
1 1521 39
1 1522 56
1 1523 43
1 1524 36
1 1525 61
1 1526 40
1 1527 36
1 1528 50
1 1529 77
1 1530 43
1 1531 33
1 1532 46
1 1533 42
1 1534 49
1 1535 54
1 1536 33
1 1537 22
1 1538 3829
1 1539 11
1 1540 61
1 1541 42
1 1542 69
1 1543 30
1 1544 28
1 1545 34
1 1546 39
1 1547 50
1 1548 28
1 1549 29
1 1550 52
1 1551 7898
1 1552 1204
1 1553 20
1 1554 30
1 1555 41
1 1556 26
1 1557 35
1 1558 62
1 1559 33
1 1560 19
1 1561 38
1 1562 30
1 1563 122
1 1564 31
1 1565 56
1 1566 41
1 1567 35
1 1568 30
1 1569 40
1 1570 48
1 1571 59
1 1572 41
1 1573 41
1 1574 49
1 1575 219
1 1576 31
1 1577 73
1 1578 40
1 1579 49
1 1580 28
1 1581 30
1 1582 49
1 1583 41
1 1584 43
1 1585 45
1 1586 23
1 1587 69
1 1588 51
1 1589 50
1 1590 36
1 1591 35
1 1592 41
1 1593 43
1 1594 31
1 1595 34
1 1596 30
1 1597 65
1 1598 11
1 1599 80
1 1600 41
1 1601 15
1 1602 35
1 1603 59
1 1604 35
1 1605 35
1 1606 42
1 1607 40
1 1608 58
1 1609 48
1 1610 35
1 1611 4000
1 1612 41
1 1613 44
1 1614 42
1 1615 41
1 1616 50
1 1617 67
1 1618 3143
1 1619 41
1 1620 36
1 1621 54
1 1622 27
1 1623 36
1 1624 36
1 1625 20
1 1626 35
1 1627 13732
1 1628 65
1 1629 48
1 1630 47
1 1631 25
1 1632 26
1 1633 18
1 1634 5146
1 1635 29
1 1636 54
1 1637 29
1 1638 3857
1 1639 64
1 1640 62
1 1641 34
1 1642 44
1 1643 40
1 1644 22
1 1645 47
1 1646 57
1 1647 37
1 1648 31
1 1649 24
1 1650 35
1 1651 23
1 1652 49
1 1653 43
1 1654 36
1 1655 80
1 1656 35
1 1657 2229
1 1658 20
1 1659 65
1 1660 48
1 1661 62
1 1662 36
1 1663 40
1 1664 51
1 1665 64
1 1666 36
1 1667 54
1 1668 55
1 1669 17
1 1670 22
1 1671 25
1 1672 61
1 1673 26
1 1674 36
1 1675 42
1 1676 32
1 1677 14
1 1678 16
1 1679 54
1 1680 25
1 1681 40
1 1682 48
1 1683 27
1 1684 33
1 1685 100
1 1686 34
1 1687 35
1 1688 55
1 1689 50
1 1690 20
1 1691 19
1 1692 27
1 1693 46
1 1694 1049
1 1695 37
1 1696 24
1 1697 53
1 1698 26
1 1699 21
1 1700 43
1 1701 40
1 1702 31
1 1703 18
1 1704 18
1 1705 10
1 1706 49
1 1707 34
1 1708 33
1 1709 34
1 1710 41
1 1711 11
1 1712 59
1 1713 25
1 1714 25
1 1715 37
1 1716 52
1 1717 31
1 1718 41
1 1719 39
1 1720 41
1 1721 60
1 1722 6354
1 1723 19
1 1724 58
1 1725 37
1 1726 22
1 1727 121
1 1728 50
1 1729 48
1 1730 40
1 1731 24
1 1732 35
1 1733 31
1 1734 44
1 1735 81
1 1736 46
1 1737 44
1 1738 50
1 1739 37
1 1740 58
1 1741 27
1 1742 33
1 1743 25
1 1744 29
1 1745 33
1 1746 29
1 1747 30
1 1748 31
1 1749 70
1 1750 54
1 1751 16
1 1752 58
1 1753 47
1 1754 74
1 1755 146
1 1756 33
1 1757 21680
1 1758 23
1 1759 23
1 1760 55
1 1761 76
1 1762 76
1 1763 45
1 1764 34
1 1765 31
1 1766 28
1 1767 19
1 1768 45
1 1769 40
1 1770 6204
1 1771 34
1 1772 34
1 1773 24
1 1774 27
1 1775 22
1 1776 45
1 1777 41
1 1778 7426
1 1779 43
1 1780 15
1 1781 46
1 1782 41
1 1783 35
1 1784 24
1 1785 21
1 1786 53
1 1787 34
1 1788 18
1 1789 94
1 1790 61
1 1791 27
1 1792 34
1 1793 53
1 1794 52
1 1795 45
1 1796 28
1 1797 23
1 1798 42
1 1799 14
1 1800 46
1 1801 35
1 1802 21
1 1803 45
1 1804 38
1 1805 23
1 1806 36
1 1807 22
1 1808 27
1 1809 40
1 1810 35
1 1811 30
1 1812 30
1 1813 38
1 1814 31
1 1815 51
1 1816 156
1 1817 27
1 1818 25
1 1819 36
1 1820 53
1 1821 25
1 1822 32
1 1823 63
1 1824 34
1 1825 57
1 1826 18
1 1827 43
1 1828 29
1 1829 59
1 1830 75
1 1831 41
1 1832 23
1 1833 37
1 1834 663
1 1835 23
1 1836 14
1 1837 77
1 1838 25
1 1839 47
1 1840 22
1 1841 45
1 1842 30
1 1843 36
1 1844 70
1 1845 45
1 1846 38
1 1847 45
1 1848 45
1 1849 2127
1 1850 25
1 1851 44
1 1852 30
1 1853 30
1 1854 56
1 1855 31
1 1856 38
1 1857 51
1 1858 37
1 1859 40
1 1860 594
1 1861 22
1 1862 59
1 1863 35
1 1864 18
1 1865 21
1 1866 53
1 1867 37
1 1868 32
1 1869 42
1 1870 24
1 1871 43
1 1872 31
1 1873 15
1 1874 42
1 1875 53
1 1876 27
1 1877 51
1 1878 941
1 1879 23
1 1880 31
1 1881 31
1 1882 7
1 1883 43
1 1884 38
1 1885 45
1 1886 31
1 1887 23
1 1888 29
1 1889 28
1 1890 44
1 1891 55
1 1892 58
1 1893 33
1 1894 21
1 1895 19
1 1896 36
1 1897 52
1 1898 29
1 1899 18
1 1900 33
1 1901 49
1 1902 38
1 1903 44
1 1904 52
1 1905 20
1 1906 3069
1 1907 36
1 1908 34
1 1909 45
1 1910 43
1 1911 29
1 1912 35
1 1913 45
1 1914 29
1 1915 22
1 1916 31
1 1917 44
1 1918 36
1 1919 20
1 1920 594
1 1921 47
1 1922 5338
1 1923 29
1 1924 30
1 1925 41
1 1926 30
1 1927 36
1 1928 38
1 1929 16
1 1930 43
1 1931 34
1 1932 6285
1 1933 31
1 1934 45
1 1935 48
1 1936 39
1 1937 60
1 1938 51
1 1939 34
1 1940 68
1 1941 47
1 1942 51
1 1943 23
1 1944 25
1 1945 75
1 1946 5659
1 1947 71
1 1948 951
1 1949 124
1 1950 20
1 1951 32
1 1952 35
1 1953 26
1 1954 47
1 1955 38
1 1956 40
1 1957 31
1 1958 5033
1 1959 27
1 1960 36
1 1961 22
1 1962 30
1 1963 25
1 1964 28
1 1965 84
1 1966 33
1 1967 31
1 1968 56
1 1969 40
1 1970 40
1 1971 53
1 1972 20
1 1973 22
1 1974 28
1 1975 28
1 1976 22
1 1977 42
1 1978 62
1 1979 48
1 1980 43
1 1981 45
1 1982 38
1 1983 8791
1 1984 24
1 1985 25
1 1986 32
1 1987 22
1 1988 55
1 1989 25
1 1990 25
1 1991 54
1 1992 62
1 1993 42
1 1994 54
1 1995 35
1 1996 43
1 1997 43
1 1998 50
1 1999 16
1 2000 52
1 2001 47
1 2002 57
1 2003 36
1 2004 36
1 2005 39
1 2006 66
1 2007 30
1 2008 7
1 2009 28
1 2010 28
1 2011 43
1 2012 27
1 2013 37
1 2014 21
1 2015 63
1 2016 21
1 2017 49
1 2018 24
1 2019 52
1 2020 78
1 2021 40
1 2022 44
1 2023 53
1 2024 20
1 2025 48
1 2026 60
1 2027 45
1 2028 39
1 2029 20
1 2030 51
1 2031 34
1 2032 34
1 2033 38
1 2034 14
1 2035 30
1 2036 57
1 2037 21
1 2038 42
1 2039 39
1 2040 61
1 2041 737
1 2042 31
1 2043 21
1 2044 45
1 2045 27
1 2046 31
1 2047 47
1 2048 44
1 2049 55
1 2050 33
1 2051 49
1 2052 24
1 2053 29
1 2054 32
1 2055 12
1 2056 61
1 2057 60
1 2058 21
1 2059 15
1 2060 29
1 2061 21
1 2062 39
1 2063 62
1 2064 15
1 2065 118
1 2066 44
1 2067 29
1 2068 40
1 2069 28
1 2070 50
1 2071 39
1 2072 14
1 2073 36
1 2074 35
1 2075 24
1 2076 22
1 2077 3058
1 2078 42
1 2079 25
1 2080 112
1 2081 30
1 2082 37
1 2083 14
1 2084 55
1 2085 19
1 2086 43
1 2087 40
1 2088 36
1 2089 33
1 2090 2313
1 2091 29
1 2092 27
1 2093 43
1 2094 45
1 2095 2
1 2096 60
1 2097 33
1 2098 50
1 2099 35
1 2100 68
1 2101 22
1 2102 32
1 2103 41
1 2104 21
1 2105 22
1 2106 39
1 2107 35
1 2108 44
1 2109 29
1 2110 33
1 2111 29
1 2112 51
1 2113 40
1 2114 55
1 2115 12
1 2116 33
1 2117 44
1 2118 33
1 2119 45
1 2120 67
1 2121 49
1 2122 16
1 2123 43
1 2124 64
1 2125 23
1 2126 42
1 2127 31
1 2128 18
1 2129 40
1 2130 41
1 2131 31
1 2132 31
1 2133 59
1 2134 26
1 2135 37
1 2136 46
1 2137 25
1 2138 39
1 2139 47
1 2140 39
1 2141 34
1 2142 43
1 2143 41
1 2144 95
1 2145 47
1 2146 33
1 2147 44
1 2148 37
1 2149 43
1 2150 44
1 2151 31
1 2152 35
1 2153 41
1 2154 25
1 2155 26
1 2156 43
1 2157 51
1 2158 48
1 2159 31
1 2160 1945
1 2161 5
1 2162 51
1 2163 32
1 2164 32
1 2165 38
1 2166 51
1 2167 45
1 2168 26
1 2169 68
1 2170 16
1 2171 38
1 2172 41
1 2173 7343
1 2174 61
1 2175 47
1 2176 31
1 2177 709
1 2178 24
1 2179 30
1 2180 25
1 2181 52
1 2182 12
1 2183 58
1 2184 15
1 2185 68
1 2186 52
1 2187 37
1 2188 39
1 2189 38
1 2190 43
1 2191 50
1 2192 32
1 2193 61
1 2194 67
1 2195 50
1 2196 37
1 2197 40
1 2198 27
1 2199 39
1 2200 50
1 2201 36
1 2202 42
1 2203 28
1 2204 3202
1 2205 8154
1 2206 30
1 2207 2040
1 2208 1443
1 2209 32
1 2210 5621
1 2211 53
1 2212 3725
1 2213 30
1 2214 52
1 2215 51
1 2216 32
1 2217 28
1 2218 41
1 2219 44
1 2220 5850
1 2221 36
1 2222 29
1 2223 31
1 2224 19
1 2225 2302
1 2226 30
1 2227 48
1 2228 18
1 2229 19
1 2230 60
1 2231 40
1 2232 4625
1 2233 34
1 2234 26
1 2235 37
1 2236 38
1 2237 46
1 2238 24
1 2239 57
1 2240 30
1 2241 15
1 2242 44
1 2243 25
1 2244 34
1 2245 43
1 2246 36
1 2247 43
1 2248 52
1 2249 49
1 2250 34
1 2251 25
1 2252 34
1 2253 39
1 2254 23
1 2255 49
1 2256 65
1 2257 27
1 2258 17
1 2259 24
1 2260 23
1 2261 17
1 2262 47
1 2263 58
1 2264 19
1 2265 59
1 2266 19
1 2267 45
1 2268 74
1 2269 52
1 2270 27
1 2271 47
1 2272 4993
1 2273 58
1 2274 27
1 2275 35
1 2276 22
1 2277 16
1 2278 5352
1 2279 36
1 2280 40
1 2281 33
1 2282 38
1 2283 40
1 2284 21
1 2285 46
1 2286 27
1 2287 50
1 2288 27
1 2289 68
1 2290 1059
1 2291 22
1 2292 40
1 2293 25
1 2294 12
1 2295 49
1 2296 42
1 2297 45
1 2298 48
1 2299 30
1 2300 37
1 2301 24
1 2302 41
1 2303 25
1 2304 34
1 2305 64
1 2306 19
1 2307 43
1 2308 20
1 2309 54
1 2310 42
1 2311 50
1 2312 42
1 2313 26
1 2314 24
1 2315 44
1 2316 43
1 2317 42
1 2318 16
1 2319 37
1 2320 1148
1 2321 7110
1 2322 52
1 2323 44
1 2324 81
1 2325 43
1 2326 38
1 2327 60
1 2328 37
1 2329 60
1 2330 17
1 2331 48
1 2332 45
1 2333 3391
1 2334 104
1 2335 4
1 2336 47
1 2337 22
1 2338 36
1 2339 39
1 2340 41
1 2341 33
1 2342 41
1 2343 26
1 2344 73
1 2345 31
1 2346 2554
1 2347 40
1 2348 46
1 2349 47
1 2350 38
1 2351 33
1 2352 23
1 2353 16
1 2354 46
1 2355 41
1 2356 25
1 2357 57
1 2358 37
1 2359 34
1 2360 20
1 2361 746
1 2362 31
1 2363 58
1 2364 17
1 2365 37
1 2366 5849
1 2367 24
1 2368 42
1 2369 23
1 2370 22
1 2371 44
1 2372 53
1 2373 30
1 2374 59
1 2375 38
1 2376 42
1 2377 39
1 2378 58
1 2379 39
1 2380 50
1 2381 50
1 2382 45
1 2383 18
1 2384 21
1 2385 40
1 2386 45
1 2387 27
1 2388 28
1 2389 14
1 2390 38
1 2391 104
1 2392 274
1 2393 33
1 2394 57
1 2395 33
1 2396 60
1 2397 38
1 2398 2787
1 2399 52
1 2400 41
1 2401 7034
1 2402 38
1 2403 26
1 2404 33
1 2405 43
1 2406 50
1 2407 31
1 2408 39
1 2409 18
1 2410 1730
1 2411 55
1 2412 23
1 2413 40
1 2414 36
1 2415 41
1 2416 35
1 2417 9
1 2418 16
1 2419 35
1 2420 33
1 2421 43
1 2422 2977
1 2423 34
1 2424 37
1 2425 126
1 2426 57
1 2427 44
1 2428 37
1 2429 48
1 2430 38
1 2431 50
1 2432 17
1 2433 52
1 2434 37
1 2435 6562
1 2436 39
1 2437 29
1 2438 69
1 2439 36
1 2440 60
1 2441 49
1 2442 22
1 2443 48
1 2444 43
1 2445 15
1 2446 45
1 2447 23
1 2448 39
1 2449 37
1 2450 45
1 2451 44
1 2452 28
1 2453 27
1 2454 2309
1 2455 2558
1 2456 35
1 2457 23
1 2458 18
1 2459 22
1 2460 24
1 2461 14
1 2462 1564
1 2463 30
1 2464 50
1 2465 35
1 2466 32
1 2467 32
1 2468 55
1 2469 23
1 2470 37
1 2471 24
1 2472 14
1 2473 47
1 2474 23
1 2475 42
1 2476 31
1 2477 35
1 2478 30
1 2479 59
1 2480 54
1 2481 21
1 2482 35
1 2483 7457
1 2484 53
1 2485 38
1 2486 20
1 2487 42
1 2488 46
1 2489 5830
1 2490 3576
1 2491 25
1 2492 34
1 2493 34
1 2494 54
1 2495 60
1 2496 31
1 2497 70
1 2498 30
1 2499 37
1 2500 136
1 2501 52
1 2502 61
1 2503 11
1 2504 36
1 2505 65
1 2506 36
1 2507 364
1 2508 58
1 2509 326
1 2510 36
1 2511 22
1 2512 17
1 2513 37
1 2514 30
1 2515 31
1 2516 42
1 2517 22
1 2518 39
1 2519 81
1 2520 25
1 2521 31
1 2522 22
1 2523 32
1 2524 52
1 2525 37
1 2526 15
1 2527 31
1 2528 19
1 2529 29
1 2530 20
1 2531 20
1 2532 606
1 2533 29
1 2534 21
1 2535 6809
1 2536 54
1 2537 36
1 2538 35
1 2539 28
1 2540 33
1 2541 45
1 2542 41
1 2543 23
1 2544 42
1 2545 17
1 2546 30
1 2547 26
1 2548 140
1 2549 24
1 2550 33
1 2551 28
1 2552 47
1 2553 36
1 2554 47
1 2555 43
1 2556 33
1 2557 43
1 2558 25
1 2559 167
1 2560 29
1 2561 23
1 2562 26
1 2563 49
1 2564 314
1 2565 20
1 2566 17
1 2567 48
1 2568 28
1 2569 5365
1 2570 31
1 2571 23
1 2572 37
1 2573 42
1 2574 29
1 2575 44
1 2576 33
1 2577 21
1 2578 25
1 2579 40
1 2580 59
1 2581 37
1 2582 31
1 2583 69
1 2584 24
1 2585 24
1 2586 56
1 2587 28
1 2588 45
1 2589 34
1 2590 41
1 2591 15
1 2592 38
1 2593 42
1 2594 19
1 2595 21
1 2596 39
1 2597 64
1 2598 35
1 2599 42
1 2600 44
1 2601 49
1 2602 32
1 2603 23
1 2604 33
1 2605 29
1 2606 75
1 2607 25
1 2608 9
1 2609 21
1 2610 27
1 2611 45
1 2612 1227
1 2613 22
1 2614 43
1 2615 49
1 2616 40
1 2617 2050
1 2618 21
1 2619 1214
1 2620 1063
1 2621 29
1 2622 49
1 2623 19
1 2624 26
1 2625 85
1 2626 36
1 2627 30
1 2628 31
1 2629 31
1 2630 52
1 2631 40
1 2632 20
1 2633 52
1 2634 42
1 2635 40
1 2636 39
1 2637 32
1 2638 65
1 2639 26
1 2640 34
1 2641 58
1 2642 43
1 2643 106
1 2644 35
1 2645 39
1 2646 34
1 2647 39
1 2648 16
1 2649 40
1 2650 31
1 2651 55
1 2652 29
1 2653 21
1 2654 30
1 2655 47
1 2656 57
1 2657 39
1 2658 41
1 2659 48
1 2660 32
1 2661 37
1 2662 47
1 2663 42
1 2664 15
1 2665 7
1 2666 29
1 2667 17
1 2668 3
1 2669 24
1 2670 32
1 2671 59
1 2672 9301
1 2673 27
1 2674 22
1 2675 37
1 2676 73
1 2677 31
1 2678 57
1 2679 32
1 2680 17
1 2681 38
1 2682 49
1 2683 37
1 2684 14
1 2685 35
1 2686 51
1 2687 3296
1 2688 22
1 2689 19
1 2690 37
1 2691 2901
1 2692 44
1 2693 26
1 2694 28
1 2695 16
1 2696 33
1 2697 36
1 2698 36
1 2699 58
1 2700 34
1 2701 20
1 2702 35
1 2703 2262
1 2704 55
1 2705 30
1 2706 25
1 2707 40
1 2708 16
1 2709 46
1 2710 23
1 2711 61
1 2712 47
1 2713 44
1 2714 40
1 2715 34
1 2716 35
1 2717 42
1 2718 9
1 2719 69
1 2720 37
1 2721 42
1 2722 57
1 2723 39
1 2724 33
1 2725 19
1 2726 37
1 2727 48
1 2728 61
1 2729 42
1 2730 21
1 2731 39
1 2732 16
1 2733 46
1 2734 2397
1 2735 69
1 2736 22
1 2737 46
1 2738 14
1 2739 34
1 2740 51
1 2741 71
1 2742 39
1 2743 25
1 2744 41
1 2745 33
1 2746 14
1 2747 28
1 2748 46
1 2749 23
1 2750 20
1 2751 19
1 2752 251
1 2753 35
1 2754 35
1 2755 52
1 2756 16
1 2757 32
1 2758 14
1 2759 73
1 2760 27
1 2761 21
1 2762 41
1 2763 15
1 2764 33
1 2765 32
1 2766 26
1 2767 64
1 2768 44
1 2769 31
1 2770 2937
1 2771 63
1 2772 25
1 2773 65
1 2774 20
1 2775 30
1 2776 39
1 2777 28
1 2778 28
1 2779 23
1 2780 70
1 2781 29
1 2782 20
1 2783 42
1 2784 42
1 2785 44
1 2786 21
1 2787 37
1 2788 32
1 2789 21
1 2790 10
1 2791 42
1 2792 13
1 2793 43
1 2794 16
1 2795 61
1 2796 67
1 2797 38
1 2798 78
1 2799 12
1 2800 50
1 2801 47
1 2802 47
1 2803 39
1 2804 4
1 2805 28
1 2806 30
1 2807 25
1 2808 37
1 2809 34
1 2810 40
1 2811 35
1 2812 26
1 2813 34
1 2814 47
1 2815 42
1 2816 148
1 2817 20
1 2818 3
1 2819 55
1 2820 16
1 2821 43
1 2822 5454
1 2823 38
1 2824 15
1 2825 18
1 2826 16
1 2827 33
1 2828 63
1 2829 44
1 2830 28
1 2831 29
1 2832 29
1 2833 21
1 2834 17
1 2835 46
1 2836 19
1 2837 60
1 2838 50
1 2839 46
1 2840 24
1 2841 45
1 2842 47
1 2843 17
1 2844 26
1 2845 29
1 2846 7419
1 2847 26
1 2848 30
1 2849 86
1 2850 40
1 2851 34
1 2852 22
1 2853 51
1 2854 32
1 2855 41
1 2856 41
1 2857 22
1 2858 42
1 2859 19
1 2860 34
1 2861 47
1 2862 15
1 2863 28
1 2864 36
1 2865 25
1 2866 50
1 2867 22
1 2868 19
1 2869 25
1 2870 46
1 2871 37
1 2872 34
1 2873 15
1 2874 25
1 2875 36
1 2876 26
1 2877 46
1 2878 36
1 2879 53
1 2880 71
1 2881 39
1 2882 50
1 2883 34
1 2884 29
1 2885 21
1 2886 38
1 2887 39
1 2888 34
1 2889 37
1 2890 47
1 2891 34
1 2892 44
1 2893 19
1 2894 3445
1 2895 41
1 2896 45
1 2897 54
1 2898 39
1 2899 55
1 2900 25
1 2901 18
1 2902 36
1 2903 46
1 2904 33
1 2905 41
1 2906 40
1 2907 29
1 2908 42
1 2909 1242
1 2910 33
1 2911 32
1 2912 8391
1 2913 22
1 2914 42
1 2915 26
1 2916 41
1 2917 46
1 2918 48
1 2919 19
1 2920 57
1 2921 76
1 2922 61
1 2923 16
1 2924 35
1 2925 34
1 2926 60
1 2927 115
1 2928 43
1 2929 43
1 2930 33
1 2931 27
1 2932 13
1 2933 86
1 2934 40
1 2935 34
1 2936 25
1 2937 22
1 2938 36
1 2939 20
1 2940 26
1 2941 34
1 2942 33
1 2943 21
1 2944 27
1 2945 22
1 2946 43
1 2947 39
1 2948 29
1 2949 20
1 2950 42
1 2951 41
1 2952 15
1 2953 23
1 2954 32
1 2955 46
1 2956 15
1 2957 13
1 2958 41
1 2959 22
1 2960 38
1 2961 38
1 2962 33
1 2963 22
1 2964 44
1 2965 17
1 2966 20
1 2967 36
1 2968 25
1 2969 45
1 2970 45
1 2971 31
1 2972 22
1 2973 23
1 2974 24
1 2975 21
1 2976 26
1 2977 21
1 2978 44
1 2979 37
1 2980 32
1 2981 49
1 2982 23
1 2983 31
1 2984 20
1 2985 15
1 2986 22
1 2987 3
1 2988 15
1 2989 16
1 2990 32
1 2991 31
1 2992 40
1 2993 34
1 2994 36
1 2995 31
1 2996 38
1 2997 480
1 2998 57
1 2999 28
1 3000 47
1 3001 43
1 3002 27
1 3003 36
1 3004 42
1 3005 28
1 3006 23
1 3007 59
1 3008 48
1 3009 25
1 3010 22
1 3011 14
1 3012 39
1 3013 46
1 3014 36
1 3015 50
1 3016 19
1 3017 36
1 3018 32
1 3019 49
1 3020 18
1 3021 25
1 3022 31
1 3023 38
1 3024 25
1 3025 2733
1 3026 38
1 3027 47
1 3028 22
1 3029 22
1 3030 30
1 3031 50
1 3032 49
1 3033 82
1 3034 22
1 3035 27
1 3036 88
1 3037 24
1 3038 50
1 3039 21
1 3040 22
1 3041 24
1 3042 46
1 3043 50
1 3044 34
1 3045 44
1 3046 23
1 3047 40
1 3048 29
1 3049 51
1 3050 4501
1 3051 56
1 3052 48
1 3053 35
1 3054 13
1 3055 30
1 3056 43
1 3057 11
1 3058 44
1 3059 25
1 3060 31
1 3061 26
1 3062 25
1 3063 55
1 3064 39
1 3065 75
1 3066 15
1 3067 33
1 3068 24
1 3069 24
1 3070 29
1 3071 52
1 3072 48
1 3073 11
1 3074 38
1 3075 24
1 3076 42
1 3077 27
1 3078 28
1 3079 33
1 3080 42
1 3081 56
1 3082 21
1 3083 40
1 3084 40
1 3085 24
1 3086 2683
1 3087 30
1 3088 3
1 3089 23
1 3090 42
1 3091 38
1 3092 20
1 3093 40
1 3094 34
1 3095 34
1 3096 21
1 3097 59
1 3098 28
1 3099 19
1 3100 38
1 3101 28
1 3102 57
1 3103 41
1 3104 24
1 3105 51
1 3106 28
1 3107 39
1 3108 31
1 3109 33
1 3110 49
1 3111 40
1 3112 49
1 3113 44
1 3114 36
1 3115 45
1 3116 26
1 3117 43
1 3118 2523
1 3119 48
1 3120 68
1 3121 41
1 3122 46
1 3123 25
1 3124 52
1 3125 44
1 3126 23
1 3127 28
1 3128 32
1 3129 22
1 3130 39
1 3131 46
1 3132 356
1 3133 45
1 3134 53
1 3135 26
1 3136 45
1 3137 53
1 3138 17
1 3139 33
1 3140 27
1 3141 63
1 3142 43
1 3143 76
1 3144 23
1 3145 38
1 3146 74
1 3147 25
1 3148 20
1 3149 36
1 3150 31
1 3151 21
1 3152 1401
1 3153 44
1 3154 16
1 3155 45
1 3156 7
1 3157 29
1 3158 2143
1 3159 49
1 3160 28
1 3161 33
1 3162 32
1 3163 55
1 3164 82
1 3165 28
1 3166 38
1 3167 27
1 3168 34
1 3169 47
1 3170 26
1 3171 37
1 3172 29
1 3173 49
1 3174 55
1 3175 3630
1 3176 2975
1 3177 31
1 3178 29
1 3179 37
1 3180 21
1 3181 33
1 3182 75
1 3183 19
1 3184 28
1 3185 50
1 3186 17
1 3187 34
1 3188 29
1 3189 44
1 3190 33
1 3191 31
1 3192 42
1 3193 29
1 3194 37
1 3195 31
1 3196 31
1 3197 36
1 3198 27
1 3199 28
1 3200 62
1 3201 45
1 3202 59
1 3203 2247
1 3204 17
1 3205 36
1 3206 45
1 3207 41
1 3208 35
1 3209 14
1 3210 24
1 3211 58
1 3212 25
1 3213 29
1 3214 15
1 3215 75
1 3216 46
1 3217 47
1 3218 32
1 3219 37
1 3220 36
1 3221 26
1 3222 51
1 3223 2649
1 3224 34
1 3225 28
1 3226 21
1 3227 30
1 3228 45
1 3229 21
1 3230 16
1 3231 43
1 3232 18
1 3233 2752
1 3234 33
1 3235 53
1 3236 37
1 3237 20
1 3238 11
1 3239 42
1 3240 24
1 3241 56
1 3242 50
1 3243 28
1 3244 53
1 3245 37
1 3246 4027
1 3247 35
1 3248 25
1 3249 24
1 3250 30
1 3251 78
1 3252 43
1 3253 30
1 3254 29
1 3255 49
1 3256 37
1 3257 28
1 3258 3010
1 3259 38
1 3260 19
1 3261 34
1 3262 18
1 3263 35
1 3264 30
1 3265 32
1 3266 50
1 3267 212
1 3268 31
1 3269 50
1 3270 21
1 3271 21
1 3272 40
1 3273 28
1 3274 43
1 3275 24
1 3276 90
1 3277 24
1 3278 53
1 3279 545
1 3280 15
1 3281 47
1 3282 39
1 3283 11
1 3284 33
1 3285 14
1 3286 22
1 3287 43
1 3288 44
1 3289 18
1 3290 61
1 3291 17
1 3292 41
1 3293 26
1 3294 33
1 3295 2928
1 3296 7556
1 3297 32
1 3298 36
1 3299 32
1 3300 44
1 3301 39
1 3302 61
1 3303 39
1 3304 35
1 3305 30
1 3306 45
1 3307 33
1 3308 39
1 3309 37
1 3310 22
1 3311 23
1 3312 97
1 3313 21
1 3314 35
1 3315 37
1 3316 31
1 3317 30
1 3318 44
1 3319 37
1 3320 49
1 3321 27
1 3322 68
1 3323 7436
1 3324 44
1 3325 35
1 3326 14
1 3327 16
1 3328 26
1 3329 33
1 3330 38
1 3331 47
1 3332 34
1 3333 41
1 3334 22
1 3335 46
1 3336 43
1 3337 17
1 3338 31
1 3339 43
1 3340 23
1 3341 35
1 3342 52
1 3343 30
1 3344 15
1 3345 33
1 3346 282
1 3347 4942
1 3348 36
1 3349 82
1 3350 21
1 3351 34
1 3352 20
1 3353 19
1 3354 24
1 3355 65
1 3356 39
1 3357 32
1 3358 19
1 3359 32
1 3360 46
1 3361 72
1 3362 29
1 3363 41
1 3364 32
1 3365 54
1 3366 41
1 3367 13
1 3368 33
1 3369 2
1 3370 39
1 3371 23
1 3372 20
1 3373 54
1 3374 37
1 3375 29
1 3376 35
1 3377 18
1 3378 17
1 3379 18
1 3380 35
1 3381 41
1 3382 34
1 3383 38
1 3384 24
1 3385 40
1 3386 36
1 3387 50
1 3388 72
1 3389 30
1 3390 34
1 3391 37
1 3392 81
1 3393 16
1 3394 43
1 3395 19
1 3396 40
1 3397 18
1 3398 52
1 3399 21
1 3400 37
1 3401 50
1 3402 520
1 3403 47
1 3404 17
1 3405 48
1 3406 30
1 3407 51
1 3408 20
1 3409 18
1 3410 20
1 3411 5
1 3412 43
1 3413 23
1 3414 55
1 3415 38
1 3416 38
1 3417 14
1 3418 55
1 3419 416
1 3420 34
1 3421 37
1 3422 91
1 3423 12
1 3424 13
1 3425 36
1 3426 33
1 3427 13
1 3428 23
1 3429 27
1 3430 32
1 3431 39
1 3432 297
1 3433 5308
1 3434 21
1 3435 34
1 3436 35
1 3437 33
1 3438 30
1 3439 44
1 3440 51
1 3441 103
1 3442 28
1 3443 44
1 3444 26
1 3445 24
1 3446 47
1 3447 37
1 3448 13
1 3449 34
1 3450 43
1 3451 19
1 3452 4
1 3453 59
1 3454 20
1 3455 36
1 3456 40
1 3457 66
1 3458 37
1 3459 20
1 3460 23
1 3461 21
1 3462 24
1 3463 19
1 3464 16
1 3465 25
1 3466 23
1 3467 47
1 3468 29
1 3469 30
1 3470 38
1 3471 22
1 3472 26
1 3473 23
1 3474 44
1 3475 25
1 3476 22
1 3477 16
1 3478 19
1 3479 19
1 3480 35
1 3481 24
1 3482 28
1 3483 46
1 3484 30
1 3485 29
1 3486 33
1 3487 43
1 3488 41
1 3489 25
1 3490 39
1 3491 29
1 3492 833
1 3493 43
1 3494 15
1 3495 35
1 3496 16
1 3497 56
1 3498 40
1 3499 83
1 3500 34
1 3501 37
1 3502 40
1 3503 11
1 3504 27
1 3505 27
1 3506 11
1 3507 23
1 3508 47
1 3509 25
1 3510 36
1 3511 1108
1 3512 40
1 3513 30
1 3514 60
1 3515 67
1 3516 41
1 3517 40
1 3518 23
1 3519 33
1 3520 21
1 3521 590
1 3522 31
1 3523 12
1 3524 29
1 3525 14
1 3526 61
1 3527 31
1 3528 23
1 3529 22
1 3530 19
1 3531 33
1 3532 38
1 3533 50
1 3534 40
1 3535 26
1 3536 35
1 3537 19
1 3538 44
1 3539 31
1 3540 18
1 3541 44
1 3542 25
1 3543 14
1 3544 34
1 3545 31
1 3546 25
1 3547 23
1 3548 21
1 3549 18
1 3550 55
1 3551 42
1 3552 41
1 3553 52
1 3554 21
1 3555 31
1 3556 38
1 3557 48
1 3558 46
1 3559 50
1 3560 15
1 3561 24
1 3562 39
1 3563 46
1 3564 62
1 3565 45
1 3566 45
1 3567 47
1 3568 24
1 3569 22
1 3570 25
1 3571 54
1 3572 23
1 3573 36
1 3574 43
1 3575 37
1 3576 43
1 3577 41
1 3578 31
1 3579 21
1 3580 26
1 3581 47
1 3582 26
1 3583 44
1 3584 31
1 3585 301
1 3586 57
1 3587 16
1 3588 16
1 3589 13
1 3590 38
1 3591 22
1 3592 34
1 3593 47
1 3594 16
1 3595 23
1 3596 55
1 3597 35
1 3598 53
1 3599 57
1 3600 40
1 3601 24
1 3602 25
1 3603 22
1 3604 198
1 3605 38
1 3606 33
1 3607 31
1 3608 38
1 3609 24
1 3610 32
1 3611 29
1 3612 60
1 3613 30
1 3614 39
1 3615 47
1 3616 22
1 3617 34
1 3618 34
1 3619 35
1 3620 23
1 3621 27
1 3622 33
1 3623 15
1 3624 40
1 3625 30
1 3626 43
1 3627 35
1 3628 28
1 3629 36
1 3630 24
1 3631 40
1 3632 54
1 3633 46
1 3634 29
1 3635 40
1 3636 19
1 3637 29
1 3638 24
1 3639 27
1 3640 33
1 3641 30
1 3642 25
1 3643 27
1 3644 822
1 3645 44
1 3646 22
1 3647 34
1 3648 45
1 3649 25
1 3650 24
1 3651 40
1 3652 49
1 3653 19
1 3654 20
1 3655 22
1 3656 46
1 3657 38
1 3658 41
1 3659 40
1 3660 21
1 3661 32
1 3662 46
1 3663 32
1 3664 30
1 3665 22
1 3666 23
1 3667 19
1 3668 34
1 3669 36
1 3670 34
1 3671 1849
1 3672 73
1 3673 29
1 3674 42
1 3675 27
1 3676 21
1 3677 39
1 3678 2593
1 3679 2410
1 3680 18
1 3681 4945
1 3682 37
1 3683 642
1 3684 29
1 3685 59
1 3686 37
1 3687 41
1 3688 20
1 3689 41
1 3690 45
1 3691 24
1 3692 35
1 3693 67
1 3694 45
1 3695 42
1 3696 53
1 3697 93
1 3698 1
1 3699 37
1 3700 85
1 3701 46
1 3702 47
1 3703 61
1 3704 51
1 3705 5184
1 3706 26
1 3707 43
1 3708 22
1 3709 34
1 3710 30
1 3711 33
1 3712 16
1 3713 34
1 3714 40
1 3715 2813
1 3716 45
1 3717 37
1 3718 43
1 3719 25
1 3720 31
1 3721 31
1 3722 85
1 3723 22
1 3724 21
1 3725 15
1 3726 32
1 3727 15
1 3728 5816
1 3729 25
1 3730 19
1 3731 42
1 3732 35
1 3733 39
1 3734 43
1 3735 21
1 3736 35
1 3737 26
1 3738 198
1 3739 32
1 3740 34
1 3741 2159
1 3742 46
1 3743 40
1 3744 32
1 3745 115
1 3746 22
1 3747 33
1 3748 19
1 3749 2742
1 3750 30
1 3751 40
1 3752 19
1 3753 19
1 3754 33
1 3755 43
1 3756 44
1 3757 33
1 3758 18
1 3759 18
1 3760 50
1 3761 44
1 3762 33
1 3763 35
1 3764 39
1 3765 22
1 3766 23
1 3767 25
1 3768 46
1 3769 59
1 3770 20
1 3771 12
1 3772 20
1 3773 22
1 3774 14
1 3775 37
1 3776 48
1 3777 23
1 3778 45
1 3779 11
1 3780 33
1 3781 28
1 3782 39
1 3783 33
1 3784 1243
1 3785 24
1 3786 31
1 3787 322
1 3788 35
1 3789 36
1 3790 32
1 3791 59
1 3792 43
1 3793 34
1 3794 16
1 3795 35
1 3796 37
1 3797 2067
1 3798 15
1 3799 35
1 3800 31
1 3801 45
1 3802 32
1 3803 1550
1 3804 19
1 3805 37
1 3806 43
1 3807 24
1 3808 18
1 3809 51
1 3810 45
1 3811 46
1 3812 38
1 3813 24
1 3814 49
1 3815 45
1 3816 158
1 3817 34
1 3818 39
1 3819 34
1 3820 37
1 3821 23
1 3822 45
1 3823 30
1 3824 43
1 3825 56
1 3826 31
1 3827 50
1 3828 28
1 3829 20
1 3830 39
1 3831 32
1 3832 17
1 3833 36
1 3834 23
1 3835 18
1 3836 19
1 3837 21
1 3838 1846
1 3839 34
1 3840 30
1 3841 21
1 3842 53
1 3843 56
1 3844 55
1 3845 51
1 3846 35
1 3847 31
1 3848 24
1 3849 23
1 3850 30
1 3851 48
1 3852 23
1 3853 19
1 3854 28
1 3855 41
1 3856 39
1 3857 37
1 3858 30
1 3859 13
1 3860 54
1 3861 44
1 3862 20
1 3863 20
1 3864 10
1 3865 14
1 3866 35
1 3867 28
1 3868 58
1 3869 30
1 3870 53
1 3871 31
1 3872 12
1 3873 43
1 3874 10
1 3875 27
1 3876 39
1 3877 58
1 3878 10
1 3879 33
1 3880 5
1 3881 37
1 3882 22
1 3883 29
1 3884 29
1 3885 44
1 3887 28
1 3888 32
1 3889 56
1 3890 365
1 3891 40
1 3892 37
1 3893 48
1 3894 21
1 3895 16
1 3896 25
1 3897 53
1 3898 15
1 3899 65
1 3900 27
1 3901 18
1 3902 39
1 3903 36
1 3904 70
1 3905 34
1 3906 48
1 3907 37
1 3908 22
1 3909 25
1 3910 23
1 3911 20
1 3912 9
1 3913 37
1 3914 29
1 3915 41
1 3916 8
1 3917 44
1 3918 50
1 3919 44
1 3920 38
1 3921 13
1 3922 19
1 3923 48
1 3924 18
1 3925 12
1 3926 31
1 3927 17
1 3928 16
1 3929 23
1 3930 18
1 3931 53
1 3932 20
1 3933 24
1 3934 15
1 3935 50
1 3936 35
1 3937 14
1 3938 54
1 3939 26
1 3940 34
1 3941 46
1 3942 11
1 3943 23
1 3944 41
1 3945 17
1 3946 32
1 3947 18
1 3948 22
1 3949 43
1 3950 24
1 3951 48
1 3952 34
1 3953 45
1 3954 19
1 3955 16
1 3956 34
1 3957 40
1 3958 35
1 3959 20
1 3960 10
1 3961 23
1 3962 14
1 3963 14
1 3964 21
1 3965 415
1 3966 2694
1 3967 68
1 3968 23
1 3969 131
1 3970 27
1 3971 23
1 3972 54
1 3973 19
1 3974 33
1 3975 22
1 3976 37
1 3977 43
1 3978 57
1 3979 48
1 3980 40
1 3981 25
1 3982 51
1 3983 35
1 3984 38
1 3985 28
1 3986 30
1 3987 18
1 3988 26
1 3989 100
1 3990 25
1 3991 301
1 3992 37
1 3993 83
1 3994 33
1 3995 920
1 3996 32
1 3997 50
1 3998 15
1 3999 39
1 4000 25
1 4001 36
1 4002 32
1 4003 26
1 4004 20
1 4005 34
1 4006 30
1 4007 51
1 4008 38
1 4009 58
1 4010 25
1 4011 19
1 4012 48
1 4013 39
1 4014 29
1 4015 63
1 4016 44
1 4017 39
1 4018 58
1 4019 35
1 4020 31
1 4021 23
1 4022 31
1 4023 25
1 4024 47
1 4025 29
1 4026 35
1 4027 16
1 4028 17
1 4029 14
1 4030 40
1 4031 17
1 4032 69
1 4033 19
1 4034 30
1 4035 8
1 4036 42
1 4037 21
1 4038 35
1 4039 82
1 4040 44
1 4041 40
1 4042 25
1 4043 32
1 4044 13
1 4045 1365
1 4046 26
1 4047 31
1 4048 41
1 4049 41
1 4050 25
1 4051 28
1 4052 26
1 4053 24
1 4054 46
1 4055 35
1 4056 39
1 4057 17
1 4058 52
1 4059 14
1 4060 56
1 4061 27
1 4062 34
1 4063 38
1 4064 44
1 4065 34
1 4066 50
1 4067 36
1 4068 37
1 4069 30
1 4070 30
1 4071 21
1 4072 28
1 4073 25
1 4074 49
1 4075 16
1 4076 47
1 4077 27
1 4078 28
1 4079 41
1 4080 18
1 4081 20
1 4082 14
1 4083 35
1 4084 36
1 4085 26
1 4086 23
1 4087 20
1 4088 45
1 4089 39
1 4090 62
1 4091 22
1 4092 32
1 4093 25
1 4094 34
1 4095 39
1 4096 62
1 4097 41
1 4098 18
1 4099 25
1 4100 65
1 4101 20
1 4102 41
1 4103 104
1 4104 22
1 4105 4
1 4106 41
1 4107 27
1 4108 74
1 4109 26
1 4110 33
1 4111 18
1 4112 35
1 4113 29
1 4114 13
1 4115 18
1 4116 17
1 4117 29
1 4118 36
1 4119 32
1 4120 1859
1 4121 42
1 4122 12
1 4123 43
1 4124 641
1 4125 21
1 4126 34
1 4127 32
1 4128 26
1 4129 52
1 4130 31
1 4131 50
1 4132 27
1 4133 24
1 4134 39
1 4135 23
1 4136 70
1 4137 22
1 4138 13
1 4139 43
1 4140 16
1 4141 23
1 4142 29
1 4143 4201
1 4144 12
1 4145 34
1 4146 33
1 4147 42
1 4148 68
1 4149 23
1 4150 29
1 4151 31
1 4152 474
1 4153 18
1 4154 34
1 4155 27
1 4156 13
1 4157 36
1 4158 25
1 4159 18
1 4160 30
1 4161 33
1 4162 9
1 4163 90
1 4164 40
1 4165 49
1 4166 37
1 4167 29
1 4168 44
1 4169 59
1 4170 10
1 4171 19
1 4172 21
1 4173 23
1 4174 60
1 4175 23
1 4176 19
1 4177 67
1 4178 32
1 4179 29
1 4180 19
1 4181 24
1 4182 17
1 4183 21
1 4184 42
1 4185 21
1 4186 98
1 4187 45
1 4188 33
1 4189 42
1 4190 24
1 4191 36
1 4192 19
1 4193 36
1 4194 39
1 4195 42
1 4196 25
1 4197 33
1 4198 43
1 4199 34
1 4200 42
1 4201 19
1 4202 29
1 4203 18
1 4204 50
1 4205 46
1 4206 37
1 4207 29
1 4208 29
1 4209 41
1 4210 42
1 4211 40
1 4212 9
1 4213 44
1 4214 82
1 4215 17
1 4216 191
1 4217 29
1 4218 33
1 4219 771
1 4220 36
1 4221 23
1 4222 34
1 4223 449
1 4224 30
1 4225 41
1 4226 39
1 4227 31
1 4228 27
1 4229 24
1 4230 37
1 4231 43
1 4232 18
1 4233 44
1 4234 32
1 4235 43
1 4236 48
1 4237 19
1 4238 69
1 4239 78
1 4240 25
1 4241 15
1 4242 38
1 4243 12
1 4244 19
1 4245 22
1 4246 42
1 4247 35
1 4248 24
1 4249 28
1 4250 7
1 4251 45
1 4252 37
1 4253 38
1 4254 47
1 4255 73
1 4256 23
1 4257 42
1 4258 50
1 4259 1001
1 4260 16
1 4261 25
1 4262 33
1 4263 15
1 4264 38
1 4265 9
1 4266 37
1 4267 23
1 4268 16
1 4269 21
1 4270 22
1 4271 38
1 4272 36
1 4273 36
1 4274 70
1 4276 30
1 4277 20
1 4278 29
1 4279 32
1 4280 49
1 4281 55
1 4282 34
1 4283 30
1 4284 22
1 4285 46
1 4286 36
1 4287 30
1 4288 28
1 4289 30
1 4290 32
1 4291 46
1 4292 51
1 4293 13
1 4294 34
1 4295 56
1 4296 11
1 4297 51
1 4298 339
1 4299 31
1 4300 23
1 4301 68
1 4302 1
1 4303 29
1 4304 23
1 4305 213
1 4306 35
1 4307 43
1 4308 19
1 4309 23
1 4310 40
1 4311 26
1 4312 29
1 4313 25
1 4314 66
1 4315 21
1 4316 64
1 4317 30
1 4318 24
1 4319 18
1 4320 28
1 4321 49
1 4322 42
1 4323 22
1 4324 33
1 4325 18
1 4326 20
1 4327 32
1 4328 36
1 4329 44
1 4330 15
1 4331 48
1 4332 21
1 4333 37
1 4334 14
1 4335 62
1 4336 29
1 4337 22
1 4338 59
1 4339 19
1 4340 19
1 4341 24
1 4342 41
1 4343 28
1 4344 26
1 4345 37
1 4346 30
1 4347 44
1 4348 34
1 4349 55
1 4350 28
1 4351 18
1 4352 38
1 4353 38
1 4354 32
1 4355 43
1 4356 21
1 4357 25
1 4358 22
1 4359 19
1 4360 25
1 4361 26
1 4362 54
1 4363 35
1 4364 40
1 4365 37
1 4366 39
1 4367 33
1 4368 21
1 4369 22
1 4370 57
1 4371 29
1 4372 22
1 4373 47
1 4374 15
1 4375 37
1 4376 21
1 4377 33
1 4378 35
1 4379 52
1 4380 31
1 4381 42
1 4382 39
1 4383 44
1 4384 22
1 4385 3291
1 4386 26
1 4387 34
1 4388 23
1 4389 47
1 4390 13
1 4391 45
1 4392 43
1 4393 21
1 4394 41
1 4395 22
1 4396 26
1 4397 20
1 4398 25
1 4399 50
1 4400 44
1 4401 44
1 4402 48
1 4403 35
1 4404 19
1 4405 55
1 4406 8
1 4407 15
1 4408 37
1 4409 36
1 4410 26
1 4411 37
1 4412 25
1 4413 20
1 4414 31
1 4415 21
1 4416 31
1 4417 20
1 4418 26
1 4419 37
1 4420 32
1 4421 161
1 4422 30
1 4423 35
1 4424 19
1 4425 24
1 4426 29
1 4427 59
1 4428 16
1 4429 22
1 4430 18
1 4431 34
1 4432 33
1 4433 41
1 4434 30
1 4435 25
1 4436 159
1 4437 18
1 4438 114
1 4439 41
1 4440 41
1 4441 27
1 4442 17
1 4443 40
1 4444 15
1 4445 31
1 4446 29
1 4447 33
1 4448 16
1 4449 70
1 4450 27
1 4451 16
1 4452 44
1 4453 14
1 4454 19
1 4455 43
1 4456 62
1 4457 19
1 4458 20
1 4459 36
1 4460 23
1 4461 33
1 4462 31
1 4463 47
1 4464 16
1 4465 24
1 4466 23
1 4467 36
1 4468 39
1 4469 25
1 4470 21
1 4471 51
1 4472 26
1 4473 31
1 4474 4
1 4475 1802
1 4476 73
1 4477 23
1 4478 23
1 4479 22
1 4480 21
1 4481 48
1 4482 21
1 4483 28
1 4484 21
1 4485 46
1 4486 35
1 4487 40
1 4488 6
1 4489 28
1 4490 33
1 4491 20
1 4492 41
1 4493 17
1 4494 39
1 4495 31
1 4496 31
1 4497 41
1 4498 46
1 4499 40
1 4500 26
1 4501 23
1 4502 38
1 4503 37
1 4504 31
1 4505 45
1 4506 44
1 4507 48
1 4508 19
1 4509 15
1 4510 15
1 4511 40
1 4512 35
1 4513 46
1 4514 31
1 4515 33
1 4516 37
1 4517 38
1 4518 39
1 4519 82
1 4520 57
1 4521 26
1 4522 48
1 4523 37
1 4524 43
1 4525 24
1 4526 44
1 4527 12
1 4528 42
1 4529 23
1 4530 32
1 4531 31
1 4532 959
1 4533 21
1 4534 33
1 4535 37
1 4536 25
1 4537 21
1 4538 44
1 4539 71
1 4540 44
1 4541 41
1 4542 29
1 4543 33
1 4544 13
1 4545 16
1 4546 36
1 4547 38
1 4548 38
1 4549 37
1 4550 27
1 4551 878
1 4552 5
1 4553 31
1 4554 54
1 4555 47
1 4556 50
1 4557 15
1 4558 3023
1 4559 23
1 4560 38
1 4561 27
1 4562 14
1 4563 36
1 4564 48
1 4565 26
1 4566 19
1 4567 11
1 4568 26
1 4569 20
1 4570 38
1 4571 402
1 4572 49
1 4573 40
1 4574 38
1 4575 37
1 4576 12
1 4577 53
1 4578 29
1 4579 28
1 4580 30
1 4581 6
1 4582 22
1 4583 37
1 4584 37
1 4585 26
1 4586 32
1 4587 39
1 4588 42
1 4589 26
1 4590 15
1 4591 23
1 4592 27
1 4593 54
1 4594 17
1 4595 44
1 4596 26
1 4597 33
1 4598 42
1 4599 2111
1 4600 19
1 4601 7
1 4602 42
1 4603 56
1 4604 39
1 4605 13
1 4606 33
1 4607 12
1 4608 42
1 4609 36
1 4610 79
1 4611 50
1 4612 21
1 4613 47
1 4614 32
1 4615 31
1 4616 28
1 4617 35
1 4618 40
1 4619 35
1 4620 27
1 4621 25
1 4622 39
1 4623 33
1 4624 22
1 4625 22
1 4626 40
1 4627 56
1 4628 25
1 4629 20
1 4630 22
1 4631 24
1 4632 111
1 4633 43
1 4634 42
1 4635 41
1 4636 33
1 4637 42
1 4638 44
1 4639 33
1 4640 34
1 4641 54
1 4642 109
1 4643 33
1 4644 16
1 4645 30
1 4646 23
1 4647 37
1 4648 29
1 4649 89
1 4650 13
1 4651 42
1 4652 26
1 4653 21
1 4654 24
1 4655 30
1 4656 36
1 4657 24
1 4658 48
1 4659 28
1 4660 14
1 4661 26
1 4662 29
1 4663 26
1 4664 51
1 4665 33
1 4666 5
1 4667 18
1 4668 25
1 4669 43
1 4670 37
1 4671 32
1 4672 25
1 4673 39
1 4674 24
1 4675 33
1 4676 14
1 4677 30
1 4678 30
1 4679 41
1 4680 28
1 4681 49
1 4682 20
1 4683 15
1 4684 37
1 4685 44
1 4686 18
1 4687 38
1 4688 31
1 4689 34
1 4690 32
1 4691 3
1 4692 33
1 4693 19
1 4694 1967
1 4695 14
1 4696 54
1 4697 30
1 4698 1346
1 4699 16
1 4700 30
1 4701 20
1 4702 39
1 4703 23
1 4704 19
1 4705 29
1 4706 51
1 4707 19
1 4708 29
1 4709 21
1 4710 34
1 4711 56
1 4712 54
1 4713 36
1 4714 50
1 4715 53
1 4716 21
1 4717 41
1 4718 637
1 4719 15
1 4720 30
1 4721 20
1 4722 31
1 4723 12
1 4724 27
1 4725 38
1 4726 39
1 4727 47
1 4728 36
1 4729 54
1 4730 26
1 4731 44
1 4732 16
1 4733 54
1 4734 304
1 4735 25
1 4736 25
1 4737 34
1 4738 17
1 4739 40
1 4740 44
1 4741 46
1 4742 41
1 4743 37
1 4744 41
1 4745 26
1 4746 21
1 4747 767
1 4748 17
1 4749 94
1 4750 22
1 4751 17
1 4752 33
1 4753 43
1 4754 8
1 4755 29
1 4756 29
1 4757 18
1 4758 43
1 4759 43
1 4760 18
1 4761 36
1 4762 47
1 4763 219
1 4764 12
1 4765 32
1 4766 39
1 4767 19
1 4768 33
1 4769 24
1 4770 240
1 4771 255
1 4772 24
1 4773 18
1 4774 23
1 4775 15
1 4776 36
1 4777 21
1 4778 45
1 4779 26
1 4780 42
1 4781 58
1 4782 20
1 4783 24
1 4784 19
1 4785 11
1 4786 28
1 4787 26
1 4788 38
1 4789 28
1 4790 32
1 4791 23
1 4792 35
1 4793 32
1 4794 23
1 4795 47
1 4796 20
1 4797 18
1 4798 22
1 4799 44
1 4800 38
1 4801 44
1 4802 26
1 4803 70
1 4804 17
1 4805 70
1 4806 43
1 4807 31
1 4808 16
1 4809 37
1 4810 43
1 4811 33
1 4812 50
1 4813 17
1 4814 7
1 4815 24
1 4816 36
1 4817 26
1 4818 44
1 4819 20
1 4820 24
1 4821 46
1 4822 27
1 4823 35
1 4824 33
1 4825 37
1 4826 14
1 4827 31
1 4828 21
1 4829 18
1 4830 50
1 4831 33
1 4832 20
1 4833 686
1 4834 22
1 4835 17
1 4836 68
1 4837 22
1 4838 63
1 4839 27
1 4840 10
1 4841 41
1 4842 2
1 4843 43
1 4844 47
1 4845 55
1 4846 23
1 4847 28
1 4848 20
1 4849 9
1 4850 14
1 4851 40
1 4852 46
1 4853 41
1 4854 21
1 4855 6
1 4856 73
1 4857 44
1 4858 30
1 4859 43
1 4860 45
1 4861 79
1 4862 23
1 4863 32
1 4864 32
1 4865 35
1 4866 40
1 4867 13
1 4868 34
1 4869 37
1 4870 570
1 4871 40
1 4872 33
1 4873 50
1 4874 37
1 4875 53
1 4876 47
1 4877 37
1 4878 36
1 4879 3
1 4880 45
1 4881 26
1 4882 37
1 4883 11
1 4884 50
1 4885 26
1 4886 50
1 4887 40
1 4888 37
1 4889 32
1 4890 49
1 4891 22
1 4892 34
1 4893 35
1 4894 26
1 4895 38
1 4896 16
1 4897 46
1 4898 22
1 4899 44
1 4900 30
1 4901 45
1 4902 34
1 4903 26
1 4904 30
1 4905 36
1 4906 48
1 4907 37
1 4908 9
1 4909 30
1 4910 26
1 4911 19
1 4912 18
1 4913 46
1 4914 36
1 4915 39
1 4916 20
1 4917 40
1 4918 27
1 4919 57
1 4920 53
1 4921 11
1 4922 42
1 4923 21
1 4924 30
1 4925 54
1 4926 33
1 4927 7
1 4928 37
1 4929 21
1 4930 22
1 4931 38
1 4932 28
1 4933 45
1 4934 1
1 4935 25
1 4936 24
1 4937 34
1 4938 36
1 4939 21
1 4940 24
1 4941 21
1 4942 17
1 4943 33
1 4944 30
1 4945 38
1 4946 26
1 4947 77
1 4948 41
1 4949 12
1 4950 18
1 4951 42
1 4952 23
1 4953 23
1 4954 38
1 4955 398
1 4956 39
1 4957 16
1 4958 11
1 4959 27
1 4960 26
1 4961 78
1 4962 44
1 4963 30
1 4964 20
1 4965 15
1 4966 42
1 4967 36
1 4968 64
1 4969 23
1 4970 51
1 4971 15
1 4972 23
1 4973 20
1 4974 15
1 4975 27
1 4976 30
1 4977 20
1 4978 20
1 4979 27
1 4980 25
1 4981 52
1 4982 49
1 4983 26
1 4984 46
1 4985 27
1 4986 30
1 4987 24
1 4988 20
1 4989 26
1 4990 16
1 4991 19
1 4992 48
1 4993 12
1 4994 17
1 4995 39
1 4996 26
1 4997 19
1 4998 39
1 4999 38
1 5000 68
1 5001 52
1 5002 20
1 5003 40
1 5004 20
1 5005 1
1 5006 31
1 5007 45
1 5008 5
1 5009 17
1 5010 20
1 5011 40
1 5012 24
1 5013 32
1 5014 32
1 5015 24
1 5016 23
1 5017 19
1 5018 130
1 5019 40
1 5020 32
1 5021 34
1 5022 28
1 5023 15
1 5024 19
1 5025 29
1 5026 45
1 5028 19
1 5029 59
1 5030 19
1 5031 15
1 5032 21
1 5033 24
1 5034 20
1 5035 25
1 5036 13
1 5037 22
1 5038 27
1 5039 20
1 5040 21
1 5041 26
1 5042 40
1 5043 15
1 5044 21
1 5045 43
1 5046 24
1 5047 25
1 5048 785
1 5049 20
1 5050 17
1 5051 42
1 5052 26
1 5053 28
1 5054 18
1 5055 37
1 5056 18
1 5057 40
1 5058 26
1 5059 19
1 5060 16
1 5061 2
1 5062 46
1 5063 23
1 5064 53
1 5065 32
1 5066 34
1 5067 50
1 5068 19
1 5069 41
1 5070 6
1 5071 26
1 5072 52
1 5073 17
1 5074 29
1 5075 15
1 5076 38
1 5077 26
1 5078 22
1 5079 35
1 5080 27
1 5081 34
1 5083 12
1 5084 43
1 5085 42
1 5086 40
1 5087 25
1 5088 14
1 5089 30
1 5090 32
1 5091 49
1 5092 38
1 5093 33
1 5094 18
1 5095 36
1 5096 14
1 5097 23
1 5098 257
1 5099 27
1 5100 22
1 5101 27
1 5102 39
1 5103 24
1 5104 26
1 5105 73
1 5106 25
1 5107 29
1 5108 33
1 5109 39
1 5110 40
1 5111 39
1 5112 18
1 5113 30
1 5114 28
1 5115 15
1 5116 37
1 5117 37
1 5118 17
1 5119 24
1 5120 4
1 5121 19
1 5122 25
1 5123 36
1 5124 25
1 5125 68
1 5126 11
1 5127 33
1 5128 9
1 5129 21
1 5130 28
1 5131 16
1 5132 24
1 5133 13
1 5134 25
1 5135 36
1 5136 36
1 5137 22
1 5138 12
1 5139 21
1 5140 26
1 5141 29
1 5142 23
1 5143 23
1 5144 42
1 5145 68
1 5146 140
1 5147 48
1 5148 19
1 5149 29
1 5150 20
1 5151 97
1 5152 24
1 5153 18
1 5154 41
1 5155 22
1 5156 30
1 5157 27
1 5158 24
1 5159 36
1 5160 19
1 5161 22
1 5162 26
1 5163 38
1 5164 11
1 5165 49
1 5166 35
1 5167 27
1 5168 24
1 5169 13
1 5170 20
1 5171 26
1 5172 29
1 5173 6
1 5174 28
1 5175 32
1 5176 18
1 5177 17
1 5178 25
1 5180 628
1 5181 37
1 5182 24
1 5183 24
1 5184 32
1 5185 24
1 5186 28
1 5187 24
1 5188 23
1 5189 7
1 5190 13
1 5191 25
1 5192 35
1 5193 25
1 5194 14
1 5195 44
1 5196 18
1 5197 23
1 5198 40
1 5199 34
1 5200 14
1 5201 43
1 5202 61
1 5203 27
1 5204 36
1 5205 4
1 5206 20
1 5207 32
1 5208 7
1 5209 2
1 5210 14
1 5211 23
1 5212 17
1 5213 16
1 5214 40
1 5215 20
1 5216 59
1 5217 23
1 5218 40
1 5219 145
1 5220 28
1 5221 37
1 5222 4
1 5223 1
1 5224 37
1 5225 44
1 5226 42
1 5227 18
1 5228 36
1 5229 15
1 5230 22
1 5231 30
1 5232 38
1 5233 16
1 5234 54
1 5235 23
1 5236 22
1 5237 34
1 5238 40
1 5239 48
1 5240 10
1 5241 43
1 5242 21
1 5243 28
1 5244 40
1 5245 38
1 5246 37
1 5247 32
1 5248 24
1 5249 21
1 5250 91
1 5251 5
1 5252 24
1 5253 50
1 5254 43
1 5255 17
1 5256 51
1 5257 16
1 5258 30
1 5259 23
1 5260 31
1 5261 1
1 5262 34
1 5263 26
1 5264 30
1 5265 26
1 5266 63
1 5267 15
1 5268 15
1 5269 20
1 5270 48
1 5271 25
1 5272 52
1 5273 43
1 5274 26
1 5275 47
1 5276 61
1 5277 57
1 5278 31
1 5279 34
1 5280 33
1 5281 48
1 5282 45
1 5283 38
1 5284 28
1 5285 25
1 5286 31
1 5287 40
1 5288 27
1 5289 16
1 5290 28
1 5291 33
1 5292 49
1 5293 24
1 5294 20
1 5295 34
1 5296 67
1 5297 37
1 5298 37
1 5299 48
1 5300 32
1 5301 14
1 5302 4
1 5303 17
1 5304 25
1 5305 8
1 5306 38
1 5307 20
1 5308 71
1 5309 29
1 5310 24
1 5311 33
1 5312 24
1 5313 321
1 5314 37
1 5315 19
1 5316 41
1 5317 10
1 5318 66
1 5319 42
1 5320 12
1 5321 1038
1 5322 30
1 5323 44
1 5324 5
1 5325 19
1 5326 29
1 5327 20
1 5328 28
1 5329 40
1 5330 15
1 5331 20
1 5332 10
1 5333 34
1 5334 24
1 5335 28
1 5336 20
1 5337 35
1 5338 44
1 5339 40
1 5340 8
1 5341 36
1 5342 20
1 5343 36
1 5344 38
1 5345 20
1 5346 34
1 5347 15
1 5348 34
1 5349 37
1 5350 16
1 5351 21
1 5352 27
1 5353 21
1 5354 19
1 5355 20
1 5356 22
1 5357 27
1 5358 147
1 5359 28
1 5360 15
1 5361 22
1 5362 22
1 5363 23
1 5364 23
1 5365 31
1 5366 18
1 5367 38
1 5368 44
1 5369 29
1 5370 12
1 5371 35
1 5372 12
1 5373 17
1 5374 34
1 5375 49
1 5376 29
1 5377 20
1 5378 32
1 5379 39
1 5380 35
1 5381 41
1 5382 5
1 5383 35
1 5384 20
1 5385 41
1 5386 19
1 5387 5
1 5388 21
1 5389 26
1 5390 44
1 5391 35
1 5392 31
1 5393 9
1 5394 33
1 5395 21
1 5396 44
1 5397 85
1 5398 25
1 5399 31
1 5400 17
1 5401 36
1 5402 34
1 5403 26
1 5404 33
1 5405 35
1 5406 25
1 5407 28
1 5408 63
1 5409 22
1 5410 19
1 5411 19
1 5412 45
1 5413 28
1 5414 27
1 5415 3
1 5416 15
1 5417 27
1 5418 4
1 5419 2
1 5420 62
1 5421 39
1 5422 24
1 5423 35
1 5424 4
1 5425 37
1 5426 21
1 5427 30
1 5428 24
1 5429 14
1 5430 55
1 5431 25
1 5432 26
1 5433 33
1 5434 31
1 5435 11
1 5436 22
1 5437 39
1 5438 17
1 5439 12
1 5440 33
1 5441 26
1 5442 435
1 5443 48
1 5444 51
1 5445 20
1 5446 16
1 5447 30
1 5448 34
1 5449 16
1 5450 25
1 5451 31
1 5452 36
1 5453 60
1 5454 8
1 5455 57
1 5456 20
1 5457 30
1 5458 31
1 5459 18
1 5460 29
1 5461 30
1 5462 25
1 5463 21
1 5464 25
1 5465 49
1 5466 45
1 5467 15
1 5468 24
1 5469 28
1 5470 29
1 5471 33
1 5472 44
1 5473 23
1 5474 30
1 5475 20
1 5476 29
1 5477 31
1 5478 50
1 5479 37
1 5480 19
1 5481 26
1 5482 18
1 5483 20
1 5484 26
1 5485 36
1 5486 26
1 5487 23
1 5488 43
1 5489 14
1 5490 58
1 5491 29
1 5492 10
1 5493 20
1 5494 26
1 5495 25
1 5496 41
1 5497 31
1 5498 22
1 5499 51
1 5500 26
1 5501 18
1 5502 36
1 5503 13
1 5504 19
1 5505 17
1 5506 17
1 5507 16
1 5508 28
1 5509 49
1 5510 7
1 5511 11
1 5512 16
1 5513 15
1 5514 12
1 5515 40
1 5516 11
1 5517 313
1 5518 15
1 5519 53
1 5520 31
1 5521 18
1 5522 20
1 5523 29
1 5524 22
1 5525 39
1 5526 14
1 5527 887
1 5528 13
1 5529 25
1 5530 24
1 5531 18
1 5532 19
1 5533 45
1 5534 30
1 5535 30
1 5536 25
1 5537 28
1 5538 38
1 5539 19
1 5540 35
1 5541 19
1 5542 25
1 5543 18
1 5544 55
1 5545 10
1 5546 14
1 5547 21
1 5548 6
1 5549 27
1 5550 37
1 5551 4
1 5552 27
1 5553 17
1 5554 30
1 5555 16
1 5556 4
1 5557 42
1 5558 27
1 5559 19
1 5560 16
1 5561 30
1 5562 31
1 5563 23
1 5564 24
1 5565 18
1 5566 2
1 5567 24
1 5568 26
1 5569 20
1 5570 30
1 5571 12
1 5572 57
1 5573 12
1 5574 25
1 5575 26
1 5576 42
1 5577 21
1 5578 49
1 5579 38
1 5580 44
1 5581 40
1 5582 16
1 5583 31
1 5584 23
1 5585 34
1 5586 23
1 5587 7
1 5588 31
1 5589 40
1 5590 22
1 5591 29
1 5592 23
1 5593 32
1 5594 22
1 5595 41
1 5596 9
1 5597 23
1 5598 15
1 5599 24
1 5600 15
1 5601 38
1 5602 12
1 5603 12
1 5604 34
1 5605 22
1 5606 22
1 5607 16
1 5608 14
1 5609 18
1 5610 13
1 5611 12
1 5612 36
1 5613 50
1 5614 17
1 5615 44
1 5616 4
1 5617 37
1 5618 2
1 5619 25
1 5620 21
1 5621 32
1 5622 22
1 5623 19
1 5624 21
1 5625 24
1 5626 21
1 5627 19
1 5628 33
1 5629 37
1 5630 95
1 5631 26
1 5632 42
1 5633 28
1 5634 46
1 5635 24
1 5636 18
1 5637 27
1 5638 23
1 5639 37
1 5640 4
1 5641 16
1 5642 42
1 5643 28
1 5644 14
1 5645 32
1 5646 31
1 5647 30
1 5648 24
1 5649 33
1 5650 21
1 5651 46
1 5652 16
1 5653 25
1 5654 1
1 5655 8
1 5656 25
1 5657 18
1 5658 10
1 5659 22
1 5660 6
1 5661 21
1 5662 20
1 5663 32
1 5664 19
1 5665 34
1 5666 5
1 5667 3
1 5668 15
1 5669 1
1 5670 7
1 5671 15
1 5672 1
1 5673 18
1 5674 15
1 5675 12
1 5676 11
1 5677 76
1 5678 5
1 5679 9
1 5680 21
1 5681 3
1 5682 13
1 5683 20
1 5684 18
1 5685 4
1 5686 8
1 5687 19
1 5688 26
1 5689 21
1 5690 11
1 5691 4
1 5692 13
1 5693 10
1 5694 1
1 5695 5
1 5696 14
1 5697 12
1 5698 23
1 5699 8
1 5700 1
1 5701 42
1 5702 17
1 5704 3
1 5705 3
1 5706 2
1 5707 4
1 5709 3
1 5710 2
1 5711 1
1 5713 1
1 5715 4
1 5719 1
1 5720 1
1 5721 1
2 1 101
2 2 250
2 3 117
2 4 81
2 5 40
2 6 69
2 7 66
2 8 75
2 9 57
2 10 67
2 11 132
2 12 51
2 13 106
2 14 45
2 15 4518
2 16 37
2 17 135
2 18 84
2 19 24
2 20 4608
2 21 46
2 22 94
2 23 80
2 24 61
2 25 136
2 26 63
2 27 42
2 28 46
2 29 63
2 30 21
2 31 59
2 32 19
2 33 24363
2 34 128
2 35 16
2 36 64
2 37 72
2 38 55
2 39 60
2 40 47
2 41 50
2 42 163
2 43 99
2 44 52
2 45 1548
2 46 122
2 47 57
2 48 51
2 49 77
2 50 43
2 51 63
2 52 63
2 53 3724
2 54 31
2 55 126
2 56 96
2 57 79
2 58 62
2 59 69
2 60 108
2 61 69
2 62 62
2 63 105
2 64 69
2 65 53
2 66 55
2 67 57
2 68 66
2 69 92
2 70 110
2 71 111
2 72 66
2 73 60
2 74 52
2 75 60
2 76 55
2 77 110
2 78 67
2 79 200
2 80 33
2 81 127
2 82 61
2 83 52
2 84 6295
2 85 111
2 86 31
2 87 54
2 88 54
2 89 65
2 90 124
2 91 78
2 92 55
2 93 71
2 94 575
2 95 45
2 96 59
2 97 75
2 98 6785
2 99 50
2 100 52
2 101 83
2 102 29
2 103 57
2 104 81
2 105 101
2 106 33
2 107 55
2 108 81
2 109 60
2 110 35
2 111 50
2 112 2237
2 113 52
2 114 28
2 115 87
2 116 24
2 117 22
2 118 67
2 119 88
2 120 116
2 121 65
2 122 63
2 123 2118
2 124 80
2 125 73
2 126 15
2 127 59
2 128 6005
2 129 54
2 130 91
2 131 42
2 132 65
2 133 83
2 134 28
2 135 138
2 136 155
2 137 88
2 138 95
2 139 118
2 140 137
2 141 80
2 142 53
2 143 82
2 144 14822
2 145 60
2 146 53
2 147 91
2 148 55
2 149 71
2 150 91
2 151 57
2 152 66
2 153 52
2 154 83
2 155 80
2 156 64
2 157 19
2 158 66
2 159 81
2 160 77
2 161 83
2 162 60
2 163 91
2 164 57
2 165 113
2 166 94
2 167 104
2 168 31
2 169 69
2 170 143
2 171 80
2 172 96
2 173 70
2 174 61
2 175 75
2 176 93
2 177 41
2 178 72
2 179 38
2 180 73
2 181 5372
2 182 66
2 183 58
2 184 57
2 185 58
2 186 38
2 187 71
2 188 92
2 189 63
2 190 63
2 191 69
2 192 58
2 193 40
2 194 83
2 195 41
2 196 61
2 197 22
2 198 62
2 199 1726
2 200 93
2 201 65
2 202 96
2 203 55
2 204 49
2 205 133
2 206 41
2 207 86
2 208 13
2 209 70
2 210 48
2 211 86
2 212 62
2 213 75
2 214 38
2 215 149
2 216 70
2 217 65
2 218 26
2 219 70
2 220 27
2 221 41
2 222 63
2 223 73
2 224 56
2 225 67
2 226 47
2 227 59
2 228 47
2 229 5009
2 230 83
2 231 34
2 232 94
2 233 3939
2 234 72
2 235 21
2 236 2346
2 237 50
2 238 53
2 239 126
2 240 69
2 241 28
2 242 68
2 243 137
2 244 81
2 245 43
2 246 11190
2 247 74
2 248 67
2 249 59
2 250 113
2 251 30
2 252 23
2 253 1727
2 254 60
2 255 6824
2 256 95
2 257 82
2 258 31
2 259 76
2 260 63
2 261 19
2 262 64
2 263 40
2 264 83
2 265 66
2 266 14
2 267 23
2 268 87
2 269 91
2 270 40
2 271 80
2 272 71
2 273 30
2 274 64
2 275 15
2 276 116
2 277 102
2 278 77
2 279 66
2 280 65
2 281 78
2 282 52
2 283 65
2 284 66
2 285 88
2 286 32
2 287 83
2 288 64
2 289 9
2 290 65
2 291 65
2 292 12748
2 293 68
2 294 84
2 295 74
2 296 207
2 297 117
2 298 347
2 299 65
2 300 63
2 301 69
2 302 3007
2 303 65
2 304 73
2 305 7
2 306 67
2 307 76
2 308 39
2 309 36
2 310 71
2 311 7628
2 312 23
2 313 79
2 314 35
2 315 6454
2 316 57
2 317 56
2 318 76
2 319 59
2 320 58
2 321 43
2 322 62
2 323 44
2 324 70
2 325 53
2 326 4935
2 327 70
2 328 60
2 329 5244
2 330 21791
2 331 64
2 332 18
2 333 80
2 334 14
2 335 80
2 336 34
2 337 59
2 338 39
2 339 46
2 340 637
2 341 103
2 342 55
2 343 4062
2 344 3415
2 345 56
2 346 38
2 347 35
2 348 47
2 349 111
2 350 80
2 351 55
2 352 66
2 353 67
2 354 32
2 355 33
2 356 83
2 357 38
2 358 63
2 359 119
2 360 46
2 361 65
2 362 96
2 363 63
2 364 33
2 365 32
2 366 32
2 367 54
2 368 29
2 369 102
2 370 37
2 371 41
2 372 25
2 373 96
2 374 62
2 375 30
2 376 76
2 377 50
2 378 90
2 379 73
2 380 41
2 381 41
2 382 78
2 383 64
2 384 45
2 385 51
2 386 52
2 387 11037
2 388 111
2 389 94
2 390 38
2 391 45
2 392 85
2 393 4341
2 394 68
2 395 76
2 396 95
2 397 62
2 398 43
2 399 72
2 400 10273
2 401 95
2 402 7228
2 403 109
2 404 55
2 405 41
2 406 51
2 407 56
2 408 68
2 409 6404
2 410 27
2 411 48
2 412 152
2 413 64
2 414 47
2 415 64
2 416 27
2 417 44
2 418 53
2 419 45
2 420 32
2 421 5514
2 422 48
2 423 25632
2 424 51
2 425 54
2 426 9542
2 427 70
2 428 84
2 429 88
2 430 70
2 431 7635
2 432 53
2 433 50
2 434 4029
2 435 66
2 436 58
2 437 30
2 438 34
2 439 37
2 440 74
2 441 49
2 442 110
2 443 2956
2 444 66
2 445 64
2 446 51
2 447 66
2 448 71
2 449 85
2 450 72
2 451 65
2 452 203
2 453 74
2 454 68
2 455 75
2 456 131
2 457 33
2 458 62
2 459 34
2 460 85
2 461 5193
2 462 40
2 463 81
2 464 5473
2 465 41
2 466 62
2 467 55
2 468 50
2 469 42
2 470 90
2 471 41
2 472 55
2 473 65
2 474 50
2 475 65
2 476 4212
2 477 43
2 478 62
2 479 3908
2 480 51
2 481 6007
2 482 62
2 483 94
2 484 66
2 485 74
2 486 97
2 487 60
2 488 48
2 489 79
2 490 60
2 491 65
2 492 45
2 493 5246
2 494 39
2 495 29
2 496 37
2 497 75
2 498 30
2 499 65
2 500 46
2 501 88
2 502 36
2 503 34
2 504 4890
2 505 48
2 506 85
2 507 37
2 508 100
2 509 32
2 510 80
2 511 37
2 512 7806
2 513 79
2 514 5528
2 515 88
2 516 81
2 517 67
2 518 74
2 519 38
2 520 73
2 521 53
2 522 73
2 523 37
2 524 51
2 525 84
2 526 66
2 527 76
2 528 70
2 529 54
2 530 62
2 531 74
2 532 41
2 533 56
2 534 56
2 535 84
2 536 44
2 537 72
2 538 29
2 539 59
2 540 76
2 541 40
2 542 39
2 543 77
2 544 50
2 545 165
2 546 66
2 547 48
2 548 49
2 549 54
2 550 4218
2 551 54
2 552 109
2 553 83
2 554 47
2 555 54
2 556 36
2 557 27
2 558 102
2 559 89
2 560 64
2 561 45
2 562 56
2 563 85
2 564 49
2 565 6654
2 566 12690
2 567 46
2 568 47
2 569 7329
2 570 75
2 571 33
2 572 43
2 573 64
2 574 72
2 575 49
2 576 66
2 577 9083
2 578 135
2 579 53
2 580 73
2 581 64
2 582 414
2 583 11944
2 584 45
2 585 41
2 586 37
2 587 79
2 588 37
2 589 59
2 590 96
2 591 2822
2 592 77
2 593 32
2 594 30
2 595 58
2 596 72
2 597 82
2 598 36
2 599 55
2 600 1014
2 601 55
2 602 93
2 603 48
2 604 43
2 605 52
2 606 7394
2 607 36
2 608 36
2 609 58
2 610 79
2 611 84
2 612 95
2 613 17
2 614 71
2 615 68
2 616 41
2 617 51
2 618 550
2 619 89
2 620 46
2 621 54
2 622 60
2 623 3036
2 624 63
2 625 66
2 626 56
2 627 86
2 628 75
2 629 49
2 630 51
2 631 44
2 632 115
2 633 64
2 634 58
2 635 58
2 636 64
2 637 62
2 638 21
2 639 21
2 640 41
2 641 64
2 642 56
2 643 91
2 644 72
2 645 4390
2 646 52
2 647 11982
2 648 30
2 649 4156
2 650 74
2 651 59
2 652 137
2 653 75
2 654 64
2 655 49
2 656 46
2 657 7969
2 658 76
2 659 133
2 660 18
2 661 57
2 662 4205
2 663 66
2 664 32
2 665 26
2 666 50
2 667 59
2 668 126
2 669 61
2 670 44
2 671 57
2 672 119
2 673 85
2 674 7960
2 675 36
2 676 27
2 677 3004
2 678 57
2 679 63
2 680 70
2 681 45
2 682 80
2 683 57
2 684 62
2 685 83
2 686 32
2 687 106
2 688 78
2 689 66
2 690 23
2 691 48
2 692 50
2 693 64
2 694 106
2 695 60
2 696 6319
2 697 39
2 698 27
2 699 70
2 700 98
2 701 70
2 702 3539
2 703 57
2 704 53
2 705 104
2 706 28
2 707 43
2 708 87
2 709 53
2 710 43
2 711 114
2 712 64
2 713 58
2 714 80
2 715 79
2 716 61
2 717 4732
2 718 37
2 719 66
2 720 54
2 721 36
2 722 60
2 723 44
2 724 83
2 725 57
2 726 53
2 727 82
2 728 16457
2 729 43
2 730 5157
2 731 64
2 732 86
2 733 5719
2 734 35
2 735 78
2 736 64
2 737 5325
2 738 32
2 739 7419
2 740 68
2 741 102
2 742 28
2 743 56
2 744 85
2 745 9798
2 746 41
2 747 62
2 748 81
2 749 26
2 750 67
2 751 52
2 752 40
2 753 40
2 754 102
2 755 43
2 756 55
2 757 85
2 758 73
2 759 52
2 760 50
2 761 20
2 762 105
2 763 45
2 764 71
2 765 13
2 766 65
2 767 38
2 768 74
2 769 66
2 770 15741
2 771 36
2 772 44
2 773 55
2 774 73
2 775 87
2 776 63
2 777 3243
2 778 36
2 779 24035
2 780 55
2 781 17
2 782 88
2 783 99
2 784 60
2 785 39
2 786 45
2 787 45
2 788 78
2 789 58
2 790 39
2 791 81
2 792 76
2 793 74
2 794 64
2 795 8573
2 796 2031
2 797 38
2 798 45
2 799 150
2 800 36
2 801 59
2 802 9821
2 803 65
2 804 539
2 805 5240
2 806 105
2 807 51
2 808 69
2 809 41
2 810 52
2 811 54
2 812 78
2 813 48
2 814 30
2 815 65
2 816 45
2 817 3585
2 818 92
2 819 89
2 820 75
2 821 65
2 822 29
2 823 27
2 824 75
2 825 34
2 826 20263
2 827 55
2 828 6630
2 829 46
2 830 87
2 831 93
2 832 295
2 833 54
2 834 70
2 835 49
2 836 80
2 837 36
2 838 59
2 839 121
2 840 57
2 841 89
2 842 26
2 843 58
2 844 57
2 845 2510
2 846 31
2 847 52
2 848 87
2 849 62
2 850 70
2 851 45
2 852 55
2 853 43
2 854 57
2 855 50
2 856 91
2 857 39
2 858 51
2 859 93
2 860 49
2 861 123
2 862 1002
2 863 55
2 864 42
2 865 51
2 866 33
2 867 2337
2 868 31
2 869 53
2 870 118
2 871 98
2 872 72
2 873 9
2 874 12389
2 875 40
2 876 59
2 877 33
2 878 62
2 879 46
2 880 58
2 881 87
2 882 37
2 883 10017
2 884 61
2 885 59
2 886 65
2 887 59
2 888 74
2 889 70
2 890 51
2 891 34
2 892 66
2 893 53
2 894 95
2 895 42
2 896 68
2 897 55
2 898 59
2 899 59
2 900 47
2 901 57
2 902 70
2 903 73
2 904 52
2 905 63
2 906 58
2 907 54
2 908 107
2 909 58
2 910 84
2 911 49
2 912 65
2 913 66
2 914 156
2 915 83
2 916 72
2 917 51
2 918 32
2 919 64
2 920 169
2 921 85
2 922 43
2 923 51
2 924 95
2 925 129
2 926 40
2 927 76
2 928 69
2 929 29
2 930 36
2 931 62
2 932 51
2 933 3976
2 934 51
2 935 104
2 936 63
2 937 43
2 938 112
2 939 54
2 940 55
2 941 39
2 942 100
2 943 43
2 944 85
2 945 35
2 946 32
2 947 2773
2 948 44
2 949 19
2 950 5410
2 951 70
2 952 45
2 953 46
2 954 31
2 955 95
2 956 70
2 957 56
2 958 45
2 959 65
2 960 44
2 961 79
2 962 45
2 963 79
2 964 74
2 965 70
2 966 63
2 967 47
2 968 81
2 969 66
2 970 78
2 971 61
2 972 63
2 973 82
2 974 61
2 975 95
2 976 1824
2 977 23
2 978 35
2 979 28
2 980 49
2 981 46
2 982 33
2 983 54
2 984 32
2 985 57
2 986 66
2 987 41
2 988 30
2 989 65
2 990 27
2 991 8719
2 992 52
2 993 45
2 994 69
2 995 46
2 996 66
2 997 50
2 998 51
2 999 7239
2 1000 64
2 1001 43
2 1002 78
2 1003 93
2 1004 4035
2 1005 1381
2 1006 4339
2 1007 66
2 1008 40
2 1009 52
2 1010 51
2 1011 196
2 1012 101
2 1013 65
2 1014 83
2 1015 77
2 1016 56
2 1017 45
2 1018 27
2 1019 53
2 1020 51
2 1021 44
2 1022 97
2 1023 82
2 1024 74
2 1025 37
2 1026 86
2 1027 91
2 1028 58
2 1029 67
2 1030 83
2 1031 73
2 1032 94
2 1033 59
2 1034 137
2 1035 68
2 1036 246
2 1037 14809
2 1038 72
2 1039 59
2 1040 41
2 1041 104
2 1042 43
2 1043 85
2 1044 79
2 1045 62
2 1046 51
2 1047 61
2 1048 40
2 1049 71
2 1050 69
2 1051 43
2 1052 52
2 1053 9604
2 1054 114
2 1055 59
2 1056 48
2 1057 46
2 1058 50
2 1059 66
2 1060 293
2 1061 67
2 1062 68
2 1063 46
2 1064 28
2 1065 37
2 1066 58
2 1067 60
2 1068 3733
2 1069 6040
2 1070 36
2 1071 32
2 1072 28
2 1073 32
2 1074 43
2 1075 63
2 1076 45
2 1077 113
2 1078 12611
2 1079 55
2 1080 94
2 1081 48
2 1082 54
2 1083 59
2 1084 24
2 1085 88
2 1086 61
2 1087 7321
2 1088 40
2 1089 44
2 1090 27
2 1091 114
2 1092 42
2 1093 84
2 1094 49
2 1095 30
2 1096 7799
2 1097 66
2 1098 33
2 1099 7014
2 1100 34
2 1101 66
2 1102 40
2 1103 51
2 1104 62
2 1105 9650
2 1106 280
2 1107 39
2 1108 73
2 1109 67
2 1110 49
2 1111 88
2 1112 39
2 1113 51
2 1114 77
2 1115 71
2 1116 63
2 1117 362
2 1118 64
2 1119 37
2 1120 43
2 1121 4915
2 1122 57
2 1123 5423
2 1124 59
2 1125 57
2 1126 133
2 1127 10889
2 1128 4943
2 1129 5899
2 1130 77
2 1131 85
2 1132 56
2 1133 79
2 1134 58
2 1135 100
2 1136 44
2 1137 7083
2 1138 96
2 1139 63
2 1140 59
2 1141 51
2 1142 45
2 1143 60
2 1144 69
2 1145 55
2 1146 52
2 1147 67
2 1148 48
2 1149 5413
2 1150 72
2 1151 50
2 1152 6202
2 1153 37
2 1154 60
2 1155 21
2 1156 32
2 1157 74
2 1158 61
2 1159 54
2 1160 62
2 1161 84
2 1162 34
2 1163 60
2 1164 5343
2 1165 76
2 1166 50
2 1167 32
2 1168 7627
2 1169 4816
2 1170 51
2 1171 63
2 1172 36
2 1173 78
2 1174 45
2 1175 65
2 1176 34
2 1177 72
2 1178 44
2 1179 44
2 1180 69
2 1181 51
2 1182 45
2 1183 73
2 1184 62
2 1185 37
2 1186 32
2 1187 49
2 1188 5706
2 1189 32
2 1190 58
2 1191 48
2 1192 59
2 1193 28
2 1194 43
2 1195 99
2 1196 55
2 1197 54
2 1198 53
2 1199 9984
2 1200 55
2 1201 44
2 1202 49
2 1203 48
2 1204 38
2 1205 64
2 1206 45
2 1207 68
2 1208 38
2 1209 35
2 1210 5709
2 1211 60
2 1212 92
2 1213 3347
2 1214 67
2 1215 63
2 1216 76
2 1217 69
2 1218 60
2 1219 57
2 1220 93
2 1221 38
2 1222 62
2 1223 824
2 1224 60
2 1225 50
2 1226 34
2 1227 60
2 1228 69
2 1229 48
2 1230 59
2 1231 106
2 1232 46
2 1233 55
2 1234 54
2 1235 5523
2 1236 45
2 1237 30
2 1238 99
2 1239 77
2 1240 36
2 1241 58
2 1242 51
2 1243 36
2 1244 57
2 1245 279
2 1246 76
2 1247 41
2 1248 36
2 1249 88
2 1250 3033
2 1251 58
2 1252 39
2 1253 57
2 1254 90
2 1255 43
2 1256 23
2 1257 29
2 1258 99
2 1259 55
2 1260 86
2 1261 51
2 1262 66
2 1263 19684
2 1264 30
2 1265 59
2 1266 78
2 1267 40
2 1268 13250
2 1269 79
2 1270 58
2 1271 37
2 1272 43
2 1273 58
2 1274 7484
2 1275 35
2 1276 26
2 1277 73
2 1278 46
2 1279 31
2 1280 88
2 1281 5
2 1282 62
2 1283 33
2 1284 6635
2 1285 67
2 1286 81
2 1287 58
2 1288 73
2 1289 69
2 1290 59
2 1291 60
2 1292 1835
2 1293 71
2 1294 59
2 1295 25
2 1296 38
2 1297 34
2 1298 96
2 1299 98
2 1300 159
2 1301 49
2 1302 76
2 1303 34
2 1304 29
2 1305 53
2 1306 61
2 1307 56
2 1308 55
2 1309 72
2 1310 82
2 1311 4961
2 1312 45
2 1313 32
2 1314 43
2 1315 39
2 1316 49
2 1317 100
2 1318 38
2 1319 55
2 1320 52
2 1321 41
2 1322 60
2 1323 66
2 1324 81
2 1325 103
2 1326 81
2 1327 51
2 1328 49
2 1329 27
2 1330 10578
2 1331 59
2 1332 47
2 1333 7371
2 1334 39
2 1335 64
2 1336 50
2 1337 61
2 1338 61
2 1339 41
2 1340 40
2 1341 81
2 1342 5699
2 1343 124
2 1344 65
2 1345 27
2 1346 50
2 1347 60
2 1348 23
2 1349 44
2 1350 40
2 1351 6529
2 1352 45
2 1353 63
2 1354 49
2 1355 64
2 1356 80
2 1357 39
2 1358 89
2 1359 82
2 1360 34
2 1361 24
2 1362 49
2 1363 57
2 1364 14
2 1365 42
2 1366 37
2 1367 622
2 1368 44
2 1369 6252
2 1370 50
2 1371 49
2 1372 32
2 1373 42
2 1374 9636
2 1375 70
2 1376 36
2 1377 54
2 1378 38
2 1379 65
2 1380 49
2 1381 92
2 1382 81
2 1383 76
2 1384 52
2 1385 104
2 1386 41
2 1387 81
2 1388 34
2 1389 63
2 1390 28
2 1391 25
2 1392 80
2 1393 6948
2 1394 42
2 1395 47
2 1396 53
2 1397 115
2 1398 38
2 1399 27
2 1400 10384
2 1401 21215
2 1402 22
2 1403 97
2 1404 37
2 1405 64
2 1406 64
2 1407 43
2 1408 58
2 1409 291
2 1410 69
2 1411 135
2 1412 30
2 1413 54
2 1414 50
2 1415 8893
2 1416 75
2 1417 65
2 1418 48
2 1419 79
2 1420 49
2 1421 231
2 1422 116
2 1423 37
2 1424 55
2 1425 93
2 1426 50
2 1427 81
2 1428 25
2 1429 66
2 1430 169
2 1431 62
2 1432 101
2 1433 53
2 1434 32
2 1435 64
2 1436 47
2 1437 79
2 1438 48
2 1439 29
2 1440 67
2 1441 54
2 1442 82
2 1443 37
2 1444 37
2 1445 53
2 1446 16
2 1447 83
2 1448 39
2 1449 42
2 1450 50
2 1451 40
2 1452 39
2 1453 54
2 1454 10828
2 1455 25
2 1456 36
2 1457 122
2 1458 49
2 1459 64
2 1460 8914
2 1461 18
2 1462 58
2 1463 61
2 1464 50
2 1465 86
2 1466 32
2 1467 60
2 1468 61
2 1469 7
2 1470 62
2 1471 31
2 1472 57
2 1473 45
2 1474 39
2 1475 78
2 1476 44
2 1477 41
2 1478 55
2 1479 95
2 1480 75
2 1481 45
2 1482 71
2 1483 5333
2 1484 50
2 1485 66
2 1486 10367
2 1487 91
2 1488 79
2 1489 60
2 1490 69
2 1491 45
2 1492 47
2 1493 73
2 1494 80
2 1495 37
2 1496 5334
2 1497 54
2 1498 35
2 1499 53
2 1500 32
2 1501 43
2 1502 45
2 1503 76
2 1504 53
2 1505 69
2 1506 29
2 1507 2168
2 1508 46
2 1509 41
2 1510 221
2 1511 53
2 1512 54
2 1513 65
2 1514 33
2 1515 74
2 1516 65
2 1517 2659
2 1518 9748
2 1519 221
2 1520 66
2 1521 87
2 1522 8645
2 1523 53
2 1524 75
2 1525 101
2 1526 34
2 1527 4381
2 1528 47
2 1529 79
2 1530 77
2 1531 47
2 1532 68
2 1533 191
2 1534 63
2 1535 70
2 1536 4806
2 1537 1721
2 1538 32
2 1539 22
2 1540 63
2 1541 69
2 1542 83
2 1543 56
2 1544 41
2 1545 45
2 1546 5742
2 1547 54
2 1548 27
2 1549 25
2 1550 46
2 1551 84
2 1552 30
2 1553 25
2 1554 53
2 1555 44
2 1556 23
2 1557 47
2 1558 90
2 1559 45
2 1560 27
2 1561 67
2 1562 51
2 1563 37
2 1564 34
2 1565 73
2 1566 43
2 1567 55
2 1568 12969
2 1569 80
2 1570 72
2 1571 71
2 1572 58
2 1573 66
2 1574 38
2 1575 89
2 1576 42
2 1577 81
2 1578 6278
2 1579 47
2 1580 34
2 1581 38
2 1582 4615
2 1583 61
2 1584 51
2 1585 3861
2 1586 37
2 1587 13612
2 1588 45
2 1589 76
2 1590 2165
2 1591 43
2 1592 34
2 1593 62
2 1594 39
2 1595 73
2 1596 73
2 1597 29
2 1598 16
2 1599 88
2 1600 54
2 1601 20
2 1602 53
2 1603 59
2 1604 54
2 1605 34
2 1606 66
2 1607 48
2 1608 95
2 1609 57
2 1610 10088
2 1611 81
2 1612 42
2 1613 59
2 1614 66
2 1615 46
2 1616 78
2 1617 44
2 1618 76
2 1619 50
2 1620 58
2 1621 3450
2 1622 52
2 1623 45
2 1624 62
2 1625 61
2 1626 2659
2 1627 99
2 1628 74
2 1629 66
2 1630 53
2 1631 44
2 1632 52
2 1633 36
2 1634 58
2 1635 45
2 1636 10576
2 1637 37
2 1638 52
2 1639 59
2 1640 84
2 1641 28
2 1642 57
2 1643 56
2 1644 19
2 1645 52
2 1646 5001
2 1647 44
2 1648 37
2 1649 41
2 1650 57
2 1651 30
2 1652 76
2 1653 45
2 1654 68
2 1655 110
2 1656 46
2 1657 27
2 1658 40
2 1659 200
2 1660 71
2 1661 11289
2 1662 58
2 1663 56
2 1664 75
2 1665 80
2 1666 55
2 1667 77
2 1668 96
2 1669 25
2 1670 31
2 1671 30
2 1672 61
2 1673 27
2 1674 57
2 1675 599
2 1676 42
2 1677 755
2 1678 42
2 1679 42
2 1680 37
2 1681 44
2 1682 8998
2 1683 235
2 1684 50
2 1685 37
2 1686 42
2 1687 25
2 1688 76
2 1689 40
2 1690 28
2 1691 37
2 1692 45
2 1693 60
2 1694 39
2 1695 73
2 1696 32
2 1697 91
2 1698 49
2 1699 23
2 1700 60
2 1701 49
2 1702 34
2 1703 29
2 1704 36
2 1705 26
2 1706 58
2 1707 1000
2 1708 376
2 1709 42
2 1710 142
2 1711 15
2 1712 65
2 1713 38
2 1714 44
2 1715 53
2 1716 38
2 1717 35
2 1718 36
2 1719 49
2 1720 66
2 1721 63
2 1722 42
2 1723 56
2 1724 11145
2 1725 42
2 1726 31
2 1727 40
2 1728 58
2 1729 35
2 1730 110
2 1731 33
2 1732 55
2 1733 39
2 1734 49
2 1735 117
2 1736 5147
2 1737 56
2 1738 70
2 1739 44
2 1740 145
2 1741 38
2 1742 48
2 1743 37
2 1744 44
2 1745 30
2 1746 32
2 1747 22
2 1748 33
2 1749 64
2 1750 50
2 1751 43
2 1752 46
2 1753 40
2 1754 113
2 1755 59
2 1756 41
2 1757 99
2 1758 42
2 1759 4918
2 1760 87
2 1761 106
2 1762 10888
2 1763 37
2 1764 53
2 1765 2649
2 1766 25
2 1767 29
2 1768 60
2 1769 58
2 1770 94
2 1771 31
2 1772 55
2 1773 30
2 1774 27
2 1775 56
2 1776 60
2 1777 78
2 1778 75
2 1779 133
2 1780 23
2 1781 49
2 1782 61
2 1783 51
2 1784 78
2 1785 22
2 1786 93
2 1787 67
2 1788 35
2 1789 161
2 1790 12278
2 1791 31
2 1792 43
2 1793 31
2 1794 57
2 1795 56
2 1796 46
2 1797 39
2 1798 39
2 1799 37
2 1800 69
2 1801 44
2 1802 29
2 1803 49
2 1804 50
2 1805 28
2 1806 61
2 1807 70
2 1808 31
2 1809 82
2 1810 44
2 1811 31
2 1812 2509
2 1813 40
2 1814 50
2 1815 81
2 1816 35
2 1817 23
2 1818 19
2 1819 45
2 1820 50
2 1821 156
2 1822 64
2 1823 4480
2 1824 51
2 1825 7578
2 1826 24
2 1827 30
2 1828 49
2 1829 8742
2 1830 96
2 1831 66
2 1832 38
2 1833 63
2 1834 40
2 1835 42
2 1836 50
2 1837 15591
2 1838 56
2 1839 47
2 1840 39
2 1841 50
2 1842 40
2 1843 59
2 1844 84
2 1845 68
2 1846 82
2 1847 7102
2 1848 80
2 1849 26
2 1850 30
2 1851 43
2 1852 60
2 1853 63
2 1854 104
2 1855 1533
2 1856 59
2 1857 73
2 1858 31
2 1859 68
2 1860 47
2 1861 28
2 1862 45
2 1863 32
2 1864 34
2 1865 30
2 1866 111
2 1867 39
2 1868 36
2 1869 63
2 1870 57
2 1871 44
2 1872 56
2 1873 40
2 1874 43
2 1875 49
2 1876 31
2 1877 5203
2 1878 24
2 1879 28
2 1880 37
2 1881 59
2 1882 22
2 1883 6988
2 1884 75
2 1885 67
2 1886 46
2 1887 46
2 1888 37
2 1889 33
2 1890 51
2 1891 71
2 1892 9837
2 1893 57
2 1894 111
2 1895 17
2 1896 53
2 1897 3494
2 1898 41
2 1899 41
2 1900 65
2 1901 69
2 1902 46
2 1903 100
2 1904 63
2 1905 21
2 1906 51
2 1907 60
2 1908 54
2 1909 42
2 1910 482
2 1911 43
2 1912 24
2 1913 8199
2 1914 37
2 1915 29
2 1916 33
2 1917 59
2 1918 40
2 1919 46
2 1920 34
2 1921 48
2 1922 47
2 1923 21
2 1924 29
2 1925 46
2 1926 44
2 1927 46
2 1928 43
2 1929 1866
2 1930 152
2 1931 49
2 1932 40
2 1933 48
2 1934 44
2 1935 61
2 1936 48
2 1937 62
2 1938 59
2 1939 53
2 1940 64
2 1941 56
2 1942 48
2 1943 34
2 1944 40
2 1945 86
2 1946 61
2 1947 84
2 1948 44
2 1949 51
2 1950 33
2 1951 82
2 1952 48
2 1953 41
2 1954 79
2 1955 50
2 1956 6727
2 1957 42
2 1958 62
2 1959 35
2 1960 45
2 1961 34
2 1962 39
2 1963 55
2 1964 28
2 1965 102
2 1966 34
2 1967 36
2 1968 276
2 1969 7997
2 1970 83
2 1971 63
2 1972 37
2 1973 32
2 1974 76
2 1975 98
2 1976 527
2 1977 66
2 1978 5884
2 1979 44
2 1980 38
2 1981 77
2 1982 141
2 1983 49
2 1984 36
2 1985 100
2 1986 76
2 1987 33
2 1988 69
2 1989 35
2 1990 52
2 1991 61
2 1992 81
2 1993 78
2 1994 12959
2 1995 50
2 1996 46
2 1997 83
2 1998 53
2 1999 24
2 2000 66
2 2001 70
2 2002 66
2 2003 51
2 2004 93
2 2005 53
2 2006 50
2 2007 26
2 2008 43
2 2009 58
2 2010 48
2 2011 55
2 2012 38
2 2013 999
2 2014 68
2 2015 84
2 2016 31
2 2017 55
2 2018 67
2 2019 74
2 2020 63
2 2021 62
2 2022 46
2 2023 82
2 2024 25
2 2025 2468
2 2026 116
2 2027 82
2 2028 28
2 2029 17
2 2030 68
2 2031 36
2 2032 38
2 2033 40
2 2034 17
2 2035 36
2 2036 58
2 2037 3404
2 2038 70
2 2039 60
2 2040 60
2 2041 43
2 2042 43
2 2043 34
2 2044 52
2 2045 65
2 2046 61
2 2047 53
2 2048 40
2 2049 220
2 2050 38
2 2051 68
2 2052 61
2 2053 60
2 2054 47
2 2055 17
2 2056 5109
2 2057 60
2 2058 26
2 2059 19
2 2060 70
2 2061 53
2 2062 47
2 2063 183
2 2064 25
2 2065 33
2 2066 53
2 2067 68
2 2068 64
2 2069 53
2 2070 59
2 2071 55
2 2072 38
2 2073 64
2 2074 43
2 2075 52
2 2076 30
2 2077 61
2 2078 50
2 2079 44
2 2080 104
2 2081 11944
2 2082 44
2 2083 30
2 2084 8767
2 2085 36
2 2086 7241
2 2087 72
2 2088 46
2 2089 4064
2 2090 21
2 2091 30
2 2092 355
2 2093 70
2 2094 51
2 2095 2
2 2096 7447
2 2097 38
2 2098 6738
2 2099 55
2 2100 87
2 2101 66
2 2102 48
2 2103 61
2 2104 20
2 2105 26
2 2106 94
2 2107 47
2 2108 54
2 2109 23
2 2110 87
2 2111 45
2 2112 58
2 2113 45
2 2114 41
2 2115 36
2 2116 54
2 2117 38
2 2118 30
2 2119 65
2 2120 92
2 2121 35
2 2122 46
2 2123 47
2 2124 95
2 2125 21
2 2126 7939
2 2127 63
2 2128 32
2 2129 53
2 2130 79
2 2131 66
2 2132 56
2 2133 67
2 2134 30
2 2135 67
2 2136 44
2 2137 20
2 2138 70
2 2139 61
2 2140 2087
2 2141 41
2 2142 53
2 2143 79
2 2144 195
2 2145 54
2 2146 46
2 2147 91
2 2148 48
2 2149 54
2 2150 62
2 2151 5721
2 2152 37
2 2153 68
2 2154 46
2 2155 27
2 2156 57
2 2157 52
2 2158 62
2 2159 52
2 2160 26
2 2161 11
2 2162 66
2 2163 64
2 2164 7053
2 2165 3059
2 2166 86
2 2167 57
2 2168 26
2 2169 81
2 2170 32
2 2171 68
2 2172 36
2 2173 83
2 2174 55
2 2175 50
2 2176 49
2 2177 75
2 2178 6045
2 2179 115
2 2180 32
2 2181 65
2 2182 17
2 2183 70
2 2184 32
2 2185 63
2 2186 100
2 2187 58
2 2188 48
2 2189 61
2 2190 55
2 2191 58
2 2192 30
2 2193 51
2 2194 81
2 2195 91
2 2196 4252
2 2197 40
2 2198 37
2 2199 86
2 2200 66
2 2201 47
2 2202 3806
2 2203 38
2 2204 66
2 2205 84
2 2206 62
2 2207 103
2 2208 170
2 2209 21
2 2210 74
2 2211 61
2 2212 47
2 2213 22
2 2214 74
2 2215 46
2 2216 51
2 2217 32
2 2218 49
2 2219 56
2 2220 116
2 2221 42
2 2222 40
2 2223 45
2 2224 33
2 2225 37
2 2226 37
2 2227 189
2 2228 41
2 2229 104
2 2230 65
2 2231 2209
2 2232 95
2 2233 73
2 2234 3915
2 2235 44
2 2236 44
2 2237 116
2 2238 63
2 2239 61
2 2240 54
2 2241 32
2 2242 75
2 2243 50
2 2244 6962
2 2245 57
2 2246 59
2 2247 5885
2 2248 63
2 2249 78
2 2250 63
2 2251 43
2 2252 6569
2 2253 55
2 2254 4342
2 2255 6342
2 2256 66
2 2257 36
2 2258 24
2 2259 55
2 2260 37
2 2261 38
2 2262 50
2 2263 97
2 2264 30
2 2265 70
2 2266 31
2 2267 98
2 2268 101
2 2269 57
2 2270 148
2 2271 1731
2 2272 100
2 2273 77
2 2274 27
2 2275 50
2 2276 24
2 2277 6324
2 2278 98
2 2279 40
2 2280 60
2 2281 31
2 2282 65
2 2283 74
2 2284 42
2 2285 62
2 2286 47
2 2287 67
2 2288 39
2 2289 57
2 2290 70
2 2291 24
2 2292 32
2 2293 22
2 2294 2466
2 2295 1701
2 2296 45
2 2297 61
2 2298 64
2 2299 54
2 2300 49
2 2301 25
2 2302 43
2 2303 33
2 2304 61
2 2305 58
2 2306 2220
2 2307 49
2 2308 52
2 2309 41
2 2310 74
2 2311 59
2 2312 53
2 2313 31
2 2314 35
2 2315 64
2 2316 67
2 2317 50
2 2318 3984
2 2319 6527
2 2320 63
2 2321 59
2 2322 62
2 2323 82
2 2324 86
2 2325 5084
2 2326 3903
2 2327 55
2 2328 47
2 2329 94
2 2330 37
2 2331 69
2 2332 55
2 2333 33
2 2334 127
2 2335 14
2 2336 37
2 2337 81
2 2338 35
2 2339 205
2 2340 55
2 2341 136
2 2342 49
2 2343 25
2 2344 77
2 2345 41
2 2346 81
2 2347 33
2 2348 57
2 2349 67
2 2350 53
2 2351 35
2 2352 6497
2 2353 47
2 2354 47
2 2355 63
2 2356 34
2 2357 43
2 2358 39
2 2359 45
2 2360 42
2 2361 23
2 2362 42
2 2363 158
2 2364 28
2 2365 56
2 2366 40
2 2367 27
2 2368 4878
2 2369 29
2 2370 50
2 2371 72
2 2372 77
2 2373 28
2 2374 3890
2 2375 62
2 2376 50
2 2377 69
2 2378 50
2 2379 45
2 2380 56
2 2381 78
2 2382 46
2 2383 29
2 2384 33
2 2385 42
2 2386 64
2 2387 28
2 2388 53
2 2389 26
2 2390 67
2 2391 59
2 2392 35
2 2393 35
2 2394 50
2 2395 54
2 2396 63
2 2397 40
2 2398 37
2 2399 55
2 2400 60
2 2401 133
2 2402 41
2 2403 33
2 2404 39
2 2405 53
2 2406 71
2 2407 37
2 2408 50
2 2409 23
2 2410 78
2 2411 10064
2 2412 42
2 2413 76
2 2414 67
2 2415 83
2 2416 59
2 2417 40
2 2418 14
2 2419 78
2 2420 2276
2 2421 77
2 2422 41
2 2423 34
2 2424 82
2 2425 44
2 2426 59
2 2427 75
2 2428 142
2 2429 79
2 2430 39
2 2431 59
2 2432 35
2 2433 7554
2 2434 32
2 2435 50
2 2436 65
2 2437 27
2 2438 2903
2 2439 59
2 2440 82
2 2441 48
2 2442 29
2 2443 38
2 2444 43
2 2445 33
2 2446 63
2 2447 30
2 2448 67
2 2449 67
2 2450 71
2 2451 50
2 2452 40
2 2453 27
2 2454 35
2 2455 130
2 2456 31
2 2457 39
2 2458 27
2 2459 29
2 2460 63
2 2461 29
2 2462 398
2 2463 38
2 2464 39
2 2465 38
2 2466 42
2 2467 67
2 2468 54
2 2469 31
2 2470 46
2 2471 74
2 2472 25
2 2473 13801
2 2474 32
2 2475 8106
2 2476 36
2 2477 4502
2 2478 66
2 2479 58
2 2480 62
2 2481 23
2 2482 52
2 2483 63
2 2484 4111
2 2485 23
2 2486 23
2 2487 64
2 2488 7355
2 2489 68
2 2490 40
2 2491 32
2 2492 39
2 2493 44
2 2494 73
2 2495 41
2 2496 27
2 2497 89
2 2498 33
2 2499 52
2 2500 41
2 2501 82
2 2502 96
2 2503 17
2 2504 55
2 2505 93
2 2506 43
2 2507 36
2 2508 60
2 2509 97
2 2510 54
2 2511 24
2 2512 25
2 2513 39
2 2514 76
2 2515 40
2 2516 54
2 2517 36
2 2518 80
2 2519 129
2 2520 24
2 2521 112
2 2522 32
2 2523 27
2 2524 62
2 2525 58
2 2526 19
2 2527 52
2 2528 34
2 2529 56
2 2530 57
2 2531 17
2 2532 55
2 2533 40
2 2534 38
2 2535 72
2 2536 87
2 2537 40
2 2538 52
2 2539 58
2 2540 24
2 2541 60
2 2542 509
2 2543 28
2 2544 72
2 2545 22
2 2546 26
2 2547 68
2 2548 43
2 2549 52
2 2550 3970
2 2551 5084
2 2552 57
2 2553 45
2 2554 63
2 2555 37
2 2556 1478
2 2557 29
2 2558 26
2 2559 34
2 2560 50
2 2561 40
2 2562 2757
2 2563 58
2 2564 93
2 2565 738
2 2566 24
2 2567 71
2 2568 61
2 2569 52
2 2570 47
2 2571 30
2 2572 73
2 2573 52
2 2574 27
2 2575 58
2 2576 246
2 2577 25
2 2578 4298
2 2579 69
2 2580 63
2 2581 53
2 2582 58
2 2583 94
2 2584 36
2 2585 657
2 2586 53
2 2587 160
2 2588 67
2 2589 48
2 2590 73
2 2591 25
2 2592 31
2 2593 38
2 2594 31
2 2595 46
2 2596 73
2 2597 83
2 2598 54
2 2599 62
2 2600 72
2 2601 71
2 2602 41
2 2603 34
2 2604 49
2 2605 32
2 2606 91
2 2607 24
2 2608 23
2 2609 29
2 2610 1091
2 2611 58
2 2612 33
2 2613 36
2 2614 5532
2 2615 46
2 2616 77
2 2617 32
2 2618 27
2 2619 85
2 2620 50
2 2621 21
2 2622 43
2 2623 31
2 2624 33
2 2625 69
2 2626 102
2 2627 37
2 2628 33
2 2629 58
2 2630 166
2 2631 34
2 2632 37
2 2633 53
2 2634 56
2 2635 67
2 2636 55
2 2637 55
2 2638 129
2 2639 28
2 2640 41
2 2641 90
2 2642 43
2 2643 163
2 2644 38
2 2645 5738
2 2646 46
2 2647 43
2 2648 21
2 2649 67
2 2650 34
2 2651 51
2 2652 33
2 2653 347
2 2654 30
2 2655 64
2 2656 43
2 2657 38
2 2658 79
2 2659 49
2 2660 40
2 2661 49
2 2662 59
2 2663 53
2 2664 73
2 2665 9
2 2666 76
2 2667 43
2 2668 3
2 2669 31
2 2670 127
2 2671 56
2 2672 54
2 2673 42
2 2674 35
2 2675 34
2 2676 6034
2 2677 43
2 2678 35
2 2679 59
2 2680 24
2 2681 70
2 2682 80
2 2683 92
2 2684 44
2 2685 31
2 2686 164
2 2687 64
2 2688 1766
2 2689 25
2 2690 55
2 2691 70
2 2692 4270
2 2693 40
2 2694 62
2 2695 27
2 2696 41
2 2697 51
2 2698 36
2 2699 71
2 2700 49
2 2701 26
2 2702 91
2 2703 41
2 2704 68
2 2705 49
2 2706 26
2 2707 47
2 2708 23
2 2709 65
2 2710 37
2 2711 72
2 2712 2445
2 2713 64
2 2714 37
2 2715 57
2 2716 45
2 2717 148
2 2718 36
2 2719 112
2 2720 39
2 2721 67
2 2722 61
2 2723 46
2 2724 44
2 2725 24
2 2726 68
2 2727 65
2 2728 57
2 2729 3703
2 2730 46
2 2731 47
2 2732 49
2 2733 50
2 2734 85
2 2735 65
2 2736 28
2 2737 72
2 2738 25
2 2739 43
2 2740 49
2 2741 17884
2 2742 62
2 2743 32
2 2744 45
2 2745 36
2 2746 30
2 2747 37
2 2748 78
2 2749 289
2 2750 46
2 2751 19
2 2752 32
2 2753 39
2 2754 50
2 2755 26
2 2756 22
2 2757 46
2 2758 30
2 2759 58
2 2760 2462
2 2761 60
2 2762 51
2 2763 28
2 2764 57
2 2765 47
2 2766 47
2 2767 67
2 2768 60
2 2769 2422
2 2770 26
2 2771 60
2 2772 2331
2 2773 47
2 2774 32
2 2775 91
2 2776 152
2 2777 38
2 2778 48
2 2779 34
2 2780 67
2 2781 54
2 2782 22
2 2783 3427
2 2784 2804
2 2785 47
2 2786 23
2 2787 64
2 2788 53
2 2789 36
2 2790 28
2 2791 84
2 2792 31
2 2793 6012
2 2794 20
2 2795 69
2 2796 100
2 2797 47
2 2798 121
2 2799 23
2 2800 57
2 2801 69
2 2802 60
2 2803 1014
2 2804 16
2 2805 70
2 2806 106
2 2807 37
2 2808 37
2 2809 57
2 2810 48
2 2811 39
2 2812 62
2 2813 57
2 2814 2741
2 2815 8683
2 2816 46
2 2817 41
2 2818 3
2 2819 46
2 2820 36
2 2821 116
2 2822 61
2 2823 109
2 2824 1896
2 2825 37
2 2826 44
2 2827 59
2 2828 47
2 2829 56
2 2830 48
2 2831 43
2 2832 31
2 2833 35
2 2834 38
2 2835 64
2 2836 33
2 2837 67
2 2838 56
2 2839 86
2 2840 26
2 2841 71
2 2842 93
2 2843 78
2 2844 42
2 2845 460
2 2846 68
2 2847 39
2 2848 30
2 2849 33
2 2850 53
2 2851 53
2 2852 35
2 2853 54
2 2854 40
2 2855 57
2 2856 66
2 2857 95
2 2858 53
2 2859 23
2 2860 37
2 2861 59
2 2862 42
2 2863 89
2 2864 52
2 2865 1166
2 2866 69
2 2867 39
2 2868 49
2 2869 48
2 2870 53
2 2871 57
2 2872 31
2 2873 17
2 2874 92
2 2875 64
2 2876 28
2 2877 66
2 2878 74
2 2879 66
2 2880 64
2 2881 34
2 2882 79
2 2883 53
2 2884 29
2 2885 38
2 2886 29
2 2887 65
2 2888 54
2 2889 26
2 2890 48
2 2891 26
2 2892 63
2 2893 28
2 2894 94
2 2895 81
2 2896 60
2 2897 58
2 2898 85
2 2899 53
2 2900 44
2 2901 29
2 2902 49
2 2903 99
2 2904 55
2 2905 41
2 2906 113
2 2907 51
2 2908 5220
2 2909 33
2 2910 36
2 2911 50
2 2912 81
2 2913 35
2 2914 56
2 2915 34
2 2916 46
2 2917 50
2 2918 65
2 2919 21
2 2920 63
2 2921 75
2 2922 76
2 2923 23
2 2924 56
2 2925 29
2 2926 1977
2 2927 33
2 2928 948
2 2929 6201
2 2930 33
2 2931 45
2 2932 29
2 2933 73
2 2934 43
2 2935 79
2 2936 29
2 2937 22
2 2938 41
2 2939 32
2 2940 36
2 2941 43
2 2942 43
2 2943 24
2 2944 30
2 2945 1201
2 2946 71
2 2947 40
2 2948 104
2 2949 38
2 2950 8177
2 2951 53
2 2952 28
2 2953 30
2 2954 51
2 2955 59
2 2956 25
2 2957 28
2 2958 46
2 2959 37
2 2960 80
2 2961 65
2 2962 3580
2 2963 28
2 2964 46
2 2965 27
2 2966 20
2 2967 37
2 2968 22
2 2969 53
2 2970 46
2 2971 32
2 2972 34
2 2973 2997
2 2974 56
2 2975 40
2 2976 31
2 2977 43
2 2978 49
2 2979 47
2 2980 44
2 2981 70
2 2982 38
2 2983 197
2 2984 48
2 2985 20
2 2986 46
2 2987 10
2 2988 22
2 2989 37
2 2990 52
2 2991 34
2 2992 59
2 2993 35
2 2994 53
2 2995 41
2 2996 84
2 2997 44
2 2998 55
2 2999 39
2 3000 51
2 3001 70
2 3002 60
2 3003 42
2 3004 50
2 3005 56
2 3006 26
2 3007 47
2 3008 91
2 3009 30
2 3010 33
2 3011 1026
2 3012 89
2 3013 60
2 3014 45
2 3015 42
2 3016 53
2 3017 50
2 3018 25
2 3019 62
2 3020 36
2 3021 45
2 3022 1637
2 3023 39
2 3024 72
2 3025 38
2 3026 48
2 3027 81
2 3028 2958
2 3029 3522
2 3030 52
2 3031 58
2 3032 57
2 3033 73
2 3034 28
2 3035 83
2 3036 83
2 3037 49
2 3038 84
2 3039 30
2 3040 25
2 3041 1262
2 3042 62
2 3043 36
2 3044 57
2 3045 40
2 3046 1245
2 3047 68
2 3048 60
2 3049 44
2 3050 73
2 3051 48
2 3052 68
2 3053 48
2 3054 20
2 3055 40
2 3056 49
2 3057 30
2 3058 65
2 3059 56
2 3060 26
2 3061 21
2 3062 48
2 3063 153
2 3064 55
2 3065 40
2 3066 31
2 3067 52
2 3068 24
2 3069 151
2 3070 51
2 3071 76
2 3072 102
2 3073 35
2 3074 54
2 3075 3923
2 3076 71
2 3077 55
2 3078 44
2 3079 57
2 3080 47
2 3081 64
2 3082 39
2 3083 51
2 3084 62
2 3085 31
2 3086 33
2 3087 63
2 3088 10
2 3089 1675
2 3090 47
2 3091 273
2 3092 33
2 3093 54
2 3094 33
2 3095 36
2 3096 32
2 3097 206
2 3098 31
2 3099 37
2 3100 50
2 3101 34
2 3102 67
2 3103 56
2 3104 42
2 3105 54
2 3106 40
2 3107 34
2 3108 2416
2 3109 51
2 3110 58
2 3111 62
2 3112 35
2 3113 49
2 3114 2481
2 3115 52
2 3116 42
2 3117 3562
2 3118 47
2 3119 42
2 3120 7053
2 3121 3827
2 3122 57
2 3123 3562
2 3124 69
2 3125 39
2 3126 48
2 3127 46
2 3128 59
2 3129 26
2 3130 44
2 3131 44
2 3132 75
2 3133 66
2 3134 79
2 3135 2398
2 3136 246
2 3137 74
2 3138 6135
2 3139 1113
2 3140 45
2 3141 8168
2 3142 62
2 3143 122
2 3144 30
2 3145 61
2 3146 88
2 3147 41
2 3148 24
2 3149 87
2 3150 53
2 3151 37
2 3152 60
2 3153 61
2 3154 82
2 3155 93
2 3156 6
2 3157 52
2 3158 99
2 3159 47
2 3160 40
2 3161 59
2 3162 56
2 3163 52
2 3164 74
2 3165 38
2 3166 66
2 3167 3727
2 3168 39
2 3169 62
2 3170 30
2 3171 65
2 3172 34
2 3173 60
2 3174 76
2 3175 47
2 3176 37
2 3177 21
2 3178 49
2 3179 31
2 3180 31
2 3181 46
2 3182 88
2 3183 22
2 3184 57
2 3185 59
2 3186 1884
2 3187 39
2 3188 726
2 3189 62
2 3190 49
2 3191 49
2 3192 57
2 3193 33
2 3194 3133
2 3195 15
2 3196 246
2 3197 1631
2 3198 42
2 3199 32
2 3200 67
2 3201 49
2 3202 48
2 3203 26
2 3204 25
2 3205 38
2 3206 3905
2 3207 51
2 3208 58
2 3209 20
2 3210 46
2 3211 50
2 3212 37
2 3213 42
2 3214 28
2 3215 48
2 3216 54
2 3217 37
2 3218 50
2 3219 55
2 3220 46
2 3221 42
2 3222 66
2 3223 61
2 3224 35
2 3225 69
2 3226 27
2 3227 63
2 3228 52
2 3229 67
2 3230 217
2 3231 252
2 3232 35
2 3233 39
2 3234 36
2 3235 65
2 3236 32
2 3237 30
2 3238 23
2 3239 48
2 3240 49
2 3241 56
2 3242 64
2 3243 38
2 3244 48
2 3245 60
2 3246 56
2 3247 54
2 3248 1367
2 3249 47
2 3250 56
2 3251 64
2 3252 61
2 3253 37
2 3254 41
2 3255 62
2 3256 39
2 3257 37
2 3258 58
2 3259 61
2 3260 53
2 3261 36
2 3262 26
2 3263 68
2 3264 30
2 3265 55
2 3266 76
2 3267 46
2 3268 3818
2 3269 57
2 3270 57
2 3271 21
2 3272 51
2 3273 39
2 3274 3915
2 3275 23
2 3276 3315
2 3277 51
2 3278 63
2 3279 78
2 3280 36
2 3281 51
2 3282 48
2 3283 5518
2 3284 55
2 3285 13
2 3286 30
2 3287 2535
2 3288 49
2 3289 18
2 3290 133
2 3291 20
2 3292 42
2 3293 36
2 3294 153
2 3295 61
2 3296 43
2 3297 159
2 3298 101
2 3299 26
2 3300 59
2 3301 54
2 3302 6863
2 3303 63
2 3304 48
2 3305 50
2 3306 47
2 3307 34
2 3308 43
2 3309 38
2 3310 38
2 3311 45
2 3312 107
2 3313 26
2 3314 44
2 3315 42
2 3316 68
2 3317 81
2 3318 56
2 3319 32
2 3320 70
2 3321 43
2 3322 185
2 3323 63
2 3324 46
2 3325 63
2 3326 33
2 3327 26
2 3328 21
2 3329 45
2 3330 67
2 3331 46
2 3332 22
2 3333 62
2 3334 46
2 3335 48
2 3336 70
2 3337 37
2 3338 3913
2 3339 33
2 3340 35
2 3341 34
2 3342 63
2 3343 48
2 3344 23
2 3345 51
2 3346 35
2 3347 72
2 3348 56
2 3349 55
2 3350 22
2 3351 35
2 3352 27
2 3353 144
2 3354 38
2 3355 82
2 3356 46
2 3357 1683
2 3358 34
2 3359 55
2 3360 37
2 3361 116
2 3362 43
2 3363 29
2 3364 42
2 3365 51
2 3366 46
2 3367 2534
2 3368 32
2 3369 3
2 3370 55
2 3371 53
2 3372 56
2 3373 50
2 3374 57
2 3375 57
2 3376 52
2 3377 25
2 3378 32
2 3379 21
2 3380 45
2 3381 32
2 3382 33
2 3383 98
2 3384 42
2 3385 47
2 3386 52
2 3387 70
2 3388 81
2 3389 716
2 3390 187
2 3391 47
2 3392 97
2 3393 16
2 3394 54
2 3395 31
2 3396 49
2 3397 30
2 3398 74
2 3399 33
2 3400 44
2 3401 44
2 3402 19
2 3403 47
2 3404 28
2 3405 67
2 3406 56
2 3407 62
2 3408 48
2 3409 62
2 3410 30
2 3411 18
2 3412 45
2 3413 32
2 3414 6135
2 3415 44
2 3416 27
2 3417 25
2 3418 49
2 3419 13
2 3420 58
2 3421 42
2 3422 140
2 3423 39
2 3424 56
2 3425 67
2 3426 40
2 3427 14
2 3428 25
2 3429 52
2 3430 58
2 3431 38
2 3432 48
2 3433 99
2 3434 82
2 3435 32
2 3436 46
2 3437 55
2 3438 43
2 3439 78
2 3440 102
2 3441 69
2 3442 39
2 3443 44
2 3444 41
2 3445 22
2 3446 68
2 3447 73
2 3448 12
2 3449 57
2 3450 72
2 3451 22
2 3452 9
2 3453 54
2 3454 21
2 3455 24
2 3456 40
2 3457 50
2 3458 40
2 3459 28
2 3460 40
2 3461 1579
2 3462 46
2 3463 25
2 3464 26
2 3465 23
2 3466 36
2 3467 51
2 3468 17
2 3469 42
2 3470 36
2 3471 56
2 3472 30
2 3473 26
2 3474 49
2 3475 33
2 3476 26
2 3477 23
2 3478 29
2 3479 21
2 3480 46
2 3481 20
2 3482 60
2 3483 94
2 3484 34
2 3485 39
2 3486 47
2 3487 71
2 3488 35
2 3489 56
2 3490 4755
2 3491 85
2 3492 43
2 3493 80
2 3494 22
2 3495 39
2 3496 40
2 3497 56
2 3498 39
2 3499 4564
2 3500 76
2 3501 34
2 3502 44
2 3503 24
2 3504 642
2 3505 1779
2 3506 27
2 3507 31
2 3508 66
2 3509 33
2 3510 32
2 3511 25
2 3512 48
2 3513 34
2 3514 58
2 3515 141
2 3516 60
2 3517 47
2 3518 29
2 3519 64
2 3520 37
2 3521 33
2 3522 1909
2 3523 35
2 3524 38
2 3525 39
2 3526 93
2 3527 53
2 3528 40
2 3529 36
2 3530 27
2 3531 41
2 3532 44
2 3533 376
2 3534 38
2 3535 4006
2 3536 65
2 3537 26
2 3538 56
2 3539 82
2 3540 62
2 3541 58
2 3542 71
2 3543 19
2 3544 48
2 3545 44
2 3546 32
2 3547 30
2 3548 31
2 3549 38
2 3550 53
2 3551 43
2 3552 36
2 3553 70
2 3554 50
2 3555 5203
2 3556 43
2 3557 52
2 3558 66
2 3559 60
2 3560 36
2 3561 29
2 3562 47
2 3563 55
2 3564 95
2 3565 62
2 3566 55
2 3567 66
2 3568 44
2 3569 43
2 3570 2520
2 3571 62
2 3572 30
2 3573 40
2 3574 59
2 3575 106
2 3576 72
2 3577 63
2 3578 33
2 3579 28
2 3580 61
2 3581 59
2 3582 30
2 3583 53
2 3584 52
2 3585 34
2 3586 48
2 3587 933
2 3588 75
2 3589 19
2 3590 50
2 3591 30
2 3592 52
2 3593 73
2 3594 51
2 3595 50
2 3596 55
2 3597 69
2 3598 48
2 3599 63
2 3600 40
2 3601 56
2 3602 30
2 3603 33
2 3604 52
2 3605 54
2 3606 48
2 3607 19
2 3608 57
2 3609 31
2 3610 64
2 3611 46
2 3612 38
2 3613 36
2 3614 50
2 3615 54
2 3616 22
2 3617 43
2 3618 65
2 3619 30
2 3620 82
2 3621 50
2 3622 54
2 3623 32
2 3624 33
2 3625 35
2 3626 56
2 3627 48
2 3628 1905
2 3629 67
2 3630 34
2 3631 46
2 3632 4958
2 3633 41
2 3634 46
2 3635 44
2 3636 30
2 3637 57
2 3638 73
2 3639 23
2 3640 33
2 3641 27
2 3642 49
2 3643 38
2 3644 49
2 3645 65
2 3646 61
2 3647 46
2 3648 60
2 3649 30
2 3650 33
2 3651 54
2 3652 30
2 3653 38
2 3654 17
2 3655 65
2 3656 56
2 3657 67
2 3658 71
2 3659 130
2 3660 60
2 3661 109
2 3662 53
2 3663 50
2 3664 51
2 3665 16
2 3666 45
2 3667 27
2 3668 71
2 3669 46
2 3670 47
2 3671 28
2 3672 81
2 3673 67
2 3674 47
2 3675 16
2 3676 2655
2 3677 68
2 3678 30
2 3679 47
2 3680 29
2 3681 70
2 3682 2647
2 3683 36
2 3684 30
2 3685 63
2 3686 26
2 3687 51
2 3688 30
2 3689 56
2 3690 62
2 3691 59
2 3692 43
2 3693 50
2 3694 57
2 3695 33
2 3696 70
2 3697 53
2 3698 9
2 3699 36
2 3700 58
2 3701 59
2 3702 81
2 3703 52
2 3704 49
2 3705 41
2 3706 25
2 3707 70
2 3708 29
2 3709 52
2 3710 57
2 3711 47
2 3712 19
2 3713 51
2 3714 44
2 3715 43
2 3716 86
2 3717 55
2 3718 29
2 3719 30
2 3720 35
2 3721 5068
2 3722 38
2 3723 38
2 3724 34
2 3725 30
2 3726 40
2 3727 23
2 3728 73
2 3729 62
2 3730 88
2 3731 43
2 3732 67
2 3733 72
2 3734 42
2 3735 50
2 3736 36
2 3737 30
2 3738 38
2 3739 799
2 3740 44
2 3741 36
2 3742 64
2 3743 18
2 3744 73
2 3745 34
2 3746 42
2 3747 51
2 3748 29
2 3749 39
2 3750 43
2 3751 49
2 3752 46
2 3753 23
2 3754 71
2 3755 49
2 3756 48
2 3757 47
2 3758 62
2 3759 31
2 3760 58
2 3761 46
2 3762 60
2 3763 44
2 3764 49
2 3765 30
2 3766 46
2 3767 24
2 3768 53
2 3769 64
2 3770 34
2 3771 64
2 3772 33
2 3773 41
2 3774 21
2 3775 73
2 3776 36
2 3777 33
2 3778 70
2 3779 15
2 3780 97
2 3781 42
2 3782 28
2 3783 54
2 3784 71
2 3785 62
2 3786 42
2 3787 29
2 3788 74
2 3789 38
2 3790 65
2 3791 34
2 3792 41
2 3793 71
2 3794 56
2 3795 56
2 3796 65
2 3797 68
2 3798 36
2 3799 50
2 3800 59
2 3801 49
2 3802 25
2 3803 32
2 3804 75
2 3805 49
2 3806 59
2 3807 53
2 3808 46
2 3809 279
2 3810 43
2 3811 53
2 3812 32
2 3813 87
2 3814 51
2 3815 35
2 3816 55
2 3817 39
2 3818 34
2 3819 30
2 3820 50
2 3821 606
2 3822 59
2 3823 69
2 3824 39
2 3825 63
2 3826 35
2 3827 48
2 3828 2699
2 3829 30
2 3830 702
2 3831 37
2 3832 28
2 3833 79
2 3834 46
2 3835 32
2 3836 46
2 3837 41
2 3838 53
2 3839 30
2 3840 24
2 3841 22
2 3842 43
2 3843 60
2 3844 58
2 3845 151
2 3846 46
2 3847 84
2 3848 36
2 3849 26
2 3850 39
2 3851 102
2 3852 35
2 3853 36
2 3854 42
2 3855 41
2 3856 54
2 3857 58
2 3858 50
2 3859 1042
2 3860 46
2 3861 54
2 3862 41
2 3863 22
2 3864 37
2 3865 22
2 3866 194
2 3867 4522
2 3868 72
2 3869 43
2 3870 66
2 3871 61
2 3872 38
2 3873 43
2 3874 15
2 3875 41
2 3876 29
2 3877 70
2 3878 34
2 3879 22
2 3880 2
2 3881 66
2 3882 46
2 3883 35
2 3884 52
2 3885 65
2 3886 1
2 3887 1783
2 3888 48
2 3889 39
2 3890 59
2 3891 64
2 3892 51
2 3893 48
2 3894 24
2 3895 18
2 3896 42
2 3897 69
2 3898 18
2 3899 231
2 3900 56
2 3901 23
2 3902 50
2 3903 75
2 3904 58
2 3905 48
2 3906 72
2 3907 247
2 3908 25
2 3909 38
2 3910 32
2 3911 25
2 3912 19
2 3913 40
2 3914 4094
2 3915 43
2 3916 1095
2 3917 48
2 3918 51
2 3919 24
2 3920 37
2 3921 28
2 3922 30
2 3923 37
2 3924 49
2 3925 22
2 3926 105
2 3927 35
2 3928 33
2 3929 40
2 3930 2555
2 3931 4638
2 3932 35
2 3933 66
2 3934 19
2 3935 88
2 3936 65
2 3937 15
2 3938 60
2 3939 28
2 3940 55
2 3941 64
2 3942 25
2 3943 24
2 3944 72
2 3945 29
2 3946 51
2 3947 35
2 3948 34
2 3949 121
2 3950 26
2 3951 34
2 3952 48
2 3953 53
2 3954 31
2 3955 13
2 3956 56
2 3957 55
2 3958 59
2 3959 23
2 3960 30
2 3961 31
2 3962 27
2 3963 22
2 3964 22
2 3965 61
2 3966 52
2 3967 33
2 3968 355
2 3969 51
2 3970 144
2 3971 19
2 3972 75
2 3973 27
2 3974 36
2 3975 20
2 3976 45
2 3977 69
2 3978 61
2 3979 69
2 3980 69
2 3981 65
2 3982 67
2 3983 127
2 3984 97
2 3985 26
2 3986 57
2 3987 24
2 3988 33
2 3989 257
2 3990 24
2 3991 26
2 3992 72
2 3993 100
2 3994 47
2 3995 28
2 3996 40
2 3997 48
2 3998 10
2 3999 74
2 4000 23
2 4001 64
2 4002 56
2 4003 42
2 4004 33
2 4005 37
2 4006 46
2 4007 47
2 4008 36
2 4009 50
2 4010 33
2 4011 33
2 4012 28
2 4013 68
2 4014 49
2 4015 138
2 4016 60
2 4017 35
2 4018 68
2 4019 58
2 4020 40
2 4021 27
2 4022 39
2 4023 50
2 4024 182
2 4025 33
2 4026 38
2 4027 71
2 4028 30
2 4029 25
2 4030 64
2 4031 17
2 4032 43
2 4033 19
2 4034 49
2 4035 9
2 4036 50
2 4037 24
2 4038 59
2 4039 62
2 4040 64
2 4041 80
2 4042 20
2 4043 41
2 4044 21
2 4045 46
2 4046 731
2 4047 58
2 4048 53
2 4049 68
2 4050 38
2 4051 34
2 4052 39
2 4053 35
2 4054 67
2 4055 36
2 4056 91
2 4057 22
2 4058 56
2 4059 573
2 4060 51
2 4061 44
2 4062 44
2 4063 51
2 4064 53
2 4065 50
2 4066 57
2 4067 41
2 4068 50
2 4069 66
2 4070 33
2 4071 43
2 4072 31
2 4073 31
2 4074 45
2 4075 2458
2 4076 47
2 4077 25
2 4078 37
2 4079 52
2 4080 32
2 4081 47
2 4082 69
2 4083 64
2 4084 55
2 4085 29
2 4086 38
2 4087 70
2 4088 64
2 4089 55
2 4090 106
2 4091 51
2 4092 92
2 4093 40
2 4094 78
2 4095 42
2 4096 65
2 4097 60
2 4098 38
2 4099 65
2 4100 33
2 4101 37
2 4102 51
2 4103 78
2 4104 42
2 4105 5
2 4106 37
2 4107 27
2 4108 55
2 4109 126
2 4110 73
2 4111 29
2 4112 50
2 4113 648
2 4114 38
2 4115 86
2 4116 26
2 4117 32
2 4118 77
2 4119 55
2 4120 48
2 4121 53
2 4122 31
2 4123 63
2 4124 19
2 4125 28
2 4126 57
2 4127 47
2 4128 31
2 4129 42
2 4130 45
2 4131 63
2 4132 38
2 4133 1304
2 4134 34
2 4135 34
2 4136 71
2 4137 22
2 4138 55
2 4139 265
2 4140 718
2 4141 38
2 4142 26
2 4143 37
2 4144 21
2 4145 65
2 4146 39
2 4147 42
2 4148 48
2 4149 35
2 4150 52
2 4151 57
2 4152 50
2 4153 21
2 4154 29
2 4155 35
2 4156 14
2 4157 24
2 4158 35
2 4159 44
2 4160 80
2 4161 37
2 4162 17
2 4163 80
2 4164 65
2 4165 57
2 4166 50
2 4167 39
2 4168 50
2 4169 68
2 4170 31
2 4171 28
2 4172 31
2 4173 28
2 4174 48
2 4175 35
2 4176 36
2 4177 42
2 4178 330
2 4179 57
2 4180 50
2 4181 36
2 4182 15
2 4183 26
2 4184 41
2 4185 30
2 4186 98
2 4187 52
2 4188 27
2 4189 51
2 4190 66
2 4191 70
2 4192 39
2 4193 48
2 4194 47
2 4195 67
2 4196 51
2 4197 55
2 4198 49
2 4199 51
2 4200 60
2 4201 26
2 4202 34
2 4203 17
2 4204 70
2 4205 137
2 4206 71
2 4207 46
2 4208 29
2 4209 66
2 4210 50
2 4211 39
2 4212 16
2 4213 51
2 4214 46
2 4215 25
2 4216 38
2 4217 30
2 4218 33
2 4219 46
2 4220 34
2 4221 39
2 4222 31
2 4223 65
2 4224 33
2 4225 40
2 4226 67
2 4227 45
2 4228 179
2 4229 37
2 4230 50
2 4231 55
2 4232 48
2 4233 73
2 4234 38
2 4235 128
2 4236 71
2 4237 50
2 4238 51
2 4239 137
2 4240 112
2 4241 36
2 4242 49
2 4243 140
2 4244 18
2 4245 29
2 4246 54
2 4247 65
2 4248 23
2 4249 27
2 4250 18
2 4251 38
2 4252 47
2 4253 36
2 4254 37
2 4255 49
2 4256 34
2 4257 39
2 4258 2574
2 4259 59
2 4260 68
2 4261 25
2 4262 40
2 4263 35
2 4264 74
2 4265 70
2 4266 34
2 4267 25
2 4268 38
2 4269 40
2 4270 25
2 4271 38
2 4272 51
2 4273 32
2 4274 97
2 4275 4
2 4276 44
2 4277 60
2 4278 37
2 4279 82
2 4280 58
2 4281 59
2 4282 52
2 4283 55
2 4284 52
2 4285 41
2 4286 52
2 4287 104
2 4288 32
2 4289 40
2 4290 38
2 4291 57
2 4292 43
2 4293 20
2 4294 62
2 4295 59
2 4296 18
2 4297 68
2 4298 36
2 4299 29
2 4300 31
2 4301 78
2 4302 37
2 4303 34
2 4304 22
2 4305 42
2 4306 48
2 4307 54
2 4308 517
2 4309 37
2 4310 55
2 4311 60
2 4312 22
2 4313 73
2 4314 90
2 4315 123
2 4316 55
2 4317 154
2 4318 46
2 4319 21
2 4320 49
2 4321 44
2 4322 42
2 4323 25
2 4324 65
2 4325 27
2 4326 21
2 4327 58
2 4328 56
2 4329 44
2 4330 28
2 4331 110
2 4332 39
2 4333 53
2 4334 14
2 4335 48
2 4336 22
2 4337 25
2 4338 83
2 4339 35
2 4340 54
2 4341 39
2 4342 40
2 4343 27
2 4344 23
2 4345 51
2 4346 57
2 4347 62
2 4348 59
2 4349 94
2 4350 37
2 4351 23
2 4352 40
2 4353 39
2 4354 55
2 4355 52
2 4356 47
2 4357 45
2 4358 24
2 4359 29
2 4360 25
2 4361 1624
2 4362 50
2 4363 34
2 4364 227
2 4365 59
2 4366 68
2 4367 43
2 4368 24
2 4369 26
2 4370 55
2 4371 30
2 4372 38
2 4373 115
2 4374 17
2 4375 42
2 4376 33
2 4377 67
2 4378 33
2 4379 60
2 4380 43
2 4381 56
2 4382 31
2 4383 68
2 4384 35
2 4385 64
2 4386 33
2 4387 140
2 4388 32
2 4389 62
2 4390 28
2 4391 55
2 4392 294
2 4393 38
2 4394 29
2 4395 34
2 4396 18
2 4397 43
2 4398 277
2 4399 59
2 4400 40
2 4401 54
2 4402 57
2 4403 58
2 4404 29
2 4405 61
2 4406 40
2 4407 160
2 4408 912
2 4409 151
2 4410 65
2 4411 48
2 4412 111
2 4413 22
2 4414 44
2 4415 2411
2 4416 56
2 4417 40
2 4418 49
2 4419 68
2 4420 83
2 4421 53
2 4422 26
2 4423 22
2 4424 28
2 4425 39
2 4426 35
2 4427 70
2 4428 23
2 4429 22
2 4430 36
2 4431 2061
2 4432 40
2 4433 38
2 4434 48
2 4435 32
2 4436 81
2 4437 23
2 4438 18
2 4439 58
2 4440 28
2 4441 1349
2 4442 27
2 4443 38
2 4444 11
2 4445 52
2 4446 35
2 4447 30
2 4448 42
2 4449 53
2 4450 24
2 4451 384
2 4452 78
2 4453 13
2 4454 23
2 4455 52
2 4456 72
2 4457 30
2 4458 24
2 4459 60
2 4460 26
2 4461 40
2 4462 66
2 4463 44
2 4464 30
2 4465 25
2 4466 39
2 4467 36
2 4468 67
2 4469 152
2 4470 141
2 4471 40
2 4472 39
2 4473 30
2 4474 10
2 4475 26
2 4476 42
2 4477 27
2 4478 25
2 4479 20
2 4480 31
2 4481 98
2 4482 50
2 4483 46
2 4484 41
2 4485 59
2 4486 37
2 4487 55
2 4488 11
2 4489 20
2 4490 37
2 4491 15
2 4492 44
2 4493 46
2 4494 44
2 4495 40
2 4496 45
2 4497 37
2 4498 41
2 4499 96
2 4500 58
2 4501 38
2 4502 50
2 4503 44
2 4504 38
2 4505 84
2 4506 47
2 4507 54
2 4508 27
2 4509 41
2 4510 51
2 4511 45
2 4512 56
2 4513 108
2 4514 30
2 4515 61
2 4516 61
2 4517 34
2 4518 39
2 4519 91
2 4520 54
2 4521 50
2 4522 126
2 4523 1415
2 4524 71
2 4525 28
2 4526 1395
2 4527 32
2 4528 54
2 4529 25
2 4530 45
2 4531 48
2 4532 21
2 4533 20
2 4534 161
2 4535 29
2 4536 72
2 4537 827
2 4538 46
2 4539 52
2 4540 55
2 4541 46
2 4542 27
2 4543 32
2 4544 20
2 4545 35
2 4546 66
2 4547 58
2 4548 331
2 4549 68
2 4550 52
2 4551 19
2 4552 195
2 4553 53
2 4554 66
2 4555 65
2 4556 67
2 4557 40
2 4558 45
2 4559 54
2 4560 45
2 4561 42
2 4562 26
2 4563 25
2 4564 75
2 4565 32
2 4566 26
2 4567 22
2 4568 25
2 4569 100
2 4570 73
2 4571 60
2 4572 56
2 4573 60
2 4574 50
2 4575 47
2 4576 21
2 4577 46
2 4578 47
2 4579 25
2 4580 25
2 4581 9
2 4582 72
2 4583 34
2 4584 34
2 4585 23
2 4586 53
2 4587 52
2 4588 55
2 4589 48
2 4590 30
2 4591 26
2 4592 48
2 4593 61
2 4594 28
2 4595 142
2 4596 34
2 4597 47
2 4598 55
2 4599 57
2 4600 28
2 4601 3
2 4602 51
2 4603 64
2 4604 61
2 4605 25
2 4606 69
2 4607 694
2 4608 50
2 4609 47
2 4610 150
2 4611 57
2 4612 26
2 4613 75
2 4614 42
2 4615 48
2 4616 23
2 4617 75
2 4618 42
2 4619 40
2 4620 51
2 4621 36
2 4622 56
2 4623 68
2 4624 29
2 4625 88
2 4626 35
2 4627 70
2 4628 47
2 4629 63
2 4630 29
2 4631 42
2 4632 70
2 4633 89
2 4634 41
2 4635 53
2 4636 23
2 4637 55
2 4638 64
2 4639 23
2 4640 457
2 4641 80
2 4642 25
2 4643 45
2 4644 41
2 4645 67
2 4646 36
2 4647 90
2 4648 96
2 4649 32
2 4650 118
2 4651 111
2 4652 124
2 4653 37
2 4654 23
2 4655 37
2 4656 40
2 4657 35
2 4658 48
2 4659 25
2 4660 14
2 4661 35
2 4662 20
2 4663 26
2 4664 51
2 4665 71
2 4666 9
2 4667 33
2 4668 36
2 4669 34
2 4670 76
2 4671 33
2 4672 42
2 4673 72
2 4674 14
2 4675 43
2 4676 19
2 4677 33
2 4678 74
2 4679 97
2 4680 96
2 4681 50
2 4682 24
2 4683 30
2 4684 45
2 4685 81
2 4686 51
2 4687 72
2 4688 42
2 4689 52
2 4690 48
2 4691 3
2 4692 49
2 4693 22
2 4694 25
2 4695 16
2 4696 56
2 4697 39
2 4698 45
2 4699 36
2 4700 34
2 4701 25
2 4702 58
2 4703 36
2 4704 26
2 4705 36
2 4706 52
2 4707 25
2 4708 30
2 4709 27
2 4710 54
2 4711 78
2 4712 47
2 4713 55
2 4714 66
2 4715 37
2 4716 32
2 4717 123
2 4718 27
2 4719 35
2 4720 48
2 4721 50
2 4722 44
2 4723 17
2 4724 36
2 4725 70
2 4726 46
2 4727 41
2 4728 75
2 4729 61
2 4730 42
2 4731 42
2 4732 25
2 4733 53
2 4734 27
2 4735 20
2 4736 46
2 4737 57
2 4738 30
2 4739 49
2 4740 61
2 4741 51
2 4742 67
2 4743 96
2 4744 44
2 4745 49
2 4746 32
2 4747 41
2 4748 28
2 4749 37
2 4750 23
2 4751 25
2 4752 23
2 4753 52
2 4754 48
2 4755 33
2 4756 52
2 4757 29
2 4758 43
2 4759 73
2 4760 27
2 4761 39
2 4762 61
2 4763 53
2 4764 33
2 4765 54
2 4766 47
2 4767 1343
2 4768 25
2 4769 98
2 4770 28
2 4771 62
2 4772 28
2 4773 20
2 4774 23
2 4775 25
2 4776 38
2 4777 36
2 4778 42
2 4779 32
2 4780 47
2 4781 53
2 4782 33
2 4783 43
2 4784 33
2 4785 27
2 4786 45
2 4787 34
2 4788 43
2 4789 37
2 4790 49
2 4791 40
2 4792 49
2 4793 55
2 4794 41
2 4795 47
2 4796 32
2 4797 21
2 4798 4023
2 4799 45
2 4800 26
2 4801 65
2 4802 31
2 4803 10
2 4804 107
2 4805 486
2 4806 106
2 4807 53
2 4808 41
2 4809 38
2 4810 157
2 4811 40
2 4812 62
2 4813 28
2 4814 1643
2 4815 39
2 4816 23
2 4817 53
2 4818 70
2 4819 38
2 4820 50
2 4821 50
2 4822 32
2 4823 47
2 4824 95
2 4825 27
2 4826 18
2 4827 30
2 4828 42
2 4829 28
2 4830 46
2 4831 41
2 4832 40
2 4833 26
2 4834 90
2 4835 33
2 4836 84
2 4837 40
2 4838 88
2 4839 38
2 4840 10
2 4841 32
2 4842 4
2 4843 41
2 4844 51
2 4845 45
2 4846 38
2 4847 55
2 4848 22
2 4849 11
2 4850 15
2 4851 43
2 4852 80
2 4853 42
2 4854 20
2 4855 7
2 4856 143
2 4857 36
2 4858 34
2 4859 56
2 4860 48
2 4861 73
2 4862 24
2 4863 34
2 4864 53
2 4865 51
2 4866 97
2 4867 22
2 4868 46
2 4869 48
2 4870 60
2 4871 45
2 4872 46
2 4873 49
2 4874 50
2 4875 52
2 4876 50
2 4877 44
2 4878 39
2 4879 15
2 4880 42
2 4881 23
2 4882 64
2 4883 17
2 4884 71
2 4885 27
2 4886 78
2 4887 77
2 4888 55
2 4889 58
2 4890 35
2 4891 57
2 4892 37
2 4893 583
2 4894 29
2 4895 71
2 4896 30
2 4897 58
2 4898 30
2 4899 68
2 4900 77
2 4901 47
2 4902 34
2 4903 31
2 4904 27
2 4905 46
2 4906 503
2 4907 54
2 4908 22
2 4909 62
2 4910 29
2 4911 32
2 4912 28
2 4913 34
2 4914 44
2 4915 57
2 4916 38
2 4917 68
2 4918 22
2 4919 76
2 4920 52
2 4921 21
2 4922 90
2 4923 42
2 4924 63
2 4925 55
2 4926 31
2 4927 11
2 4928 84
2 4929 39
2 4930 25
2 4931 67
2 4932 27
2 4933 50
2 4934 1
2 4935 78
2 4936 37
2 4937 113
2 4938 19
2 4939 47
2 4940 420
2 4941 21
2 4942 29
2 4943 64
2 4944 43
2 4945 48
2 4946 25
2 4947 64
2 4948 40
2 4949 24
2 4950 27
2 4951 47
2 4952 114
2 4953 113
2 4954 45
2 4955 22
2 4956 47
2 4957 21
2 4958 37
2 4959 40
2 4960 17
2 4961 34
2 4962 55
2 4963 120
2 4964 28
2 4965 33
2 4966 33
2 4967 27
2 4968 60
2 4969 44
2 4970 47
2 4971 25
2 4972 36
2 4973 18
2 4974 19
2 4975 54
2 4976 39
2 4977 32
2 4978 27
2 4979 39
2 4980 38
2 4981 54
2 4982 21
2 4983 34
2 4984 80
2 4985 25
2 4986 21
2 4987 49
2 4988 42
2 4989 31
2 4990 34
2 4991 49
2 4992 46
2 4993 24
2 4994 31
2 4995 37
2 4996 44
2 4997 26
2 4998 68
2 4999 95
2 5000 162
2 5001 55
2 5002 35
2 5003 47
2 5004 33
2 5005 4
2 5006 37
2 5007 68
2 5008 6
2 5009 15
2 5010 37
2 5011 69
2 5012 39
2 5013 288
2 5014 89
2 5015 35
2 5016 28
2 5017 27
2 5018 30
2 5019 43
2 5020 59
2 5021 38
2 5022 59
2 5023 246
2 5024 35
2 5025 37
2 5026 51
2 5027 3
2 5028 31
2 5029 81
2 5030 2255
2 5031 31
2 5032 27
2 5033 28
2 5034 26
2 5035 49
2 5036 23
2 5037 41
2 5038 57
2 5039 23
2 5040 89
2 5041 44
2 5042 54
2 5043 36
2 5044 40
2 5045 94
2 5046 37
2 5047 42
2 5048 49
2 5049 22
2 5050 23
2 5051 57
2 5052 30
2 5053 96
2 5054 27
2 5055 30
2 5056 18
2 5057 38
2 5058 32
2 5059 26
2 5060 16
2 5061 5
2 5062 72
2 5063 17
2 5064 39
2 5065 56
2 5066 61
2 5067 70
2 5068 65
2 5069 49
2 5070 4
2 5071 33
2 5072 52
2 5073 51
2 5074 33
2 5075 23
2 5076 39
2 5077 20
2 5078 63
2 5079 41
2 5080 36
2 5081 48
2 5082 5
2 5083 9
2 5084 51
2 5085 78
2 5086 67
2 5087 59
2 5088 14
2 5089 68
2 5090 34
2 5091 127
2 5092 48
2 5093 41
2 5094 532
2 5095 57
2 5096 14
2 5097 29
2 5098 53
2 5099 38
2 5100 54
2 5101 44
2 5102 40
2 5103 37
2 5104 30
2 5105 42
2 5106 30
2 5107 57
2 5108 41
2 5109 215
2 5110 47
2 5111 51
2 5112 89
2 5113 32
2 5114 26
2 5115 21
2 5116 57
2 5117 51
2 5118 41
2 5119 75
2 5120 34
2 5121 40
2 5122 44
2 5123 64
2 5124 55
2 5125 57
2 5126 25
2 5127 47
2 5128 39
2 5129 16
2 5130 46
2 5131 25
2 5132 27
2 5133 33
2 5134 20
2 5135 34
2 5136 29
2 5137 962
2 5138 12
2 5139 52
2 5140 33
2 5141 36
2 5142 28
2 5143 40
2 5144 59
2 5145 40
2 5146 70
2 5147 236
2 5148 34
2 5149 42
2 5150 36
2 5151 37
2 5152 130
2 5153 56
2 5154 53
2 5155 38
2 5156 75
2 5157 48
2 5158 47
2 5159 48
2 5160 26
2 5161 34
2 5162 40
2 5163 58
2 5164 28
2 5165 51
2 5166 39
2 5167 108
2 5168 47
2 5169 29
2 5170 30
2 5171 69
2 5172 39
2 5173 12
2 5174 66
2 5175 61
2 5176 20
2 5177 19
2 5178 39
2 5180 27
2 5181 52
2 5182 35
2 5183 24
2 5184 96
2 5185 24
2 5186 20
2 5187 46
2 5188 35
2 5189 7
2 5190 7
2 5191 15
2 5192 40
2 5193 190
2 5194 23
2 5195 41
2 5196 16
2 5197 31
2 5198 61
2 5199 33
2 5200 15
2 5201 67
2 5202 35
2 5203 72
2 5204 57
2 5205 9
2 5206 47
2 5207 1571
2 5208 17
2 5209 6
2 5210 29
2 5211 37
2 5212 25
2 5213 37
2 5214 45
2 5215 68
2 5216 61
2 5217 27
2 5218 152
2 5219 12
2 5220 33
2 5221 55
2 5222 2
2 5223 2
2 5224 33
2 5225 39
2 5226 75
2 5227 34
2 5228 46
2 5229 29
2 5230 30
2 5231 32
2 5232 47
2 5233 31
2 5234 48
2 5235 32
2 5236 32
2 5237 37
2 5238 27
2 5239 64
2 5240 32
2 5241 48
2 5242 26
2 5243 47
2 5244 72
2 5245 43
2 5246 69
2 5247 33
2 5248 21
2 5249 26
2 5250 45
2 5251 11
2 5252 25
2 5253 46
2 5254 45
2 5255 30
2 5256 73
2 5257 25
2 5258 31
2 5259 22
2 5260 53
2 5261 7
2 5262 66
2 5263 27
2 5264 11
2 5265 27
2 5266 59
2 5267 7
2 5268 32
2 5269 26
2 5270 45
2 5271 26
2 5272 61
2 5273 21
2 5274 60
2 5275 71
2 5276 66
2 5277 29
2 5278 39
2 5279 51
2 5280 41
2 5281 58
2 5282 69
2 5283 57
2 5284 45
2 5285 215
2 5286 50
2 5287 39
2 5288 71
2 5289 26
2 5290 45
2 5291 51
2 5292 39
2 5293 42
2 5294 40
2 5295 82
2 5296 53
2 5297 52
2 5298 73
2 5299 34
2 5300 60
2 5301 24
2 5302 7
2 5303 93
2 5304 31
2 5305 20
2 5306 74
2 5307 27
2 5308 68
2 5309 25
2 5310 26
2 5311 44
2 5312 26
2 5313 29
2 5314 42
2 5315 34
2 5316 40
2 5317 19
2 5318 49
2 5319 90
2 5320 14
2 5321 34
2 5322 21
2 5323 39
2 5324 762
2 5325 25
2 5326 46
2 5327 26
2 5328 49
2 5329 41
2 5330 23
2 5331 27
2 5332 19
2 5333 57
2 5334 27
2 5335 31
2 5336 42
2 5337 55
2 5338 65
2 5339 65
2 5340 18
2 5341 30
2 5342 51
2 5343 51
2 5344 61
2 5345 19
2 5346 117
2 5347 45
2 5348 42
2 5349 671
2 5350 29
2 5351 25
2 5352 40
2 5353 40
2 5354 55
2 5355 26
2 5356 34
2 5357 66
2 5358 35
2 5359 63
2 5360 24
2 5361 47
2 5362 26
2 5363 49
2 5364 40
2 5365 68
2 5366 25
2 5367 36
2 5368 45
2 5369 65
2 5370 26
2 5371 59
2 5372 18
2 5373 25
2 5374 58
2 5375 63
2 5376 32
2 5377 20
2 5378 54
2 5379 51
2 5380 55
2 5381 79
2 5382 6
2 5383 40
2 5384 24
2 5385 63
2 5386 26
2 5387 15
2 5388 22
2 5389 52
2 5390 62
2 5391 52
2 5392 24
2 5393 97
2 5394 77
2 5395 39
2 5396 63
2 5397 15
2 5398 30
2 5399 46
2 5400 28
2 5401 41
2 5402 50
2 5403 53
2 5404 25
2 5405 51
2 5406 24
2 5407 36
2 5408 46
2 5409 25
2 5410 26
2 5411 19
2 5412 50
2 5413 32
2 5414 44
2 5415 2
2 5416 23
2 5417 42
2 5418 7
2 5419 2
2 5420 67
2 5421 38
2 5422 25
2 5423 58
2 5424 460
2 5425 56
2 5426 37
2 5427 44
2 5428 28
2 5429 21
2 5430 51
2 5431 22
2 5432 44
2 5433 56
2 5434 43
2 5435 29
2 5436 24
2 5437 32
2 5438 29
2 5439 14
2 5440 49
2 5441 60
2 5442 22
2 5443 53
2 5444 23
2 5445 41
2 5446 17
2 5447 37
2 5448 70
2 5449 27
2 5450 40
2 5451 50
2 5452 41
2 5453 42
2 5454 9
2 5455 50
2 5456 79
2 5457 55
2 5458 43
2 5459 34
2 5460 42
2 5461 26
2 5462 31
2 5463 26
2 5464 27
2 5465 58
2 5466 64
2 5467 22
2 5468 23
2 5469 32
2 5470 35
2 5471 30
2 5472 47
2 5473 34
2 5474 26
2 5475 33
2 5476 40
2 5477 51
2 5478 109
2 5479 68
2 5480 13
2 5481 38
2 5482 51
2 5483 27
2 5484 59
2 5485 80
2 5486 46
2 5487 25
2 5488 58
2 5489 33
2 5490 51
2 5491 48
2 5492 24
2 5493 34
2 5494 73
2 5495 48
2 5496 71
2 5497 45
2 5498 33
2 5499 58
2 5500 28
2 5501 33
2 5502 23
2 5503 23
2 5504 27
2 5505 31
2 5506 15
2 5507 30
2 5508 32
2 5509 53
2 5510 33
2 5511 17
2 5512 35
2 5513 33
2 5514 31
2 5515 31
2 5516 35
2 5517 28
2 5518 24
2 5519 70
2 5520 85
2 5521 24
2 5522 35
2 5523 34
2 5524 22
2 5525 39
2 5526 26
2 5527 34
2 5528 33
2 5529 37
2 5530 108
2 5531 29
2 5532 34
2 5533 62
2 5534 36
2 5535 31
2 5536 25
2 5537 29
2 5538 48
2 5539 15
2 5540 55
2 5541 25
2 5542 52
2 5543 37
2 5544 85
2 5545 18
2 5546 36
2 5547 21
2 5548 18
2 5549 21
2 5550 34
2 5551 2
2 5552 22
2 5553 20
2 5554 56
2 5555 49
2 5556 3
2 5557 58
2 5558 39
2 5559 31
2 5560 39
2 5561 68
2 5562 58
2 5563 41
2 5564 64
2 5565 33
2 5566 6
2 5567 39
2 5568 51
2 5569 33
2 5570 29
2 5571 24
2 5572 73
2 5573 10
2 5574 60
2 5575 31
2 5576 29
2 5577 35
2 5578 39
2 5579 85
2 5580 66
2 5581 57
2 5582 39
2 5583 31
2 5584 50
2 5585 41
2 5586 49
2 5587 70
2 5588 32
2 5589 82
2 5590 16
2 5591 43
2 5592 30
2 5593 24
2 5594 32
2 5595 99
2 5596 36
2 5597 54
2 5598 32
2 5599 29
2 5600 25
2 5601 41
2 5602 16
2 5603 33
2 5604 31
2 5605 24
2 5606 28
2 5607 42
2 5608 22
2 5609 26
2 5610 107
2 5611 17
2 5612 24
2 5613 48
2 5614 29
2 5615 78
2 5616 5
2 5617 51
2 5618 13
2 5619 34
2 5620 26
2 5621 298
2 5622 41
2 5623 46
2 5624 29
2 5625 24
2 5626 27
2 5627 27
2 5628 53
2 5629 45
2 5630 57
2 5631 42
2 5632 54
2 5633 44
2 5634 58
2 5635 46
2 5636 41
2 5637 44
2 5638 41
2 5639 42
2 5640 3
2 5641 11
2 5642 55
2 5643 35
2 5644 42
2 5645 70
2 5646 38
2 5647 57
2 5648 24
2 5649 28
2 5650 22
2 5651 44
2 5652 66
2 5653 18
2 5654 3
2 5655 10
2 5656 76
2 5657 41
2 5658 17
2 5659 27
2 5660 12
2 5661 28
2 5662 23
2 5663 27
2 5664 18
2 5665 32
2 5666 6
2 5667 7
2 5668 16
2 5669 9
2 5670 19
2 5671 16
2 5672 4
2 5673 60
2 5674 23
2 5675 36
2 5676 32
2 5677 22
2 5678 11
2 5679 14
2 5680 31
2 5681 13
2 5682 10
2 5683 13
2 5684 337
2 5685 3
2 5686 24
2 5687 51
2 5688 29
2 5689 32
2 5690 57
2 5691 16
2 5692 15
2 5693 7
2 5694 4
2 5695 2
2 5696 20
2 5697 34
2 5698 43
2 5699 12
2 5700 1
2 5701 47
2 5702 22
2 5703 1
2 5704 9
2 5705 18
2 5706 1
2 5707 4
2 5708 10
2 5709 4
2 5710 6
2 5711 4
2 5712 2
2 5713 5
2 5714 2
2 5715 2
2 5716 2
2 5717 1
2 5718 1
2 5721 1
3 1 176
3 2 353
3 3 247
3 4 27715
3 5 73
3 6 156
3 7 129
3 8 169
3 9 87
3 10 123
3 11 172
3 12 86
3 13 1448
3 14 132
3 15 78
3 16 71
3 17 103
3 18 160
3 19 89
3 20 153
3 21 93
3 22 42350
3 23 12866
3 24 91
3 25 145
3 26 175
3 27 98
3 28 91
3 29 88
3 30 69
3 31 141
3 32 77
3 33 181
3 34 284
3 35 36
3 36 134
3 37 131
3 38 142
3 39 132
3 40 89
3 41 111
3 42 477
3 43 9843
3 44 130
3 45 41
3 46 215
3 47 154
3 48 112
3 49 142
3 50 52
3 51 231
3 52 142
3 53 63
3 54 71
3 55 224
3 56 208
3 57 152
3 58 128
3 59 160
3 60 195
3 61 161
3 62 170
3 63 27909
3 64 150
3 65 114
3 66 101
3 67 127
3 68 158
3 69 114
3 70 152
3 71 254
3 72 1970
3 73 7976
3 74 118
3 75 146
3 76 117
3 77 211
3 78 85
3 79 340
3 80 78
3 81 247
3 82 66
3 83 160
3 84 123
3 85 229
3 86 65
3 87 110
3 88 157
3 89 161
3 90 157
3 91 110
3 92 108
3 93 163
3 94 91
3 95 89
3 96 92
3 97 299
3 98 140
3 99 118
3 100 2912
3 101 21299
3 102 60
3 103 110
3 104 130
3 105 172
3 106 62
3 107 128
3 108 160
3 109 17572
3 110 91
3 111 124
3 112 80
3 113 94
3 114 99
3 115 173
3 116 49
3 117 5647
3 118 132
3 119 166
3 120 227
3 121 239
3 122 134
3 123 76
3 124 172
3 125 120
3 126 31
3 127 97
3 128 126
3 129 21979
3 130 174
3 131 114
3 132 103
3 133 180
3 134 60
3 135 308
3 136 95
3 137 131
3 138 156
3 139 208
3 140 254
3 141 16606
3 142 14855
3 143 20460
3 144 161
3 145 78
3 146 129
3 147 223
3 148 134
3 149 145
3 150 83
3 151 149
3 152 215
3 153 4642
3 154 180
3 155 127
3 156 144
3 157 60
3 158 142
3 159 201
3 160 177
3 161 154
3 162 126
3 163 153
3 164 141
3 165 22925
3 166 166
3 167 183
3 168 71
3 169 81
3 170 164
3 171 136
3 172 202
3 173 107
3 174 170
3 175 185
3 176 239
3 177 1016
3 178 134
3 179 56
3 180 151
3 181 110
3 182 138
3 183 110
3 184 104
3 185 4395
3 186 113
3 187 129
3 188 174
3 189 1699
3 190 124
3 191 127
3 192 99
3 193 94
3 194 146
3 195 57
3 196 84
3 197 43
3 198 186
3 199 69
3 200 155
3 201 147
3 202 10660
3 203 112
3 204 106
3 205 159
3 206 109
3 207 171
3 208 75
3 209 152
3 210 90
3 211 373
3 212 102
3 213 161
3 214 84
3 215 242
3 216 297
3 217 154
3 218 1445
3 219 148
3 220 69
3 221 78
3 222 297
3 223 150
3 224 94
3 225 1070
3 226 139
3 227 30502
3 228 84
3 229 119
3 230 103
3 231 71
3 232 179
3 233 152
3 234 122
3 235 43
3 236 119
3 237 98
3 238 131
3 239 196
3 240 167
3 241 49
3 242 6660
3 243 285
3 244 136
3 245 110
3 246 192
3 247 8266
3 248 141
3 249 127
3 250 6040
3 251 113
3 252 66
3 253 71
3 254 49
3 255 98
3 256 124
3 257 210
3 258 62
3 259 147
3 260 130
3 261 39
3 262 186
3 263 17757
3 264 168
3 265 164
3 266 36
3 267 68
3 268 190
3 269 270
3 270 83
3 271 174
3 272 183
3 273 101
3 274 24661
3 275 69
3 276 52287
3 277 51036
3 278 165
3 279 4158
3 280 222
3 281 150
3 282 87
3 283 143
3 284 121
3 285 127
3 286 112
3 287 146
3 288 128
3 289 20
3 290 88
3 291 150
3 292 155
3 293 130
3 294 119
3 295 88
3 296 141
3 297 195
3 298 126
3 299 112
3 300 129
3 301 147
3 302 51
3 303 12525
3 304 149
3 305 19
3 306 170
3 307 165
3 308 9300
3 309 74
3 310 162
3 311 146
3 312 30
3 313 239
3 314 90
3 315 1329
3 316 2130
3 317 117
3 318 131
3 319 95
3 320 112
3 321 134
3 322 1758
3 323 104
3 324 129
3 325 108
3 326 99
3 327 182
3 328 132
3 329 192
3 330 316
3 331 140
3 332 78
3 333 148
3 334 21
3 335 3626
3 336 54
3 337 121
3 338 69
3 339 73
3 340 4253
3 341 121
3 342 107
3 343 119
3 344 87
3 345 118
3 346 85
3 347 55
3 348 98
3 349 175
3 350 144
3 351 1364
3 352 171
3 353 150
3 354 3581
3 355 65
3 356 171
3 357 76
3 358 128
3 359 234
3 360 120
3 361 115
3 362 234
3 363 139
3 364 59
3 365 77
3 366 78
3 367 113
3 368 77
3 369 103
3 370 75
3 371 85
3 372 119
3 373 16334
3 374 139
3 375 330
3 376 16326
3 377 131
3 378 173
3 379 1036
3 380 7370
3 381 56
3 382 158
3 383 122
3 384 627
3 385 103
3 386 67
3 387 146
3 388 138
3 389 29371
3 390 104
3 391 60
3 392 147
3 393 310
3 394 152
3 395 132
3 396 212
3 397 73
3 398 108
3 399 108
3 400 95
3 401 100
3 402 66
3 403 175
3 404 140
3 405 84
3 406 86
3 407 120
3 408 366
3 409 144
3 410 83
3 411 184
3 412 9476
3 413 140
3 414 82
3 415 155
3 416 38
3 417 91
3 418 92
3 419 101
3 420 56
3 421 48
3 422 81
3 423 103
3 424 100
3 425 100
3 426 159
3 427 124
3 428 164
3 429 186
3 430 145
3 431 104
3 432 154
3 433 112
3 434 93
3 435 18186
3 436 174
3 437 77
3 438 88
3 439 3152
3 440 117
3 441 89
3 442 187
3 443 124
3 444 105
3 445 123
3 446 11335
3 447 116
3 448 144
3 449 165
3 450 136
3 451 92
3 452 221
3 453 174
3 454 207
3 455 117
3 456 117
3 457 60
3 458 117
3 459 82
3 460 28129
3 461 217
3 462 118
3 463 104
3 464 101
3 465 124
3 466 96
3 467 95
3 468 114
3 469 102
3 470 15680
3 471 75
3 472 113
3 473 114
3 474 102
3 475 230
3 476 89
3 477 94
3 478 136
3 479 87
3 480 226
3 481 114
3 482 7297
3 483 346
3 484 120
3 485 130
3 486 9793
3 487 131
3 488 83
3 489 174
3 490 120
3 491 171
3 492 123
3 493 119
3 494 94
3 495 64
3 496 98
3 497 137
3 498 78
3 499 3997
3 500 104
3 501 140
3 502 87
3 503 74
3 504 76
3 505 88
3 506 141
3 507 84
3 508 365
3 509 80
3 510 122
3 511 58
3 512 81
3 513 209
3 514 142
3 515 203
3 516 142
3 517 160
3 518 197
3 519 197
3 520 136
3 521 65
3 522 184
3 523 89
3 524 136
3 525 163
3 526 125
3 527 121
3 528 115
3 529 132
3 530 126
3 531 167
3 532 83
3 533 186
3 534 149
3 535 119
3 536 88
3 537 160
3 538 60
3 539 122
3 540 65
3 541 117
3 542 80
3 543 148
3 544 105
3 545 266
3 546 126
3 547 206
3 548 123
3 549 111
3 550 63
3 551 113
3 552 187
3 553 191
3 554 113
3 555 73
3 556 68
3 557 71
3 558 198
3 559 89
3 560 11595
3 561 71
3 562 108
3 563 159
3 564 1333
3 565 159
3 566 142
3 567 83
3 568 66
3 569 117
3 570 195
3 571 532
3 572 89
3 573 115
3 574 163
3 575 151
3 576 119
3 577 233
3 578 186
3 579 112
3 580 120
3 581 105
3 582 50
3 583 542
3 584 89
3 585 124
3 586 85
3 587 119
3 588 107
3 589 133
3 590 231
3 591 117
3 592 7065
3 593 152
3 594 88
3 595 104
3 596 122
3 597 126
3 598 143
3 599 100
3 600 83
3 601 60
3 602 150
3 603 110
3 604 71
3 605 1508
3 606 160
3 607 65
3 608 64
3 609 114
3 610 299
3 611 149
3 612 202
3 613 47
3 614 150
3 615 130
3 616 77
3 617 129
3 618 154
3 619 188
3 620 71
3 621 360
3 622 136
3 623 130
3 624 100
3 625 170
3 626 129
3 627 179
3 628 146
3 629 119
3 630 91
3 631 106
3 632 29200
3 633 118
3 634 108
3 635 128
3 636 154
3 637 99
3 638 1040
3 639 43
3 640 69
3 641 129
3 642 3816
3 643 135
3 644 13022
3 645 104
3 646 117
3 647 122
3 648 58
3 649 96
3 650 142
3 651 134
3 652 220
3 653 139
3 654 166
3 655 234
3 656 65
3 657 113
3 658 179
3 659 294
3 660 25
3 661 6949
3 662 93
3 663 125
3 664 91
3 665 54
3 666 117
3 667 122
3 668 184
3 669 2432
3 670 120
3 671 115
3 672 172
3 673 116
3 674 69
3 675 50
3 676 139
3 677 91
3 678 109
3 679 131
3 680 148
3 681 90
3 682 161
3 683 167
3 684 109
3 685 152
3 686 78
3 687 157
3 688 126
3 689 146
3 690 39
3 691 102
3 692 77
3 693 7579
3 694 223
3 695 151
3 696 125
3 697 131
3 698 3648
3 699 131
3 700 140
3 701 141
3 702 69
3 703 119
3 704 133
3 705 84
3 706 71
3 707 121
3 708 942
3 709 196
3 710 98
3 711 28122
3 712 110
3 713 128
3 714 230
3 715 174
3 716 171
3 717 74
3 718 66
3 719 136
3 720 130
3 721 98
3 722 151
3 723 121
3 724 151
3 725 12874
3 726 132
3 727 150
3 728 162
3 729 103
3 730 58
3 731 119
3 732 51
3 733 152
3 734 125
3 735 195
3 736 87
3 737 162
3 738 62
3 739 102
3 740 138
3 741 33081
3 742 109
3 743 102
3 744 30582
3 745 140
3 746 96
3 747 206
3 748 105
3 749 48
3 750 159
3 751 86
3 752 65
3 753 126
3 754 132
3 755 91
3 756 112
3 757 191
3 758 174
3 759 121
3 760 673
3 761 34
3 762 7263
3 763 94
3 764 10238
3 765 26
3 766 144
3 767 85
3 768 189
3 769 103
3 770 197
3 771 79
3 772 62
3 773 100
3 774 7631
3 775 199
3 776 115
3 777 178
3 778 119
3 779 167
3 780 104
3 781 55
3 782 206
3 783 141
3 784 157
3 785 83
3 786 106
3 787 112
3 788 138
3 789 12076
3 790 109
3 791 170
3 792 158
3 793 131
3 794 158
3 795 120
3 796 93
3 797 80
3 798 18406
3 799 402
3 800 59
3 801 90
3 802 110
3 803 97
3 804 12530
3 805 57
3 806 173
3 807 86
3 808 155
3 809 156
3 810 119
3 811 9253
3 812 103
3 813 96
3 814 60
3 815 85
3 816 76
3 817 151
3 818 9888
3 819 154
3 820 112
3 821 146
3 822 59
3 823 105
3 824 149
3 825 123
3 826 166
3 827 83
3 828 163
3 829 172
3 830 161
3 831 313
3 832 98
3 833 125
3 834 136
3 835 113
3 836 128
3 837 106
3 838 95
3 839 6774
3 840 969
3 841 138
3 842 81
3 843 107
3 844 10593
3 845 77
3 846 70
3 847 124
3 848 152
3 849 139
3 850 188
3 851 99
3 852 113
3 853 85
3 854 147
3 855 158
3 856 228
3 857 94
3 858 122
3 859 82
3 860 193
3 861 130
3 862 64
3 863 113
3 864 103
3 865 111
3 866 64
3 867 63
3 868 599
3 869 117
3 870 184
3 871 82
3 872 126
3 873 31
3 874 114
3 875 87
3 876 114
3 877 81
3 878 131
3 879 83
3 880 114
3 881 92
3 882 103
3 883 78
3 884 118
3 885 138
3 886 130
3 887 146
3 888 145
3 889 92
3 890 138
3 891 426
3 892 13026
3 893 122
3 894 10107
3 895 95
3 896 94
3 897 106
3 898 302
3 899 118
3 900 191
3 901 141
3 902 176
3 903 198
3 904 82
3 905 178
3 906 423
3 907 96
3 908 235
3 909 120
3 910 138
3 911 131
3 912 111
3 913 55
3 914 249
3 915 94
3 916 145
3 917 21722
3 918 87
3 919 121
3 920 23451
3 921 171
3 922 5587
3 923 134
3 924 174
3 925 75
3 926 130
3 927 10393
3 928 121
3 929 88
3 930 93
3 931 136
3 932 1264
3 933 149
3 934 127
3 935 154
3 936 116
3 937 123
3 938 83
3 939 112
3 940 119
3 941 243
3 942 234
3 943 138
3 944 175
3 945 86
3 946 84
3 947 149
3 948 13637
3 949 39
3 950 1024
3 951 119
3 952 88
3 953 61
3 954 58
3 955 210
3 956 121
3 957 120
3 958 119
3 959 107
3 960 66
3 961 95
3 962 56
3 963 157
3 964 99
3 965 172
3 966 146
3 967 106
3 968 128
3 969 92
3 970 167
3 971 129
3 972 136
3 973 21586
3 974 142
3 975 174
3 976 147
3 977 115
3 978 97
3 979 533
3 980 120
3 981 133
3 982 50
3 983 146
3 984 73
3 985 122
3 986 144
3 987 7927
3 988 86
3 989 107
3 990 70
3 991 117
3 992 107
3 993 99
3 994 159
3 995 78
3 996 131
3 997 1271
3 998 90
3 999 74
3 1000 243
3 1001 82
3 1002 264
3 1003 92
3 1004 47
3 1005 67
3 1006 57
3 1007 30128
3 1008 85
3 1009 3714
3 1010 6427
3 1011 189
3 1012 133
3 1013 102
3 1014 197
3 1015 112
3 1016 67
3 1017 120
3 1018 314
3 1019 6111
3 1020 89
3 1021 8855
3 1022 12070
3 1023 139
3 1024 147
3 1025 150
3 1026 127
3 1027 118
3 1028 25294
3 1029 689
3 1030 171
3 1031 6268
3 1032 87
3 1033 153
3 1034 193
3 1035 125
3 1036 86
3 1037 137
3 1038 2376
3 1039 1181
3 1040 45
3 1041 3862
3 1042 101
3 1043 136
3 1044 152
3 1045 151
3 1046 96
3 1047 116
3 1048 103
3 1049 108
3 1050 166
3 1051 85
3 1052 156
3 1053 130
3 1054 238
3 1055 57
3 1056 148
3 1057 90
3 1058 89
3 1059 160
3 1060 58
3 1061 181
3 1062 102
3 1063 93
3 1064 67
3 1065 96
3 1066 128
3 1067 130
3 1068 73
3 1069 203
3 1070 77
3 1071 87
3 1072 63
3 1073 63
3 1074 96
3 1075 119
3 1076 122
3 1077 2749
3 1078 108
3 1079 127
3 1080 115
3 1081 125
3 1082 212
3 1083 107
3 1084 115
3 1085 124
3 1086 130
3 1087 140
3 1088 83
3 1089 108
3 1090 1988
3 1091 132
3 1092 269
3 1093 22734
3 1094 86
3 1095 84
3 1096 107
3 1097 95
3 1098 60
3 1099 165
3 1100 171
3 1101 129
3 1102 83
3 1103 149
3 1104 111
3 1105 112
3 1106 155
3 1107 128
3 1108 137
3 1109 137
3 1110 105
3 1111 97
3 1112 104
3 1113 116
3 1114 336
3 1115 213
3 1116 114
3 1117 147
3 1118 150
3 1119 94
3 1120 11761
3 1121 112
3 1122 197
3 1123 156
3 1124 129
3 1125 80
3 1126 47
3 1127 104
3 1128 130
3 1129 106
3 1130 134
3 1131 177
3 1132 99
3 1133 125
3 1134 117
3 1135 165
3 1136 109
3 1137 85
3 1138 25735
3 1139 125
3 1140 74
3 1141 148
3 1142 136
3 1143 117
3 1144 116
3 1145 16487
3 1146 131
3 1147 119
3 1148 92
3 1149 107
3 1150 17135
3 1151 86
3 1152 131
3 1153 96
3 1154 99
3 1155 58
3 1156 90
3 1157 77
3 1158 127
3 1159 75
3 1160 122
3 1161 103
3 1162 61
3 1163 107
3 1164 158
3 1165 134
3 1166 98
3 1167 58
3 1168 116
3 1169 153
3 1170 120
3 1171 162
3 1172 63
3 1173 138
3 1174 74
3 1175 164
3 1176 66
3 1177 145
3 1178 1442
3 1179 52
3 1180 127
3 1181 407
3 1182 814
3 1183 111
3 1184 132
3 1185 10466
3 1186 90
3 1187 83
3 1188 64
3 1189 103
3 1190 476
3 1191 91
3 1192 6240
3 1193 79
3 1194 44
3 1195 86
3 1196 97
3 1197 107
3 1198 144
3 1199 122
3 1200 146
3 1201 71
3 1202 96
3 1203 126
3 1204 64
3 1205 106
3 1206 67
3 1207 16026
3 1208 86
3 1209 2930
3 1210 82
3 1211 133
3 1212 222
3 1213 3462
3 1214 163
3 1215 84
3 1216 150
3 1217 137
3 1218 181
3 1219 123
3 1220 167
3 1221 86
3 1222 161
3 1223 47
3 1224 103
3 1225 85
3 1226 77
3 1227 81
3 1228 173
3 1229 80
3 1230 418
3 1231 136
3 1232 123
3 1233 101
3 1234 225
3 1235 109
3 1236 112
3 1237 76
3 1238 149
3 1239 193
3 1240 103
3 1241 104
3 1242 114
3 1243 274
3 1244 123
3 1245 89
3 1246 128
3 1247 81
3 1248 53
3 1249 97
3 1250 79
3 1251 156
3 1252 92
3 1253 167
3 1254 1680
3 1255 109
3 1256 66
3 1257 476
3 1258 128
3 1259 113
3 1260 135
3 1261 124
3 1262 137
3 1263 175
3 1264 67
3 1265 74
3 1266 85
3 1267 72
3 1268 126
3 1269 122
3 1270 4731
3 1271 80
3 1272 116
3 1273 4323
3 1274 122
3 1275 85
3 1276 108
3 1277 110
3 1278 99
3 1279 3357
3 1280 175
3 1281 23
3 1282 123
3 1283 82
3 1284 153
3 1285 131
3 1286 214
3 1287 133
3 1288 119
3 1289 118
3 1290 98
3 1291 114
3 1292 44
3 1293 145
3 1294 48
3 1295 75
3 1296 67
3 1297 73
3 1298 136
3 1299 198
3 1300 259
3 1301 130
3 1302 153
3 1303 61
3 1304 77
3 1305 122
3 1306 93
3 1307 140
3 1308 118
3 1309 128
3 1310 137
3 1311 78
3 1312 111
3 1313 93
3 1314 109
3 1315 115
3 1316 81
3 1317 199
3 1318 119
3 1319 113
3 1320 123
3 1321 89
3 1322 125
3 1323 106
3 1324 133
3 1325 124
3 1326 145
3 1327 24481
3 1328 10554
3 1329 94
3 1330 64
3 1331 151
3 1332 69
3 1333 110
3 1334 123
3 1335 163
3 1336 115
3 1337 127
3 1338 149
3 1339 205
3 1340 115
3 1341 176
3 1342 119
3 1343 25992
3 1344 8608
3 1345 4083
3 1346 112
3 1347 134
3 1348 43
3 1349 98
3 1350 1742
3 1351 145
3 1352 60
3 1353 125
3 1354 114
3 1355 139
3 1356 124
3 1357 86
3 1358 173
3 1359 127
3 1360 61
3 1361 56
3 1362 96
3 1363 86
3 1364 65
3 1365 158
3 1366 77
3 1367 7742
3 1368 4121
3 1369 112
3 1370 99
3 1371 130
3 1372 73
3 1373 61
3 1374 158
3 1375 144
3 1376 73
3 1377 136
3 1378 129
3 1379 114
3 1380 130
3 1381 14076
3 1382 148
3 1383 162
3 1384 191
3 1385 95
3 1386 117
3 1387 121
3 1388 96
3 1389 133
3 1390 35
3 1391 79
3 1392 129
3 1393 98
3 1394 78
3 1395 114
3 1396 80
3 1397 64
3 1398 69
3 1399 77
3 1400 145
3 1401 181
3 1402 558
3 1403 116
3 1404 90
3 1405 4781
3 1406 8917
3 1407 2697
3 1408 137
3 1409 132
3 1410 119
3 1411 140
3 1412 67
3 1413 105
3 1414 115
3 1415 113
3 1416 139
3 1417 119
3 1418 48
3 1419 10957
3 1420 185
3 1421 59
3 1422 138
3 1423 76
3 1424 119
3 1425 128
3 1426 122
3 1427 152
3 1428 76
3 1429 130
3 1430 146
3 1431 205
3 1432 81
3 1433 13667
3 1434 109
3 1435 276
3 1436 87
3 1437 49
3 1438 96
3 1439 56
3 1440 105
3 1441 93
3 1442 172
3 1443 64
3 1444 90
3 1445 208
3 1446 68
3 1447 174
3 1448 65
3 1449 142
3 1450 133
3 1451 9872
3 1452 76
3 1453 155
3 1454 94
3 1455 104
3 1456 106
3 1457 161
3 1458 92
3 1459 11659
3 1460 64
3 1461 60
3 1462 13545
3 1463 133
3 1464 102
3 1465 184
3 1466 65
3 1467 4012
3 1468 96
3 1469 501
3 1470 159
3 1471 86
3 1472 103
3 1473 101
3 1474 109
3 1475 187
3 1476 120
3 1477 76
3 1478 6185
3 1479 177
3 1480 163
3 1481 90
3 1482 141
3 1483 89
3 1484 5193
3 1485 103
3 1486 124
3 1487 112
3 1488 143
3 1489 92
3 1490 123
3 1491 89
3 1492 140
3 1493 90
3 1494 221
3 1495 85
3 1496 135
3 1497 111
3 1498 49
3 1499 130
3 1500 79
3 1501 157
3 1502 60
3 1503 146
3 1504 127
3 1505 164
3 1506 657
3 1507 86
3 1508 88
3 1509 71
3 1510 85
3 1511 1478
3 1512 121
3 1513 154
3 1514 5512
3 1515 109
3 1516 101
3 1517 79
3 1518 128
3 1519 4761
3 1520 12977
3 1521 101
3 1522 140
3 1523 92
3 1524 150
3 1525 136
3 1526 113
3 1527 94
3 1528 16163
3 1529 160
3 1530 151
3 1531 85
3 1532 619
3 1533 157
3 1534 9108
3 1535 143
3 1536 71
3 1537 60
3 1538 91
3 1539 33
3 1540 6002
3 1541 126
3 1542 160
3 1543 497
3 1544 121
3 1545 163
3 1546 78
3 1547 124
3 1548 76
3 1549 43
3 1550 164
3 1551 138
3 1552 68
3 1553 40
3 1554 78
3 1555 92
3 1556 50
3 1557 91
3 1558 202
3 1559 138
3 1560 65
3 1561 1936
3 1562 6727
3 1563 86
3 1564 91
3 1565 168
3 1566 7850
3 1567 144
3 1568 84
3 1569 111
3 1570 127
3 1571 183
3 1572 143
3 1573 727
3 1574 110
3 1575 134
3 1576 100
3 1577 169
3 1578 165
3 1579 114
3 1580 10191
3 1581 100
3 1582 105
3 1583 125
3 1584 153
3 1585 128
3 1586 68
3 1587 162
3 1588 107
3 1589 145
3 1590 107
3 1591 137
3 1592 110
3 1593 117
3 1594 71
3 1595 127
3 1596 85
3 1597 87
3 1598 34
3 1599 2602
3 1600 179
3 1601 48
3 1602 97
3 1603 140
3 1604 88
3 1605 72
3 1606 135
3 1607 82
3 1608 136
3 1609 215
3 1610 100
3 1611 140
3 1612 136
3 1613 99
3 1614 114
3 1615 67
3 1616 133
3 1617 97
3 1618 130
3 1619 108
3 1620 843
3 1621 162
3 1622 91
3 1623 87
3 1624 116
3 1625 62
3 1626 376
3 1627 190
3 1628 700
3 1629 147
3 1630 165
3 1631 85
3 1632 115
3 1633 61
3 1634 118
3 1635 86
3 1636 116
3 1637 219
3 1638 141
3 1639 118
3 1640 138
3 1641 69
3 1642 100
3 1643 119
3 1644 60
3 1645 447
3 1646 145
3 1647 127
3 1648 84
3 1649 87
3 1650 96
3 1651 50
3 1652 6720
3 1653 146
3 1654 110
3 1655 219
3 1656 3731
3 1657 39
3 1658 84
3 1659 259
3 1660 7627
3 1661 137
3 1662 117
3 1663 133
3 1664 166
3 1665 178
3 1666 115
3 1667 261
3 1668 181
3 1669 57
3 1670 86
3 1671 86
3 1672 148
3 1673 57
3 1674 152
3 1675 141
3 1676 141
3 1677 137
3 1678 45
3 1679 203
3 1680 73
3 1681 104
3 1682 323
3 1683 49
3 1684 90
3 1685 99
3 1686 119
3 1687 98
3 1688 106
3 1689 141
3 1690 38
3 1691 72
3 1692 88
3 1693 99
3 1694 114
3 1695 140
3 1696 77
3 1697 180
3 1698 99
3 1699 69
3 1700 123
3 1701 91
3 1702 88
3 1703 54
3 1704 91
3 1705 50
3 1706 136
3 1707 56
3 1708 151
3 1709 108
3 1710 6768
3 1711 51
3 1712 149
3 1713 89
3 1714 1908
3 1715 66
3 1716 125
3 1717 54
3 1718 293
3 1719 588
3 1720 137
3 1721 109
3 1722 99
3 1723 32
3 1724 179
3 1725 109
3 1726 59
3 1727 74
3 1728 254
3 1729 103
3 1730 133
3 1731 67
3 1732 2568
3 1733 84
3 1734 99
3 1735 234
3 1736 87
3 1737 115
3 1738 134
3 1739 2044
3 1740 143
3 1741 75
3 1742 68
3 1743 100
3 1744 47
3 1745 77
3 1746 2889
3 1747 80
3 1748 1861
3 1749 189
3 1750 124
3 1751 235
3 1752 111
3 1753 129
3 1754 196
3 1755 148
3 1756 87
3 1757 173
3 1758 80
3 1759 57
3 1760 122
3 1761 215
3 1762 105
3 1763 115
3 1764 67
3 1765 70
3 1766 62
3 1767 62
3 1768 148
3 1769 74
3 1770 140
3 1771 61
3 1772 2047
3 1773 80
3 1774 72
3 1775 104
3 1776 93
3 1777 117
3 1778 149
3 1779 175
3 1780 44
3 1781 123
3 1782 154
3 1783 112
3 1784 66
3 1785 60
3 1786 147
3 1787 102
3 1788 56
3 1789 223
3 1790 183
3 1791 74
3 1792 136
3 1793 98
3 1794 121
3 1795 5438
3 1796 360
3 1797 53
3 1798 91
3 1799 47
3 1800 133
3 1801 151
3 1802 77
3 1803 101
3 1804 118
3 1805 65
3 1806 118
3 1807 79
3 1808 86
3 1809 113
3 1810 156
3 1811 65
3 1812 99
3 1813 94
3 1814 3908
3 1815 160
3 1816 105
3 1817 70
3 1818 89
3 1819 114
3 1820 108
3 1821 9436
3 1822 81
3 1823 142
3 1824 68
3 1825 132
3 1826 571
3 1827 89
3 1828 4482
3 1829 142
3 1830 262
3 1831 92
3 1832 86
3 1833 141
3 1834 88
3 1835 83
3 1836 74
3 1837 160
3 1838 54
3 1839 172
3 1840 60
3 1841 130
3 1842 80
3 1843 133
3 1844 166
3 1845 128
3 1846 493
3 1847 120
3 1848 131
3 1849 56
3 1850 76
3 1851 125
3 1852 3733
3 1853 110
3 1854 147
3 1855 62
3 1856 149
3 1857 154
3 1858 74
3 1859 141
3 1860 135
3 1861 83
3 1862 103
3 1863 93
3 1864 85
3 1865 88
3 1866 137
3 1867 13516
3 1868 61
3 1869 124
3 1870 96
3 1871 129
3 1872 129
3 1873 67
3 1874 146
3 1875 102
3 1876 76
3 1877 160
3 1878 39
3 1879 65
3 1880 92
3 1881 114
3 1882 43
3 1883 120
3 1884 107
3 1885 115
3 1886 112
3 1887 155
3 1888 97
3 1889 87
3 1890 10074
3 1891 139
3 1892 285
3 1893 104
3 1894 64
3 1895 71
3 1896 6436
3 1897 136
3 1898 7485
3 1899 52
3 1900 96
3 1901 136
3 1902 183
3 1903 100
3 1904 173
3 1905 42
3 1906 160
3 1907 729
3 1908 92
3 1909 120
3 1910 164
3 1911 8720
3 1912 81
3 1913 92
3 1914 77
3 1915 53
3 1916 73
3 1917 120
3 1918 77
3 1919 45
3 1920 108
3 1921 107
3 1922 96
3 1923 63
3 1924 4064
3 1925 154
3 1926 191
3 1927 62
3 1928 84
3 1929 42
3 1930 98
3 1931 160
3 1932 115
3 1933 108
3 1934 132
3 1935 139
3 1936 257
3 1937 149
3 1938 123
3 1939 124
3 1940 153
3 1941 2701
3 1942 574
3 1943 163
3 1944 56
3 1945 205
3 1946 166
3 1947 176
3 1948 87
3 1949 125
3 1950 83
3 1951 118
3 1952 134
3 1953 80
3 1954 143
3 1955 134
3 1956 99
3 1957 74
3 1958 112
3 1959 100
3 1960 2400
3 1961 65
3 1962 70
3 1963 75
3 1964 69
3 1965 202
3 1966 90
3 1967 63
3 1968 122
3 1969 119
3 1970 129
3 1971 137
3 1972 76
3 1973 78
3 1974 88
3 1975 159
3 1976 81
3 1977 117
3 1978 159
3 1979 81
3 1980 233
3 1981 376
3 1982 160
3 1983 71
3 1984 70
3 1985 7949
3 1986 108
3 1987 79
3 1988 104
3 1989 83
3 1990 94
3 1991 613
3 1992 16963
3 1993 130
3 1994 137
3 1995 119
3 1996 99
3 1997 133
3 1998 159
3 1999 69
3 2000 146
3 2001 115
3 2002 157
3 2003 101
3 2004 74
3 2005 203
3 2006 131
3 2007 69
3 2008 64
3 2009 91
3 2010 89
3 2011 136
3 2012 384
3 2013 85
3 2014 72
3 2015 156
3 2016 1760
3 2017 94
3 2018 79
3 2019 206
3 2020 90
3 2021 2945
3 2022 166
3 2023 123
3 2024 53
3 2025 168
3 2026 17154
3 2027 135
3 2028 96
3 2029 82
3 2030 107
3 2031 74
3 2032 114
3 2033 398
3 2034 39
3 2035 99
3 2036 107
3 2037 46
3 2038 122
3 2039 109
3 2040 142
3 2041 132
3 2042 97
3 2043 77
3 2044 103
3 2045 10229
3 2046 101
3 2047 115
3 2048 408
3 2049 164
3 2050 94
3 2051 149
3 2052 79
3 2053 118
3 2054 4615
3 2055 40
3 2056 101
3 2057 182
3 2058 48
3 2059 641
3 2060 125
3 2061 88
3 2062 95
3 2063 185
3 2064 61
3 2065 112
3 2066 7793
3 2067 518
3 2068 138
3 2069 83
3 2070 183
3 2071 109
3 2072 52
3 2073 105
3 2074 82
3 2075 1480
3 2076 78
3 2077 147
3 2078 88
3 2079 56
3 2080 128
3 2081 89
3 2082 84
3 2083 51
3 2084 159
3 2085 58
3 2086 156
3 2087 110
3 2088 93
3 2089 232
3 2090 57
3 2091 53
3 2092 84
3 2093 177
3 2094 119
3 2095 328
3 2096 128
3 2097 114
3 2098 135
3 2099 105
3 2100 191
3 2101 65
3 2102 164
3 2103 164
3 2104 55
3 2105 71
3 2106 106
3 2107 209
3 2108 1289
3 2109 98
3 2110 81
3 2111 2987
3 2112 167
3 2113 97
3 2114 644
3 2115 53
3 2116 86
3 2117 128
3 2118 84
3 2119 144
3 2120 194
3 2121 79
3 2122 61
3 2123 102
3 2124 215
3 2125 67
3 2126 117
3 2127 126
3 2128 55
3 2129 1693
3 2130 140
3 2131 175
3 2132 120
3 2133 130
3 2134 73
3 2135 114
3 2136 112
3 2137 57
3 2138 140
3 2139 120
3 2140 112
3 2141 97
3 2142 105
3 2143 97
3 2144 210
3 2145 118
3 2146 75
3 2147 83
3 2148 135
3 2149 582
3 2150 122
3 2151 70
3 2152 2140
3 2153 262
3 2154 63
3 2155 79
3 2156 129
3 2157 2434
3 2158 116
3 2159 124
3 2160 148
3 2161 17
3 2162 122
3 2163 129
3 2164 98
3 2165 80
3 2166 149
3 2167 126
3 2168 57
3 2169 1714
3 2170 53
3 2171 100
3 2172 2215
3 2173 141
3 2174 100
3 2175 99
3 2176 70
3 2177 116
3 2178 60
3 2179 96
3 2180 112
3 2181 138
3 2182 36
3 2183 348
3 2184 55
3 2185 189
3 2186 166
3 2187 106
3 2188 86
3 2189 117
3 2190 143
3 2191 180
3 2192 101
3 2193 116
3 2194 176
3 2195 142
3 2196 97
3 2197 78
3 2198 1318
3 2199 92
3 2200 125
3 2201 107
3 2202 117
3 2203 71
3 2204 88
3 2205 143
3 2206 96
3 2207 114
3 2208 85
3 2209 102
3 2210 110
3 2211 113
3 2212 110
3 2213 3064
3 2214 89
3 2215 100
3 2216 106
3 2217 51
3 2218 103
3 2219 146
3 2220 184
3 2221 91
3 2222 75
3 2223 88
3 2224 5768
3 2225 65
3 2226 164
3 2227 1059
3 2228 72
3 2229 200
3 2230 146
3 2231 79
3 2232 143
3 2233 114
3 2234 87
3 2235 88
3 2236 115
3 2237 136
3 2238 60
3 2239 126
3 2240 106
3 2241 57
3 2242 1390
3 2243 86
3 2244 159
3 2245 123
3 2246 100
3 2247 102
3 2248 13696
3 2249 158
3 2250 89
3 2251 66
3 2252 112
3 2253 142
3 2254 82
3 2255 131
3 2256 145
3 2257 72
3 2258 58
3 2259 100
3 2260 76
3 2261 83
3 2262 234
3 2263 160
3 2264 52
3 2265 105
3 2266 107
3 2267 142
3 2268 127
3 2269 9364
3 2270 49
3 2271 155
3 2272 124
3 2273 128
3 2274 99
3 2275 96
3 2276 356
3 2277 60
3 2278 120
3 2279 100
3 2280 97
3 2281 75
3 2282 132
3 2283 136
3 2284 41
3 2285 85
3 2286 63
3 2287 14772
3 2288 1127
3 2289 103
3 2290 136
3 2291 3510
3 2292 1345
3 2293 55
3 2294 18
3 2295 155
3 2296 109
3 2297 158
3 2298 126
3 2299 88
3 2300 112
3 2301 94
3 2302 73
3 2303 108
3 2304 112
3 2305 139
3 2306 68
3 2307 101
3 2308 63
3 2309 128
3 2310 138
3 2311 1452
3 2312 431
3 2313 110
3 2314 61
3 2315 171
3 2316 116
3 2317 114
3 2318 86
3 2319 114
3 2320 1629
3 2321 144
3 2322 131
3 2323 133
3 2324 189
3 2325 82
3 2326 133
3 2327 123
3 2328 105
3 2329 158
3 2330 48
3 2331 1068
3 2332 141
3 2333 80
3 2334 238
3 2335 40
3 2336 1340
3 2337 59
3 2338 69
3 2339 124
3 2340 81
3 2341 131
3 2342 982
3 2343 1803
3 2344 564
3 2345 81
3 2346 179
3 2347 75
3 2348 89
3 2349 142
3 2350 104
3 2351 78
3 2352 103
3 2353 72
3 2354 105
3 2355 125
3 2356 39
3 2357 139
3 2358 215
3 2359 3132
3 2360 187
3 2361 110
3 2362 98
3 2363 117
3 2364 98
3 2365 93
3 2366 89
3 2367 63
3 2368 74
3 2369 69
3 2370 69
3 2371 154
3 2372 137
3 2373 83
3 2374 146
3 2375 133
3 2376 4425
3 2377 115
3 2378 127
3 2379 103
3 2380 113
3 2381 131
3 2382 128
3 2383 73
3 2384 67
3 2385 113
3 2386 129
3 2387 68
3 2388 121
3 2389 45
3 2390 124
3 2391 101
3 2392 83
3 2393 96
3 2394 130
3 2395 118
3 2396 175
3 2397 81
3 2398 137
3 2399 149
3 2400 114
3 2401 142
3 2402 114
3 2403 58
3 2404 75
3 2405 87
3 2406 137
3 2407 59
3 2408 113
3 2409 100
3 2410 75
3 2411 142
3 2412 66
3 2413 129
3 2414 1261
3 2415 120
3 2416 146
3 2417 18
3 2418 29
3 2419 112
3 2420 124
3 2421 178
3 2422 96
3 2423 74
3 2424 160
3 2425 141
3 2426 157
3 2427 149
3 2428 124
3 2429 223
3 2430 105
3 2431 134
3 2432 630
3 2433 128
3 2434 112
3 2435 115
3 2436 96
3 2437 2229
3 2438 180
3 2439 117
3 2440 172
3 2441 129
3 2442 64
3 2443 166
3 2444 200
3 2445 57
3 2446 111
3 2447 60
3 2448 146
3 2449 130
3 2450 113
3 2451 104
3 2452 69
3 2453 71
3 2454 149
3 2455 268
3 2456 101
3 2457 69
3 2458 56
3 2459 73
3 2460 119
3 2461 37
3 2462 80
3 2463 658
3 2464 135
3 2465 131
3 2466 2027
3 2467 208
3 2468 86
3 2469 56
3 2470 119
3 2471 98
3 2472 1024
3 2473 85
3 2474 1094
3 2475 169
3 2476 3372
3 2477 155
3 2478 105
3 2479 108
3 2480 129
3 2481 189
3 2482 273
3 2483 157
3 2484 126
3 2485 5129
3 2486 55
3 2487 114
3 2488 117
3 2489 157
3 2490 70
3 2491 55
3 2492 74
3 2493 104
3 2494 160
3 2495 91
3 2496 84
3 2497 210
3 2498 64
3 2499 75
3 2500 81
3 2501 15459
3 2502 175
3 2503 41
3 2504 143
3 2505 176
3 2506 93
3 2507 8166
3 2508 275
3 2509 143
3 2510 3934
3 2511 58
3 2512 60
3 2513 88
3 2514 126
3 2515 113
3 2516 192
3 2517 88
3 2518 130
3 2519 202
3 2520 70
3 2521 157
3 2522 73
3 2523 61
3 2524 3143
3 2525 106
3 2526 34
3 2527 66
3 2528 62
3 2529 923
3 2530 47
3 2531 55
3 2532 131
3 2533 82
3 2534 74
3 2535 129
3 2536 210
3 2537 99
3 2538 57
3 2539 88
3 2540 74
3 2541 129
3 2542 106
3 2543 57
3 2544 105
3 2545 49
3 2546 62
3 2547 144
3 2548 73
3 2549 1455
3 2550 65
3 2551 103
3 2552 118
3 2553 113
3 2554 123
3 2555 60
3 2556 88
3 2557 112
3 2558 62
3 2559 84
3 2560 80
3 2561 69
3 2562 100
3 2563 104
3 2564 84
3 2565 63
3 2566 65
3 2567 108
3 2568 71
3 2569 122
3 2570 162
3 2571 84
3 2572 79
3 2573 99
3 2574 58
3 2575 138
3 2576 78
3 2577 53
3 2578 105
3 2579 307
3 2580 135
3 2581 152
3 2582 82
3 2583 196
3 2584 71
3 2585 57
3 2586 135
3 2587 117
3 2588 121
3 2589 119
3 2590 1293
3 2591 67
3 2592 89
3 2593 97
3 2594 75
3 2595 79
3 2596 132
3 2597 11113
3 2598 359
3 2599 3331
3 2600 84
3 2601 134
3 2602 98
3 2603 91
3 2604 3113
3 2605 117
3 2606 365
3 2607 66
3 2608 25
3 2609 42
3 2610 74
3 2611 105
3 2612 103
3 2613 68
3 2614 113
3 2615 134
3 2616 126
3 2617 37
3 2618 68
3 2619 118
3 2620 122
3 2621 49
3 2622 110
3 2623 726
3 2624 101
3 2625 2956
3 2626 104
3 2627 90
3 2628 99
3 2629 78
3 2630 104
3 2631 63
3 2632 69
3 2633 149
3 2634 117
3 2635 131
3 2636 189
3 2637 129
3 2638 203
3 2639 82
3 2640 1401
3 2641 124
3 2642 113
3 2643 275
3 2644 144
3 2645 138
3 2646 97
3 2647 206
3 2648 53
3 2649 111
3 2650 2402
3 2651 160
3 2652 81
3 2653 57
3 2654 57
3 2655 128
3 2656 53
3 2657 100
3 2658 85
3 2659 113
3 2660 103
3 2661 4380
3 2662 2239
3 2663 119
3 2664 82
3 2665 27
3 2666 121
3 2667 120
3 2668 6
3 2669 57
3 2670 92
3 2671 3998
3 2672 120
3 2673 91
3 2674 1062
3 2675 287
3 2676 147
3 2677 90
3 2678 99
3 2679 76
3 2680 61
3 2681 165
3 2682 185
3 2683 333
3 2684 98
3 2685 118
3 2686 515
3 2687 149
3 2688 57
3 2689 46
3 2690 133
3 2691 978
3 2692 126
3 2693 82
3 2694 57
3 2695 53
3 2696 160
3 2697 103
3 2698 109
3 2699 153
3 2700 104
3 2701 57
3 2702 106
3 2703 116
3 2704 155
3 2705 87
3 2706 52
3 2707 113
3 2708 63
3 2709 96
3 2710 1057
3 2711 157
3 2712 79
3 2713 101
3 2714 61
3 2715 103
3 2716 130
3 2717 131
3 2718 61
3 2719 225
3 2720 106
3 2721 117
3 2722 101
3 2723 115
3 2724 105
3 2725 52
3 2726 109
3 2727 115
3 2728 125
3 2729 68
3 2730 89
3 2731 134
3 2732 69
3 2733 126
3 2734 112
3 2735 167
3 2736 62
3 2737 80
3 2738 93
3 2739 90
3 2740 66
3 2741 135
3 2742 142
3 2743 60
3 2744 132
3 2745 135
3 2746 50
3 2747 79
3 2748 538
3 2749 58
3 2750 64
3 2751 63
3 2752 1041
3 2753 104
3 2754 135
3 2755 60
3 2756 57
3 2757 106
3 2758 80
3 2759 99
3 2760 198
3 2761 113
3 2762 118
3 2763 52
3 2764 103
3 2765 121
3 2766 91
3 2767 176
3 2768 139
3 2769 114
3 2770 54
3 2771 129
3 2772 94
3 2773 79
3 2774 5082
3 2775 46
3 2776 133
3 2777 68
3 2778 101
3 2779 57
3 2780 130
3 2781 83
3 2782 61
3 2783 170
3 2784 138
3 2785 299
3 2786 58
3 2787 90
3 2788 1309
3 2789 72
3 2790 29
3 2791 185
3 2792 70
3 2793 78
3 2794 65
3 2795 141
3 2796 174
3 2797 98
3 2798 236
3 2799 48
3 2800 120
3 2801 116
3 2802 106
3 2803 64
3 2804 23
3 2805 75
3 2806 85
3 2807 105
3 2808 908
3 2809 117
3 2810 117
3 2811 116
3 2812 115
3 2813 93
3 2814 203
3 2815 155
3 2816 71
3 2817 75
3 2818 10
3 2819 134
3 2820 525
3 2821 117
3 2822 101
3 2823 92
3 2824 79
3 2825 63
3 2826 63
3 2827 84
3 2828 134
3 2829 142
3 2830 87
3 2831 79
3 2832 88
3 2833 64
3 2834 81
3 2835 111
3 2836 73
3 2837 141
3 2838 130
3 2839 151
3 2840 49
3 2841 135
3 2842 112
3 2843 64
3 2844 5916
3 2845 134
3 2846 132
3 2847 86
3 2848 168
3 2849 80
3 2850 121
3 2851 102
3 2852 72
3 2853 149
3 2854 8826
3 2855 116
3 2856 264
3 2857 39
3 2858 103
3 2859 83
3 2860 95
3 2861 137
3 2862 57
3 2863 126
3 2864 146
3 2865 91
3 2866 154
3 2867 137
3 2868 56
3 2869 60
3 2870 127
3 2871 126
3 2872 76
3 2873 34
3 2874 130
3 2875 123
3 2876 74
3 2877 129
3 2878 85
3 2879 140
3 2880 564
3 2881 68
3 2882 11698
3 2883 81
3 2884 67
3 2885 93
3 2886 96
3 2887 120
3 2888 99
3 2889 64
3 2890 103
3 2891 82
3 2892 8357
3 2893 47
3 2894 124
3 2895 66
3 2896 121
3 2897 119
3 2898 131
3 2899 154
3 2900 108
3 2901 62
3 2902 168
3 2903 164
3 2904 2655
3 2905 89
3 2906 249
3 2907 113
3 2908 145
3 2909 63
3 2910 86
3 2911 108
3 2912 124
3 2913 127
3 2914 103
3 2915 91
3 2916 119
3 2917 143
3 2918 285
3 2919 51
3 2920 117
3 2921 239
3 2922 173
3 2923 64
3 2924 135
3 2925 62
3 2926 118
3 2927 132
3 2928 124
3 2929 147
3 2930 73
3 2931 76
3 2932 65
3 2933 255
3 2934 3452
3 2935 700
3 2936 1237
3 2937 83
3 2938 5663
3 2939 148
3 2940 97
3 2941 126
3 2942 86
3 2943 94
3 2944 67
3 2945 71
3 2946 101
3 2947 100
3 2948 104
3 2949 76
3 2950 111
3 2951 161
3 2952 73
3 2953 41
3 2954 87
3 2955 101
3 2956 445
3 2957 2546
3 2958 98
3 2959 95
3 2960 135
3 2961 129
3 2962 98
3 2963 57
3 2964 66
3 2965 60
3 2966 55
3 2967 73
3 2968 70
3 2969 112
3 2970 102
3 2971 73
3 2972 72
3 2973 67
3 2974 117
3 2975 83
3 2976 70
3 2977 54
3 2978 156
3 2979 134
3 2980 718
3 2981 526
3 2982 109
3 2983 81
3 2984 65
3 2985 46
3 2986 43
3 2987 7
3 2988 46
3 2989 61
3 2990 120
3 2991 138
3 2992 140
3 2993 81
3 2994 103
3 2995 71
3 2996 145
3 2997 82
3 2998 1032
3 2999 87
3 3000 110
3 3001 97
3 3002 1325
3 3003 250
3 3004 105
3 3005 79
3 3006 66
3 3007 7430
3 3008 185
3 3009 1543
3 3010 53
3 3011 22
3 3012 136
3 3013 147
3 3014 214
3 3015 124
3 3016 75
3 3017 107
3 3018 103
3 3019 119
3 3020 67
3 3021 89
3 3022 86
3 3023 104
3 3024 101
3 3025 68
3 3026 90
3 3027 99
3 3028 137
3 3029 39
3 3030 108
3 3031 67
3 3032 110
3 3033 212
3 3034 102
3 3035 108
3 3036 110
3 3037 107
3 3038 637
3 3039 87
3 3040 89
3 3041 74
3 3042 123
3 3043 150
3 3044 84
3 3045 122
3 3046 75
3 3047 143
3 3048 69
3 3049 108
3 3050 75
3 3051 135
3 3052 145
3 3053 255
3 3054 38
3 3055 126
3 3056 107
3 3057 74
3 3058 143
3 3059 87
3 3060 99
3 3061 112
3 3062 268
3 3063 1177
3 3064 142
3 3065 128
3 3066 52
3 3067 127
3 3068 124
3 3069 62
3 3070 817
3 3071 122
3 3072 120
3 3073 83
3 3074 138
3 3075 68
3 3076 126
3 3077 79
3 3078 6127
3 3079 91
3 3080 1342
3 3081 136
3 3082 63
3 3083 130
3 3084 96
3 3085 82
3 3086 80
3 3087 62
3 3088 12
3 3089 70
3 3090 221
3 3091 105
3 3092 93
3 3093 105
3 3094 68
3 3095 60
3 3096 88
3 3097 130
3 3098 82
3 3099 501
3 3100 103
3 3101 252
3 3102 10677
3 3103 117
3 3104 83
3 3105 379
3 3106 69
3 3107 70
3 3108 82
3 3109 116
3 3110 93
3 3111 112
3 3112 148
3 3113 126
3 3114 64
3 3115 97
3 3116 114
3 3117 111
3 3118 70
3 3119 106
3 3120 129
3 3121 63
3 3122 129
3 3123 142
3 3124 137
3 3125 109
3 3126 77
3 3127 81
3 3128 2706
3 3129 62
3 3130 77
3 3131 112
3 3132 134
3 3133 123
3 3134 108
3 3135 92
3 3136 1013
3 3137 141
3 3138 56
3 3139 95
3 3140 92
3 3141 153
3 3142 105
3 3143 209
3 3144 70
3 3145 99
3 3146 118
3 3147 138
3 3148 61
3 3149 115
3 3150 101
3 3151 59
3 3152 98
3 3153 123
3 3154 62
3 3155 136
3 3156 15
3 3157 154
3 3158 108
3 3159 107
3 3160 80
3 3161 74
3 3162 68
3 3163 131
3 3164 175
3 3165 93
3 3166 142
3 3167 69
3 3168 96
3 3169 125
3 3170 67
3 3171 103
3 3172 63
3 3173 120
3 3174 140
3 3175 99
3 3176 58
3 3177 85
3 3178 72
3 3179 63
3 3180 58
3 3181 65
3 3182 155
3 3183 56
3 3184 132
3 3185 148
3 3186 45
3 3187 88
3 3188 77
3 3189 107
3 3190 3595
3 3191 91
3 3192 116
3 3193 106
3 3194 113
3 3195 67
3 3196 141
3 3197 99
3 3198 74
3 3199 67
3 3200 169
3 3201 87
3 3202 151
3 3203 54
3 3204 355
3 3205 71
3 3206 139
3 3207 105
3 3208 124
3 3209 61
3 3210 64
3 3211 90
3 3212 71
3 3213 135
3 3214 59
3 3215 57
3 3216 102
3 3217 133
3 3218 92
3 3219 150
3 3220 109
3 3221 76
3 3222 159
3 3223 75
3 3224 110
3 3225 90
3 3226 48
3 3227 172
3 3228 133
3 3229 55
3 3230 61
3 3231 120
3 3232 75
3 3233 117
3 3234 53
3 3235 162
3 3236 104
3 3237 76
3 3238 49
3 3239 162
3 3240 67
3 3241 138
3 3242 112
3 3243 102
3 3244 156
3 3245 114
3 3246 115
3 3247 275
3 3248 86
3 3249 108
3 3250 107
3 3251 1505
3 3252 130
3 3253 100
3 3254 80
3 3255 175
3 3256 74
3 3257 1734
3 3258 92
3 3259 107
3 3260 56
3 3261 81
3 3262 70
3 3263 90
3 3264 99
3 3265 89
3 3266 97
3 3267 131
3 3268 91
3 3269 156
3 3270 71
3 3271 65
3 3272 108
3 3273 82
3 3274 79
3 3275 46
3 3276 278
3 3277 76
3 3278 128
3 3279 66
3 3280 84
3 3281 133
3 3282 125
3 3283 72
3 3284 89
3 3285 47
3 3286 76
3 3287 130
3 3288 221
3 3289 43
3 3290 144
3 3291 90
3 3292 2685
3 3293 59
3 3294 100
3 3295 133
3 3296 124
3 3297 122
3 3298 94
3 3299 78
3 3300 115
3 3301 95
3 3302 132
3 3303 130
3 3304 77
3 3305 80
3 3306 2015
3 3307 83
3 3308 78
3 3309 117
3 3310 71
3 3311 74
3 3312 246
3 3313 67
3 3314 113
3 3315 94
3 3316 116
3 3317 166
3 3318 124
3 3319 80
3 3320 152
3 3321 95
3 3322 216
3 3323 114
3 3324 99
3 3325 127
3 3326 54
3 3327 62
3 3328 145
3 3329 91
3 3330 105
3 3331 116
3 3332 76
3 3333 115
3 3334 277
3 3335 124
3 3336 144
3 3337 65
3 3338 208
3 3339 140
3 3340 78
3 3341 68
3 3342 4711
3 3343 89
3 3344 56
3 3345 91
3 3346 346
3 3347 157
3 3348 138
3 3349 83
3 3350 70
3 3351 127
3 3352 67
3 3353 81
3 3354 79
3 3355 176
3 3356 599
3 3357 62
3 3358 85
3 3359 71
3 3360 106
3 3361 116
3 3362 84
3 3363 89
3 3364 60
3 3365 104
3 3366 147
3 3367 55
3 3368 72
3 3369 3
3 3370 91
3 3371 1262
3 3372 99
3 3373 103
3 3374 87
3 3375 85
3 3376 95
3 3377 828
3 3378 1983
3 3379 117
3 3380 216
3 3381 110
3 3382 63
3 3383 465
3 3384 122
3 3385 95
3 3386 206
3 3387 3018
3 3388 210
3 3389 70
3 3390 130
3 3391 77
3 3392 199
3 3393 32
3 3394 67
3 3395 728
3 3396 106
3 3397 60
3 3398 161
3 3399 65
3 3400 86
3 3401 114
3 3402 48
3 3403 103
3 3404 37
3 3405 136
3 3406 172
3 3407 170
3 3408 72
3 3409 65
3 3410 68
3 3411 32
3 3412 128
3 3413 124
3 3414 140
3 3415 104
3 3416 106
3 3417 159
3 3418 199
3 3419 24
3 3420 74
3 3421 125
3 3422 264
3 3423 55
3 3424 62
3 3425 122
3 3426 115
3 3427 39
3 3428 202
3 3429 116
3 3430 105
3 3431 89
3 3432 158
3 3433 165
3 3434 46
3 3435 68
3 3436 82
3 3437 155
3 3438 104
3 3439 159
3 3440 150
3 3441 126
3 3442 92
3 3443 127
3 3444 55
3 3445 56
3 3446 126
3 3447 1293
3 3448 45
3 3449 1468
3 3450 96
3 3451 44
3 3452 14
3 3453 87
3 3454 64
3 3455 103
3 3456 136
3 3457 130
3 3458 87
3 3459 46
3 3460 90
3 3461 80
3 3462 86
3 3463 60
3 3464 3410
3 3465 54
3 3466 60
3 3467 108
3 3468 47
3 3469 96
3 3470 63
3 3471 84
3 3472 70
3 3473 48
3 3474 88
3 3475 78
3 3476 54
3 3477 43
3 3478 65
3 3479 68
3 3480 87
3 3481 54
3 3482 74
3 3483 123
3 3484 73
3 3485 64
3 3486 115
3 3487 104
3 3488 123
3 3489 82
3 3490 101
3 3491 104
3 3492 309
3 3493 113
3 3494 75
3 3495 107
3 3496 65
3 3497 99
3 3498 96
3 3499 191
3 3500 131
3 3501 56
3 3502 92
3 3503 83
3 3504 74
3 3505 63
3 3506 214
3 3507 69
3 3508 150
3 3509 55
3 3510 113
3 3511 58
3 3512 104
3 3513 67
3 3514 168
3 3515 177
3 3516 130
3 3517 78
3 3518 80
3 3519 167
3 3520 85
3 3521 98
3 3522 74
3 3523 36
3 3524 72
3 3525 49
3 3526 161
3 3527 109
3 3528 61
3 3529 66
3 3530 64
3 3531 119
3 3532 122
3 3533 108
3 3534 101
3 3535 208
3 3536 2592
3 3537 75
3 3538 122
3 3539 125
3 3540 79
3 3541 106
3 3542 70
3 3543 38
3 3544 145
3 3545 1748
3 3546 57
3 3547 73
3 3548 64
3 3549 45
3 3550 112
3 3551 114
3 3552 75
3 3553 136
3 3554 63
3 3555 99
3 3556 126
3 3557 6318
3 3558 89
3 3559 121
3 3560 74
3 3561 72
3 3562 105
3 3563 132
3 3564 127
3 3565 104
3 3566 123
3 3567 136
3 3568 285
3 3569 84
3 3570 61
3 3571 160
3 3572 77
3 3573 85
3 3574 121
3 3575 162
3 3576 93
3 3577 121
3 3578 86
3 3579 55
3 3580 87
3 3581 120
3 3582 89
3 3583 136
3 3584 342
3 3585 95
3 3586 81
3 3587 34
3 3588 47
3 3589 50
3 3590 105
3 3591 72
3 3592 120
3 3593 126
3 3594 70
3 3595 67
3 3596 141
3 3597 111
3 3598 100
3 3599 197
3 3600 95
3 3601 38
3 3602 614
3 3603 92
3 3604 87
3 3605 119
3 3606 83
3 3607 93
3 3608 118
3 3609 69
3 3610 67
3 3611 58
3 3612 146
3 3613 94
3 3614 171
3 3615 86
3 3616 101
3 3617 91
3 3618 99
3 3619 82
3 3620 87
3 3621 105
3 3622 104
3 3623 69
3 3624 102
3 3625 97
3 3626 103
3 3627 121
3 3628 102
3 3629 98
3 3630 93
3 3631 101
3 3632 83
3 3633 92
3 3634 108
3 3635 368
3 3636 55
3 3637 83
3 3638 61
3 3639 95
3 3640 93
3 3641 82
3 3642 828
3 3643 767
3 3644 121
3 3645 145
3 3646 55
3 3647 91
3 3648 134
3 3649 115
3 3650 95
3 3651 138
3 3652 94
3 3653 60
3 3654 75
3 3655 60
3 3656 114
3 3657 102
3 3658 293
3 3659 97
3 3660 93
3 3661 91
3 3662 100
3 3663 91
3 3664 71
3 3665 53
3 3666 1246
3 3667 78
3 3668 95
3 3669 69
3 3670 93
3 3671 78
3 3672 194
3 3673 73
3 3674 192
3 3675 155
3 3676 61
3 3677 103
3 3678 56
3 3679 100
3 3680 80
3 3681 130
3 3682 72
3 3683 59
3 3684 86
3 3685 310
3 3686 63
3 3687 77
3 3688 68
3 3689 134
3 3690 93
3 3691 66
3 3692 2128
3 3693 192
3 3694 124
3 3695 92
3 3696 128
3 3697 513
3 3698 17
3 3699 139
3 3700 79
3 3701 100
3 3702 128
3 3703 116
3 3704 115
3 3705 112
3 3706 65
3 3707 101
3 3708 80
3 3709 85
3 3710 305
3 3711 124
3 3712 34
3 3713 111
3 3714 113
3 3715 86
3 3716 136
3 3717 84
3 3718 188
3 3719 355
3 3720 95
3 3721 73
3 3722 133
3 3723 71
3 3724 71
3 3725 62
3 3726 76
3 3727 55
3 3728 137
3 3729 88
3 3730 54
3 3731 121
3 3732 134
3 3733 205
3 3734 107
3 3735 56
3 3736 73
3 3737 49
3 3738 123
3 3739 80
3 3740 100
3 3741 51
3 3742 124
3 3743 67
3 3744 114
3 3745 80
3 3746 50
3 3747 114
3 3748 64
3 3749 78
3 3750 90
3 3751 75
3 3752 67
3 3753 73
3 3754 75
3 3755 90
3 3756 81
3 3757 94
3 3758 59
3 3759 58
3 3760 138
3 3761 108
3 3762 132
3 3763 141
3 3764 136
3 3765 74
3 3766 2220
3 3767 85
3 3768 114
3 3769 208
3 3770 74
3 3771 47
3 3772 82
3 3773 74
3 3774 48
3 3775 84
3 3776 116
3 3777 89
3 3778 87
3 3779 59
3 3780 3404
3 3781 70
3 3782 73
3 3783 151
3 3784 66
3 3785 108
3 3786 77
3 3787 66
3 3788 114
3 3789 97
3 3790 112
3 3791 95
3 3792 121
3 3793 103
3 3794 60
3 3795 148
3 3796 106
3 3797 295
3 3798 52
3 3799 90
3 3800 109
3 3801 123
3 3802 56
3 3803 63
3 3804 50
3 3805 124
3 3806 79
3 3807 54
3 3808 53
3 3809 155
3 3810 81
3 3811 80
3 3812 81
3 3813 789
3 3814 106
3 3815 147
3 3816 106
3 3817 68
3 3818 79
3 3819 100
3 3820 115
3 3821 81
3 3822 103
3 3823 104
3 3824 335
3 3825 83
3 3826 82
3 3827 3537
3 3828 75
3 3829 56
3 3830 113
3 3831 117
3 3832 49
3 3833 562
3 3834 61
3 3835 215
3 3836 95
3 3837 75
3 3838 132
3 3839 100
3 3840 77
3 3841 52
3 3842 64
3 3843 184
3 3844 390
3 3845 123
3 3846 75
3 3847 148
3 3848 56
3 3849 59
3 3850 67
3 3851 3598
3 3852 275
3 3853 112
3 3854 79
3 3855 82
3 3856 133
3 3857 91
3 3858 97
3 3859 72
3 3860 124
3 3861 108
3 3862 60
3 3863 57
3 3864 48
3 3865 38
3 3866 310
3 3867 103
3 3868 392
3 3869 253
3 3870 223
3 3871 124
3 3872 108
3 3873 103
3 3874 35
3 3875 76
3 3876 194
3 3877 131
3 3878 50
3 3879 64
3 3880 348
3 3881 122
3 3882 106
3 3883 70
3 3884 119
3 3885 143
3 3887 82
3 3888 88
3 3889 251
3 3890 138
3 3891 121
3 3892 141
3 3893 107
3 3894 37
3 3895 54
3 3896 84
3 3897 147
3 3898 60
3 3899 199
3 3900 216
3 3901 40
3 3902 180
3 3903 109
3 3904 162
3 3905 86
3 3906 150
3 3907 106
3 3908 66
3 3909 55
3 3910 80
3 3911 91
3 3912 23
3 3913 111
3 3914 93
3 3915 498
3 3916 28
3 3917 109
3 3918 139
3 3919 61
3 3920 105
3 3921 41
3 3922 58
3 3923 105
3 3924 77
3 3925 32
3 3926 99
3 3927 55
3 3928 77
3 3929 74
3 3930 44
3 3931 98
3 3932 49
3 3933 88
3 3934 40
3 3935 168
3 3936 115
3 3937 29
3 3938 129
3 3939 1639
3 3940 115
3 3941 108
3 3942 47
3 3943 75
3 3944 123
3 3945 63
3 3946 88
3 3947 57
3 3948 82
3 3949 124
3 3950 56
3 3951 218
3 3952 2539
3 3953 114
3 3954 78
3 3955 76
3 3956 67
3 3957 116
3 3958 106
3 3959 307
3 3960 44
3 3961 82
3 3962 79
3 3963 87
3 3964 62
3 3965 81
3 3966 81
3 3967 121
3 3968 90
3 3969 73
3 3970 60
3 3971 101
3 3972 176
3 3973 65
3 3974 65
3 3975 44
3 3976 91
3 3977 133
3 3978 102
3 3979 119
3 3980 103
3 3981 73
3 3982 138
3 3983 88
3 3984 172
3 3985 69
3 3986 99
3 3987 31
3 3988 75
3 3989 203
3 3990 85
3 3991 488
3 3992 100
3 3993 321
3 3994 103
3 3995 72
3 3996 87
3 3997 114
3 3998 56
3 3999 107
3 4000 49
3 4001 293
3 4002 165
3 4003 87
3 4004 68
3 4005 75
3 4006 131
3 4007 63
3 4008 102
3 4009 3321
3 4010 65
3 4011 64
3 4012 78
3 4013 501
3 4014 74
3 4015 199
3 4016 103
3 4017 62
3 4018 137
3 4019 84
3 4020 77
3 4021 61
3 4022 57
3 4023 560
3 4024 122
3 4025 57
3 4026 74
3 4027 65
3 4028 49
3 4029 53
3 4030 99
3 4031 43
3 4032 109
3 4033 1844
3 4034 67
3 4035 7
3 4036 1885
3 4037 48
3 4038 116
3 4039 107
3 4040 1333
3 4041 116
3 4042 208
3 4043 66
3 4044 36
3 4045 87
3 4046 63
3 4047 4258
3 4048 92
3 4049 114
3 4050 81
3 4051 69
3 4052 71
3 4053 94
3 4054 85
3 4055 81
3 4056 232
3 4057 51
3 4058 241
3 4059 75
3 4060 140
3 4061 69
3 4062 184
3 4063 464
3 4064 105
3 4065 134
3 4066 147
3 4067 106
3 4068 102
3 4069 121
3 4070 111
3 4071 73
3 4072 121
3 4073 71
3 4074 123
3 4075 59
3 4076 93
3 4077 1127
3 4078 1549
3 4079 124
3 4080 62
3 4081 72
3 4082 78
3 4083 335
3 4084 103
3 4085 49
3 4086 74
3 4087 56
3 4088 120
3 4089 124
3 4090 204
3 4091 102
3 4092 112
3 4093 77
3 4094 90
3 4095 106
3 4096 3928
3 4097 134
3 4098 69
3 4099 114
3 4100 111
3 4101 43
3 4102 98
3 4103 93
3 4104 68
3 4105 10
3 4106 83
3 4107 82
3 4108 130
3 4109 73
3 4110 113
3 4111 68
3 4112 116
3 4113 66
3 4114 49
3 4115 59
3 4116 53
3 4117 112
3 4118 111
3 4119 94
3 4120 62
3 4121 119
3 4122 46
3 4123 149
3 4124 43
3 4125 81
3 4126 139
3 4127 108
3 4128 76
3 4129 132
3 4130 114
3 4131 130
3 4132 93
3 4133 49
3 4134 78
3 4135 66
3 4136 220
3 4137 49
3 4138 57
3 4139 118
3 4140 58
3 4141 65
3 4142 91
3 4143 65
3 4144 419
3 4145 85
3 4146 118
3 4147 77
3 4148 241
3 4149 58
3 4150 99
3 4151 113
3 4152 126
3 4153 63
3 4154 83
3 4155 1855
3 4156 45
3 4157 87
3 4158 65
3 4159 49
3 4160 99
3 4161 122
3 4162 34
3 4163 185
3 4164 119
3 4165 137
3 4166 102
3 4167 159
3 4168 102
3 4169 112
3 4170 21
3 4171 195
3 4172 48
3 4173 1224
3 4174 128
3 4175 62
3 4176 53
3 4177 89
3 4178 115
3 4179 65
3 4180 51
3 4181 54
3 4182 194
3 4183 53
3 4184 122
3 4185 61
3 4186 239
3 4187 91
3 4188 61
3 4189 2115
3 4190 114
3 4191 89
3 4192 58
3 4193 163
3 4194 145
3 4195 125
3 4196 54
3 4197 133
3 4198 113
3 4199 497
3 4200 127
3 4201 52
3 4202 1748
3 4203 54
3 4204 683
3 4205 104
3 4206 134
3 4207 101
3 4208 59
3 4209 106
3 4210 127
3 4211 215
3 4212 33
3 4213 117
3 4214 113
3 4215 43
3 4216 73
3 4217 94
3 4218 78
3 4219 111
3 4220 101
3 4221 57
3 4222 145
3 4223 109
3 4224 423
3 4225 80
3 4226 116
3 4227 110
3 4228 67
3 4229 86
3 4230 96
3 4231 107
3 4232 58
3 4233 133
3 4234 88
3 4235 111
3 4236 110
3 4237 88
3 4238 120
3 4239 215
3 4240 87
3 4241 53
3 4242 109
3 4243 45
3 4244 63
3 4245 83
3 4246 101
3 4247 319
3 4248 267
3 4249 72
3 4250 317
3 4251 120
3 4252 114
3 4253 116
3 4254 92
3 4255 163
3 4256 78
3 4257 103
3 4258 118
3 4259 106
3 4260 84
3 4261 61
3 4262 103
3 4263 571
3 4264 106
3 4265 35
3 4266 81
3 4267 59
3 4268 87
3 4269 145
3 4270 112
3 4271 82
3 4272 118
3 4273 104
3 4274 643
3 4275 12
3 4276 76
3 4277 35
3 4278 96
3 4279 100
3 4280 108
3 4281 133
3 4282 105
3 4283 98
3 4284 67
3 4285 668
3 4286 95
3 4287 114
3 4288 115
3 4289 106
3 4290 83
3 4291 109
3 4292 124
3 4293 45
3 4294 141
3 4295 98
3 4296 44
3 4297 108
3 4298 78
3 4299 80
3 4300 59
3 4301 146
3 4302 11
3 4303 688
3 4304 48
3 4305 125
3 4306 876
3 4307 965
3 4308 66
3 4309 55
3 4310 86
3 4311 51
3 4312 175
3 4313 133
3 4314 204
3 4315 50
3 4316 129
3 4317 77
3 4318 65
3 4319 35
3 4320 78
3 4321 110
3 4322 138
3 4323 69
3 4324 109
3 4325 39
3 4326 55
3 4327 1918
3 4328 115
3 4329 110
3 4330 72
3 4331 178
3 4332 46
3 4333 112
3 4334 32
3 4335 113
3 4336 59
3 4337 63
3 4338 141
3 4339 57
3 4340 130
3 4341 64
3 4342 97
3 4343 210
3 4344 51
3 4345 129
3 4346 92
3 4347 101
3 4348 95
3 4349 152
3 4350 88
3 4351 55
3 4352 89
3 4353 112
3 4354 89
3 4355 112
3 4356 63
3 4357 80
3 4358 64
3 4359 59
3 4360 55
3 4361 56
3 4362 105
3 4363 72
3 4364 148
3 4365 126
3 4366 130
3 4367 110
3 4368 147
3 4369 61
3 4370 111
3 4371 82
3 4372 56
3 4373 307
3 4374 64
3 4375 2218
3 4376 64
3 4377 118
3 4378 130
3 4379 112
3 4380 94
3 4381 161
3 4382 89
3 4383 120
3 4384 78
3 4385 133
3 4386 66
3 4387 114
3 4388 91
3 4389 117
3 4390 49
3 4391 117
3 4392 133
3 4393 49
3 4394 103
3 4395 147
3 4396 580
3 4397 58
3 4398 40
3 4399 225
3 4400 110
3 4401 118
3 4402 113
3 4403 140
3 4404 74
3 4405 154
3 4406 50
3 4407 54
3 4408 127
3 4409 133
3 4410 111
3 4411 136
3 4412 72
3 4413 54
3 4414 100
3 4415 55
3 4416 91
3 4417 60
3 4418 93
3 4419 102
3 4420 98
3 4421 137
3 4422 57
3 4423 46
3 4424 68
3 4425 78
3 4426 112
3 4427 152
3 4428 61
3 4429 52
3 4430 60
3 4431 117
3 4432 55
3 4433 112
3 4434 291
3 4435 81
3 4436 138
3 4437 122
3 4438 69
3 4439 100
3 4440 57
3 4441 67
3 4442 64
3 4443 77
3 4444 30
3 4445 88
3 4446 96
3 4447 76
3 4448 97
3 4449 148
3 4450 75
3 4451 42
3 4452 116
3 4453 28
3 4454 130
3 4455 119
3 4456 141
3 4457 58
3 4458 55
3 4459 124
3 4460 59
3 4461 133
3 4462 91
3 4463 497
3 4464 58
3 4465 59
3 4466 84
3 4467 73
3 4468 169
3 4469 72
3 4470 51
3 4471 112
3 4472 78
3 4473 1368
3 4474 856
3 4475 84
3 4476 128
3 4477 69
3 4478 55
3 4479 69
3 4480 1064
3 4481 125
3 4482 54
3 4483 90
3 4484 60
3 4485 211
3 4486 64
3 4487 117
3 4488 1562
3 4489 87
3 4490 114
3 4491 23
3 4492 134
3 4493 47
3 4494 115
3 4495 101
3 4496 78
3 4497 126
3 4498 99
3 4499 134
3 4500 107
3 4501 95
3 4502 216
3 4503 951
3 4504 417
3 4505 113
3 4506 121
3 4507 114
3 4508 46
3 4509 55
3 4510 60
3 4511 98
3 4512 105
3 4513 118
3 4514 61
3 4515 93
3 4516 133
3 4517 85
3 4518 82
3 4519 767
3 4520 131
3 4521 433
3 4522 139
3 4523 111
3 4524 115
3 4525 56
3 4526 131
3 4527 61
3 4528 158
3 4529 55
3 4530 122
3 4531 93
3 4532 41
3 4533 67
3 4534 577
3 4535 103
3 4536 65
3 4537 68
3 4538 131
3 4539 129
3 4540 108
3 4541 119
3 4542 50
3 4543 100
3 4544 97
3 4545 72
3 4546 121
3 4547 115
3 4548 106
3 4549 130
3 4550 105
3 4551 41
3 4552 22
3 4553 116
3 4554 110
3 4555 167
3 4556 112
3 4557 66
3 4558 76
3 4559 135
3 4560 114
3 4561 90
3 4562 70
3 4563 61
3 4564 113
3 4565 165
3 4566 81
3 4567 29
3 4568 102
3 4569 55
3 4570 121
3 4571 148
3 4572 3351
3 4573 232
3 4574 87
3 4575 537
3 4576 36
3 4577 140
3 4578 69
3 4579 86
3 4580 74
3 4581 22
3 4582 53
3 4583 96
3 4584 106
3 4585 105
3 4586 127
3 4587 105
3 4588 102
3 4589 79
3 4590 52
3 4591 60
3 4592 110
3 4593 156
3 4594 62
3 4595 89
3 4596 77
3 4597 124
3 4598 104
3 4599 111
3 4600 53
3 4601 4
3 4602 116
3 4603 114
3 4604 121
3 4605 49
3 4606 103
3 4607 32
3 4608 111
3 4609 127
3 4610 200
3 4611 81
3 4612 55
3 4613 113
3 4614 399
3 4615 87
3 4616 56
3 4617 133
3 4618 95
3 4619 116
3 4620 60
3 4621 69
3 4622 120
3 4623 94
3 4624 74
3 4625 108
3 4626 101
3 4627 114
3 4628 86
3 4629 232
3 4630 61
3 4631 55
3 4632 218
3 4633 118
3 4634 123
3 4635 135
3 4636 51
3 4637 130
3 4638 140
3 4639 52
3 4640 71
3 4641 158
3 4642 53
3 4643 127
3 4644 70
3 4645 77
3 4646 384
3 4647 97
3 4648 124
3 4649 90
3 4650 53
3 4651 111
3 4652 65
3 4653 55
3 4654 66
3 4655 111
3 4656 95
3 4657 72
3 4658 106
3 4659 58
3 4660 130
3 4661 1071
3 4662 60
3 4663 47
3 4664 131
3 4665 117
3 4666 12
3 4667 80
3 4668 90
3 4669 137
3 4670 95
3 4671 72
3 4672 67
3 4673 95
3 4674 110
3 4675 110
3 4676 323
3 4677 61
3 4678 156
3 4679 118
3 4680 70
3 4681 144
3 4682 54
3 4683 86
3 4684 80
3 4685 111
3 4686 38
3 4687 120
3 4688 156
3 4689 111
3 4690 145
3 4691 330
3 4692 654
3 4693 50
3 4694 54
3 4695 26
3 4696 1346
3 4697 145
3 4698 76
3 4699 43
3 4700 71
3 4701 74
3 4702 108
3 4703 755
3 4704 88
3 4705 50
3 4706 102
3 4707 66
3 4708 62
3 4709 72
3 4710 320
3 4711 213
3 4712 140
3 4713 106
3 4714 142
3 4715 91
3 4716 60
3 4717 92
3 4718 58
3 4719 55
3 4720 141
3 4721 120
3 4722 99
3 4723 38
3 4724 814
3 4725 88
3 4726 128
3 4727 96
3 4728 134
3 4729 121
3 4730 73
3 4731 102
3 4732 39
3 4733 145
3 4734 90
3 4735 2270
3 4736 84
3 4737 112
3 4738 68
3 4739 133
3 4740 136
3 4741 103
3 4742 166
3 4743 69
3 4744 131
3 4745 128
3 4746 70
3 4747 68
3 4748 66
3 4749 81
3 4750 65
3 4751 40
3 4752 58
3 4753 104
3 4754 40
3 4755 2062
3 4756 84
3 4757 59
3 4758 114
3 4759 135
3 4760 81
3 4761 77
3 4762 149
3 4763 145
3 4764 36
3 4765 95
3 4766 104
3 4767 132
3 4768 54
3 4769 67
3 4770 71
3 4771 113
3 4772 63
3 4773 51
3 4774 41
3 4775 40
3 4776 102
3 4777 45
3 4778 105
3 4779 93
3 4780 131
3 4781 133
3 4782 70
3 4783 79
3 4784 61
3 4785 77
3 4786 109
3 4787 52
3 4788 114
3 4789 1198
3 4790 108
3 4791 78
3 4792 95
3 4793 80
3 4794 49
3 4795 88
3 4796 49
3 4797 63
3 4798 89
3 4799 126
3 4800 78
3 4801 174
3 4802 82
3 4803 20
3 4804 50
3 4805 88
3 4806 273
3 4807 74
3 4808 78
3 4809 99
3 4810 236
3 4811 178
3 4812 1471
3 4813 62
3 4814 20
3 4815 180
3 4816 499
3 4817 76
3 4818 91
3 4819 70
3 4820 80
3 4821 144
3 4822 94
3 4823 121
3 4824 116
3 4825 76
3 4826 62
3 4827 88
3 4828 79
3 4829 77
3 4830 128
3 4831 104
3 4832 68
3 4833 63
3 4834 49
3 4835 749
3 4836 157
3 4837 121
3 4838 231
3 4839 66
3 4840 16
3 4841 128
3 4842 10
3 4843 297
3 4844 120
3 4845 103
3 4846 181
3 4847 108
3 4848 77
3 4849 27
3 4850 37
3 4851 104
3 4852 110
3 4853 99
3 4854 278
3 4855 17
3 4856 209
3 4857 112
3 4858 101
3 4859 113
3 4860 146
3 4861 110
3 4862 137
3 4863 186
3 4864 122
3 4865 120
3 4866 112
3 4867 65
3 4868 106
3 4869 114
3 4870 152
3 4871 110
3 4872 72
3 4873 591
3 4874 153
3 4875 101
3 4876 109
3 4877 103
3 4878 52
3 4879 17
3 4880 172
3 4881 64
3 4882 110
3 4883 34
3 4884 112
3 4885 59
3 4886 93
3 4887 129
3 4888 110
3 4889 97
3 4890 108
3 4891 72
3 4892 76
3 4893 100
3 4894 70
3 4895 67
3 4896 69
3 4897 122
3 4898 61
3 4899 177
3 4900 111
3 4901 233
3 4902 77
3 4903 59
3 4904 208
3 4905 74
3 4906 117
3 4907 78
3 4908 36
3 4909 127
3 4910 54
3 4911 75
3 4912 65
3 4913 116
3 4914 114
3 4915 65
3 4916 61
3 4917 93
3 4918 49
3 4919 155
3 4920 172
3 4921 30
3 4922 114
3 4923 92
3 4924 71
3 4925 121
3 4926 79
3 4927 831
3 4928 115
3 4929 67
3 4930 59
3 4931 94
3 4932 68
3 4933 174
3 4934 2
3 4935 64
3 4936 723
3 4937 62
3 4938 111
3 4939 47
3 4940 129
3 4941 56
3 4942 60
3 4943 136
3 4944 136
3 4945 119
3 4946 65
3 4947 149
3 4948 126
3 4949 41
3 4950 1029
3 4951 104
3 4952 92
3 4953 92
3 4954 132
3 4955 43
3 4956 122
3 4957 47
3 4958 44
3 4959 85
3 4960 88
3 4961 90
3 4962 102
3 4963 86
3 4964 59
3 4965 49
3 4966 83
3 4967 51
3 4968 170
3 4969 68
3 4970 98
3 4971 76
3 4972 413
3 4973 37
3 4974 257
3 4975 92
3 4976 78
3 4977 227
3 4978 43
3 4979 85
3 4980 84
3 4981 106
3 4982 68
3 4983 48
3 4984 135
3 4985 57
3 4986 202
3 4987 97
3 4988 165
3 4989 60
3 4990 48
3 4991 69
3 4992 131
3 4993 44
3 4994 69
3 4995 111
3 4996 44
3 4997 45
3 4998 171
3 4999 76
3 5000 188
3 5001 134
3 5002 103
3 5003 139
3 5004 69
3 5005 3
3 5006 74
3 5007 101
3 5008 18
3 5009 133
3 5010 56
3 5011 92
3 5012 100
3 5013 66
3 5014 69
3 5015 79
3 5016 70
3 5017 76
3 5018 82
3 5019 63
3 5020 101
3 5021 101
3 5022 82
3 5023 56
3 5024 59
3 5025 92
3 5026 142
3 5027 5
3 5028 75
3 5029 449
3 5030 31
3 5031 58
3 5032 64
3 5033 62
3 5034 48
3 5035 318
3 5036 34
3 5037 86
3 5038 97
3 5039 73
3 5040 90
3 5041 75
3 5042 116
3 5043 66
3 5044 65
3 5045 118
3 5046 68
3 5047 61
3 5048 96
3 5049 96
3 5050 296
3 5051 155
3 5052 79
3 5053 93
3 5054 64
3 5055 142
3 5056 32
3 5057 61
3 5058 251
3 5059 52
3 5060 34
3 5061 16
3 5062 101
3 5063 87
3 5064 108
3 5065 123
3 5066 106
3 5067 158
3 5068 47
3 5069 122
3 5070 5
3 5071 73
3 5072 205
3 5073 72
3 5074 65
3 5075 73
3 5076 98
3 5077 58
3 5078 65
3 5079 63
3 5080 87
3 5081 98
3 5082 421
3 5083 21
3 5084 140
3 5085 131
3 5086 99
3 5087 59
3 5088 26
3 5089 95
3 5090 126
3 5091 117
3 5092 118
3 5093 66
3 5094 38
3 5095 90
3 5096 74
3 5097 114
3 5098 84
3 5099 639
3 5100 56
3 5101 2172
3 5102 108
3 5103 96
3 5104 63
3 5105 91
3 5106 47
3 5107 87
3 5108 93
3 5109 126
3 5110 93
3 5111 475
3 5112 102
3 5113 113
3 5114 55
3 5115 52
3 5116 125
3 5117 128
3 5118 57
3 5119 127
3 5120 17
3 5121 62
3 5122 83
3 5123 114
3 5124 105
3 5125 173
3 5126 61
3 5127 54
3 5128 68
3 5129 56
3 5130 66
3 5131 66
3 5132 121
3 5133 126
3 5134 59
3 5135 77
3 5136 71
3 5137 79
3 5138 28
3 5139 68
3 5140 82
3 5141 84
3 5142 48
3 5143 49
3 5144 118
3 5145 116
3 5146 88
3 5147 125
3 5148 64
3 5149 110
3 5150 93
3 5151 68
3 5152 59
3 5153 64
3 5154 93
3 5155 116
3 5156 96
3 5157 82
3 5158 87
3 5159 115
3 5160 52
3 5161 78
3 5162 43
3 5163 103
3 5164 40
3 5165 191
3 5166 115
3 5167 69
3 5168 63
3 5169 43
3 5170 2267
3 5171 104
3 5172 100
3 5173 20
3 5174 61
3 5175 118
3 5176 39
3 5177 79
3 5178 100
3 5179 3
3 5180 38
3 5181 124
3 5182 70
3 5183 72
3 5184 99
3 5185 139
3 5186 66
3 5187 87
3 5188 51
3 5189 17
3 5190 16
3 5191 71
3 5192 69
3 5193 63
3 5194 50
3 5195 96
3 5196 87
3 5197 81
3 5198 137
3 5199 60
3 5200 44
3 5201 106
3 5202 165
3 5203 103
3 5204 110
3 5205 28
3 5206 75
3 5207 56
3 5208 62
3 5209 6
3 5210 51
3 5211 52
3 5212 69
3 5213 43
3 5214 108
3 5215 231
3 5216 95
3 5217 53
3 5218 123
3 5219 44
3 5220 141
3 5221 136
3 5222 45
3 5223 2
3 5224 66
3 5225 122
3 5226 110
3 5227 42
3 5228 110
3 5229 64
3 5230 61
3 5231 91
3 5232 124
3 5233 57
3 5234 140
3 5235 98
3 5236 53
3 5237 89
3 5238 77
3 5239 118
3 5240 37
3 5241 81
3 5242 84
3 5243 79
3 5244 203
3 5245 87
3 5246 106
3 5247 94
3 5248 70
3 5249 60
3 5250 124
3 5251 15
3 5252 71
3 5253 155
3 5254 122
3 5255 429
3 5256 123
3 5257 73
3 5258 75
3 5259 213
3 5260 72
3 5261 6
3 5262 106
3 5263 205
3 5264 325
3 5265 55
3 5266 113
3 5267 22
3 5268 61
3 5269 64
3 5270 123
3 5271 91
3 5272 120
3 5273 66
3 5274 94
3 5275 108
3 5276 145
3 5277 150
3 5278 122
3 5279 107
3 5280 61
3 5281 147
3 5282 117
3 5283 146
3 5284 74
3 5285 66
3 5286 74
3 5287 53
3 5288 124
3 5289 56
3 5290 111
3 5291 104
3 5292 101
3 5293 167
3 5294 57
3 5295 93
3 5296 116
3 5297 89
3 5298 91
3 5299 83
3 5300 76
3 5301 36
3 5302 12
3 5303 66
3 5304 64
3 5305 31
3 5306 95
3 5307 71
3 5308 107
3 5309 92
3 5310 93
3 5311 67
3 5312 92
3 5313 93
3 5314 105
3 5315 87
3 5316 106
3 5317 24
3 5318 131
3 5319 347
3 5320 27
3 5321 62
3 5322 82
3 5323 83
3 5324 12
3 5325 51
3 5326 69
3 5327 56
3 5328 106
3 5329 108
3 5330 68
3 5331 67
3 5332 55
3 5333 110
3 5334 53
3 5335 81
3 5336 65
3 5337 137
3 5338 109
3 5339 146
3 5340 35
3 5341 75
3 5342 130
3 5343 128
3 5344 79
3 5345 67
3 5346 596
3 5347 79
3 5348 98
3 5349 80
3 5350 49
3 5351 65
3 5352 59
3 5353 75
3 5354 78
3 5355 38
3 5356 62
3 5357 106
3 5358 135
3 5359 69
3 5360 85
3 5361 73
3 5362 73
3 5363 75
3 5364 48
3 5365 86
3 5366 61
3 5367 86
3 5368 133
3 5369 65
3 5370 33
3 5371 99
3 5372 65
3 5373 60
3 5374 415
3 5375 92
3 5376 86
3 5377 51
3 5378 115
3 5379 115
3 5380 92
3 5381 333
3 5382 18
3 5383 96
3 5384 51
3 5385 124
3 5386 82
3 5387 19
3 5388 40
3 5389 112
3 5390 123
3 5391 140
3 5392 82
3 5393 42
3 5394 122
3 5395 72
3 5396 165
3 5397 49
3 5398 144
3 5399 111
3 5400 64
3 5401 84
3 5402 119
3 5403 61
3 5404 103
3 5405 151
3 5406 53
3 5407 146
3 5408 66
3 5409 80
3 5410 67
3 5411 52
3 5412 64
3 5413 61
3 5414 110
3 5415 8
3 5416 51
3 5417 89
3 5418 22
3 5419 1
3 5420 107
3 5421 75
3 5422 60
3 5423 92
3 5424 16
3 5425 82
3 5426 48
3 5427 95
3 5428 52
3 5429 28
3 5430 139
3 5431 75
3 5432 138
3 5433 64
3 5434 76
3 5435 54
3 5436 42
3 5437 75
3 5438 59
3 5439 69
3 5440 75
3 5441 70
3 5442 69
3 5443 117
3 5444 61
3 5445 58
3 5446 82
3 5447 59
3 5448 116
3 5449 52
3 5450 52
3 5451 89
3 5452 72
3 5453 342
3 5454 16
3 5455 211
3 5456 80
3 5457 104
3 5458 69
3 5459 66
3 5460 83
3 5461 84
3 5462 267
3 5463 58
3 5464 86
3 5465 89
3 5466 134
3 5467 26
3 5468 67
3 5469 106
3 5470 84
3 5471 89
3 5472 79
3 5473 66
3 5474 75
3 5475 84
3 5476 69
3 5477 91
3 5478 110
3 5479 123
3 5480 48
3 5481 68
3 5482 43
3 5483 83
3 5484 55
3 5485 103
3 5486 76
3 5487 41
3 5488 122
3 5489 32
3 5490 126
3 5491 96
3 5492 31
3 5493 79
3 5494 57
3 5495 137
3 5496 108
3 5497 97
3 5498 78
3 5499 111
3 5500 65
3 5501 34
3 5502 88
3 5503 47
3 5504 57
3 5505 33
3 5506 62
3 5507 78
3 5508 70
3 5509 511
3 5510 43
3 5511 39
3 5512 61
3 5513 44
3 5514 43
3 5515 118
3 5516 20
3 5517 67
3 5518 39
3 5519 119
3 5520 102
3 5521 47
3 5522 57
3 5523 102
3 5524 30
3 5525 163
3 5526 45
3 5527 59
3 5528 46
3 5529 177
3 5530 84
3 5531 51
3 5532 71
3 5533 106
3 5534 55
3 5535 61
3 5536 56
3 5537 76
3 5538 66
3 5539 76
3 5540 94
3 5541 39
3 5542 100
3 5543 66
3 5544 132
3 5545 23
3 5546 27
3 5547 99
3 5548 30
3 5549 45
3 5550 91
3 5551 12
3 5552 55
3 5553 97
3 5554 94
3 5555 41
3 5556 5
3 5557 97
3 5558 77
3 5559 55
3 5560 64
3 5561 111
3 5562 328
3 5563 66
3 5564 79
3 5565 113
3 5566 6
3 5567 75
3 5568 67
3 5569 68
3 5570 74
3 5571 56
3 5572 106
3 5573 45
3 5574 123
3 5575 88
3 5576 70
3 5577 66
3 5578 99
3 5579 192
3 5580 110
3 5581 72
3 5582 51
3 5583 90
3 5584 95
3 5585 105
3 5586 57
3 5587 65
3 5588 63
3 5589 129
3 5590 56
3 5591 87
3 5592 60
3 5593 47
3 5594 61
3 5595 145
3 5596 48
3 5597 88
3 5598 47
3 5599 75
3 5600 59
3 5601 103
3 5602 36
3 5603 48
3 5604 58
3 5605 71
3 5606 85
3 5607 30
3 5608 29
3 5609 31
3 5610 94
3 5611 47
3 5612 64
3 5613 109
3 5614 57
3 5615 151
3 5616 11
3 5617 144
3 5618 30
3 5619 44
3 5620 50
3 5621 89
3 5622 50
3 5623 62
3 5624 54
3 5625 54
3 5626 76
3 5627 64
3 5628 106
3 5629 109
3 5630 105
3 5631 77
3 5632 149
3 5633 49
3 5634 105
3 5635 74
3 5636 54
3 5637 54
3 5638 86
3 5639 119
3 5640 18
3 5641 103
3 5642 172
3 5643 59
3 5644 59
3 5645 78
3 5646 449
3 5647 70
3 5648 48
3 5649 84
3 5650 102
3 5651 103
3 5652 67
3 5653 22
3 5654 52
3 5655 39
3 5656 53
3 5657 47
3 5658 23
3 5659 65
3 5660 30
3 5661 35
3 5662 157
3 5663 72
3 5664 53
3 5665 99
3 5666 200
3 5667 9
3 5668 35
3 5669 10
3 5670 28
3 5671 55
3 5672 14
3 5673 62
3 5674 39
3 5675 61
3 5676 86
3 5677 65
3 5678 11
3 5679 17
3 5680 65
3 5681 23
3 5682 25
3 5683 62
3 5684 59
3 5685 10
3 5686 23
3 5687 59
3 5688 63
3 5689 53
3 5690 34
3 5691 21
3 5692 32
3 5693 20
3 5694 8
3 5695 15
3 5696 44
3 5697 59
3 5698 76
3 5699 47
3 5700 94
3 5701 91
3 5702 40
3 5703 105
3 5704 12
3 5705 22
3 5706 39
3 5707 8
3 5708 29
3 5709 12
3 5710 13
3 5711 5
3 5712 3
3 5713 41
3 5714 1
3 5715 3
3 5716 5
4 1 371
4 2 578
4 3 283
4 4 278
4 5 102
4 6 171
4 7 192
4 8 386
4 9 148
4 10 10633
4 11 2207
4 12 139
4 13 298
4 14 176
4 15 103
4 16 66
4 17 205
4 18 228
4 19 95
4 20 155
4 21 145
4 22 324
4 23 283
4 24 182
4 25 304
4 26 220
4 27 133
4 28 4484
4 29 130
4 30 2831
4 31 171
4 32 96
4 33 332
4 34 215
4 35 66
4 36 228
4 37 231
4 38 177
4 39 186
4 40 97
4 41 162
4 42 477
4 43 151
4 44 221
4 45 44
4 46 316
4 47 166
4 48 215
4 49 224
4 50 84
4 51 176
4 52 254
4 53 133
4 54 81
4 55 358
4 56 283
4 57 175
4 58 173
4 59 275
4 60 267
4 61 213
4 62 235
4 63 324
4 64 273
4 65 174
4 66 167
4 67 115
4 68 232
4 69 179
4 70 238
4 71 292
4 72 204
4 73 199
4 74 233
4 75 223
4 76 5891
4 77 282
4 78 126
4 79 457
4 80 139
4 81 396
4 82 112
4 83 235
4 84 194
4 85 327
4 86 112
4 87 181
4 88 200
4 89 220
4 90 285
4 91 164
4 92 161
4 93 229
4 94 120
4 95 151
4 96 492
4 97 222
4 98 247
4 99 148
4 100 156
4 101 289
4 102 89
4 103 214
4 104 153
4 105 340
4 106 88
4 107 226
4 108 230
4 109 213
4 110 125
4 111 3432
4 112 93
4 113 144
4 114 5420
4 115 271
4 116 70
4 117 119
4 118 162
4 119 295
4 120 356
4 121 152
4 122 192
4 123 97
4 124 238
4 125 248
4 126 45
4 127 169
4 128 197
4 129 220
4 130 226
4 131 141
4 132 140
4 133 385
4 134 81
4 135 541
4 136 110
4 137 223
4 138 291
4 139 372
4 140 376
4 141 242
4 142 157
4 143 274
4 144 281
4 145 110
4 146 130
4 147 318
4 148 156
4 149 252
4 150 136
4 151 94
4 152 430
4 153 179
4 154 335
4 155 204
4 156 225
4 157 86
4 158 216
4 159 449
4 160 346
4 161 314
4 162 177
4 163 195
4 164 200
4 165 259
4 166 286
4 167 322
4 168 92
4 169 100
4 170 214
4 171 209
4 172 375
4 173 190
4 174 241
4 175 237
4 176 340
4 177 64
4 178 171
4 179 96
4 180 233
4 181 139
4 182 268
4 183 215
4 184 151
4 185 196
4 186 144
4 187 198
4 188 232
4 189 186
4 190 164
4 191 189
4 192 12388
4 193 126
4 194 83891
4 195 81
4 196 225
4 197 3245
4 198 154
4 199 96
4 200 77076
4 201 5167
4 202 161
4 203 99
4 204 171
4 205 245
4 206 159
4 207 265
4 208 28
4 209 249
4 210 146
4 211 260
4 212 169
4 213 302
4 214 126
4 215 449
4 216 349
4 217 215
4 218 106
4 219 190
4 220 106
4 221 188
4 222 171
4 223 226
4 224 160
4 225 196
4 226 167
4 227 204
4 228 155
4 229 187
4 230 139
4 231 96
4 232 253
4 233 181
4 234 119
4 235 80
4 236 172
4 237 119
4 238 181
4 239 337
4 240 218
4 241 72
4 242 171
4 243 480
4 244 225
4 245 151
4 246 206
4 247 180
4 248 212
4 249 290
4 250 386
4 251 66
4 252 87
4 253 91
4 254 1996
4 255 145
4 256 214
4 257 347
4 258 93
4 259 1576
4 260 205
4 261 94
4 262 213
4 263 138
4 264 228
4 265 239
4 266 70
4 267 72
4 268 299
4 269 402
4 270 154
4 271 214
4 272 209
4 273 103
4 274 229
4 275 88
4 276 417
4 277 325
4 278 153
4 279 221
4 280 128
4 281 215
4 282 122
4 283 237
4 284 190
4 285 192
4 286 131
4 287 222
4 288 208
4 289 18
4 290 144
4 291 254
4 292 229
4 293 257
4 294 206
4 295 8753
4 296 216
4 297 437
4 298 139
4 299 135
4 300 179
4 301 243
4 302 134
4 303 227
4 304 220
4 305 21
4 306 265
4 307 74623
4 308 120
4 309 82
4 310 234
4 311 220
4 312 46
4 313 139
4 314 184
4 315 188
4 316 147
4 317 197
4 318 230
4 319 143
4 320 103
4 321 145
4 322 151
4 323 129
4 324 226
4 325 195
4 326 125
4 327 297
4 328 199
4 329 264
4 330 279
4 331 234
4 332 122
4 333 249
4 334 61
4 335 147
4 336 94
4 337 143
4 338 144
4 339 116
4 340 135
4 341 136
4 342 110
4 343 121
4 344 159
4 345 43127
4 346 114
4 347 2827
4 348 7637
4 349 233
4 350 221
4 351 139
4 352 204
4 353 251
4 354 98
4 355 68
4 356 221
4 357 144
4 358 171
4 359 344
4 360 219
4 361 224
4 362 328
4 363 256
4 364 82
4 365 102
4 366 100
4 367 195
4 368 94
4 369 131
4 370 154
4 371 127
4 372 81
4 373 220
4 374 167
4 375 122
4 376 234
4 377 136
4 378 295
4 379 320
4 380 136
4 381 101
4 382 219
4 383 183
4 384 82
4 385 131
4 386 155
4 387 241
4 388 176
4 389 201
4 390 5541
4 391 114
4 392 242
4 393 205
4 394 249
4 395 219
4 396 360
4 397 126
4 398 201
4 399 173
4 400 177
4 401 154
4 402 133
4 403 374
4 404 125
4 405 163
4 406 170
4 407 141
4 408 243
4 409 235
4 410 158
4 411 212
4 412 171
4 413 225
4 414 159
4 415 230
4 416 126
4 417 104
4 418 125
4 419 149
4 420 124
4 421 90
4 422 146
4 423 114
4 424 164
4 425 165
4 426 195
4 427 196
4 428 207
4 429 236
4 430 249
4 431 144
4 432 232
4 433 120
4 434 149
4 435 260
4 436 201
4 437 112
4 438 97
4 439 104
4 440 205
4 441 337
4 442 316
4 443 189
4 444 132
4 445 175
4 446 203
4 447 224
4 448 224
4 449 236
4 450 213
4 451 118
4 452 297
4 453 6120
4 454 257
4 455 134
4 456 210
4 457 172
4 458 9315
4 459 112
4 460 279
4 461 182
4 462 3047
4 463 140
4 464 119
4 465 181
4 466 10919
4 467 107
4 468 184
4 469 182
4 470 240
4 471 109
4 472 156
4 473 198
4 474 128
4 475 172
4 476 144
4 477 75
4 478 257
4 479 127
4 480 232
4 481 178
4 482 202
4 483 213
4 484 173
4 485 175
4 486 171
4 487 204
4 488 118
4 489 247
4 490 181
4 491 219
4 492 104
4 493 133
4 494 163
4 495 271
4 496 114
4 497 142
4 498 64
4 499 167
4 500 190
4 501 211
4 502 126
4 503 118
4 504 101
4 505 103
4 506 321
4 507 102
4 508 324
4 509 103
4 510 182
4 511 89
4 512 125
4 513 254
4 514 235
4 515 334
4 516 203
4 517 214
4 518 228
4 519 151
4 520 195
4 521 3500
4 522 275
4 523 127
4 524 166
4 525 242
4 526 193
4 527 212
4 528 192
4 529 178
4 530 176
4 531 191
4 532 77
4 533 192
4 534 284
4 535 182
4 536 165
4 537 251
4 538 115
4 539 140
4 540 92
4 541 180
4 542 132
4 543 239
4 544 181
4 545 398
4 546 181
4 547 165
4 548 173
4 549 120
4 550 97
4 551 15933
4 552 319
4 553 296
4 554 149
4 555 108
4 556 125
4 557 2792
4 558 327
4 559 113
4 560 266
4 561 130
4 562 154
4 563 213
4 564 82
4 565 185
4 566 177
4 567 169
4 568 94
4 569 173
4 570 213
4 571 123
4 572 127
4 573 173
4 574 215
4 575 254
4 576 176
4 577 336
4 578 232
4 579 193
4 580 36761
4 581 141
4 582 76
4 583 154
4 584 210
4 585 152
4 586 92
4 587 104
4 588 118
4 589 179
4 590 152
4 591 143
4 592 132
4 593 107
4 594 91
4 595 153
4 596 110
4 597 189
4 598 94
4 599 215
4 600 112
4 601 73
4 602 3256
4 603 4884
4 604 145
4 605 134
4 606 216
4 607 111
4 608 89
4 609 148
4 610 270
4 611 357
4 612 315
4 613 50
4 614 184
4 615 224
4 616 97
4 617 5812
4 618 158
4 619 168
4 620 110
4 621 141
4 622 19674
4 623 154
4 624 163
4 625 301
4 626 211
4 627 325
4 628 229
4 629 188
4 630 130
4 631 131
4 632 343
4 633 148
4 634 127
4 635 209
4 636 205
4 637 124
4 638 110
4 639 112
4 640 147
4 641 202
4 642 153
4 643 251
4 644 246
4 645 176
4 646 150
4 647 187
4 648 79
4 649 100
4 650 155
4 651 203
4 652 395
4 653 119
4 654 9705
4 655 106
4 656 110
4 657 186
4 658 305
4 659 366
4 660 35
4 661 163
4 662 173
4 663 249
4 664 1837
4 665 54
4 666 206
4 667 157
4 668 292
4 669 168
4 670 137
4 671 168
4 672 249
4 673 144
4 674 85
4 675 95
4 676 79
4 677 180
4 678 130
4 679 204
4 680 261
4 681 52
4 682 251
4 683 196
4 684 2937
4 685 251
4 686 94
4 687 281
4 688 192
4 689 13165
4 690 7193
4 691 155
4 692 163
4 693 187
4 694 264
4 695 171
4 696 146
4 697 154
4 698 105
4 699 222
4 700 170
4 701 210
4 702 100
4 703 15029
4 704 168
4 705 60
4 706 85
4 707 161
4 708 158
4 709 216
4 710 107
4 711 315
4 712 196
4 713 174
4 714 310
4 715 219
4 716 256
4 717 104
4 718 109
4 719 249
4 720 177
4 721 127
4 722 220
4 723 139
4 724 227
4 725 255
4 726 172
4 727 265
4 728 276
4 729 136
4 730 77
4 731 1839
4 732 1204
4 733 191
4 734 125
4 735 287
4 736 78
4 737 220
4 738 70
4 739 190
4 740 220
4 741 313
4 742 115
4 743 155
4 744 243
4 745 196
4 746 80
4 747 275
4 748 102
4 749 83
4 750 198
4 751 158
4 752 96
4 753 125
4 754 152
4 755 85
4 756 8110
4 757 254
4 758 179
4 759 182
4 760 86
4 761 38
4 762 236
4 763 100
4 764 165
4 765 42
4 766 197
4 767 139
4 768 291
4 769 189
4 770 220
4 771 155
4 772 117
4 773 165
4 774 191
4 775 117
4 776 198
4 777 178
4 778 168
4 779 329
4 780 176
4 781 1565
4 782 316
4 783 210
4 784 237
4 785 95
4 786 145
4 787 198
4 788 271
4 789 246
4 790 127
4 791 200
4 792 221
4 793 132
4 794 220
4 795 194
4 796 111
4 797 129
4 798 178
4 799 149
4 800 77
4 801 114
4 802 176
4 803 127
4 804 220
4 805 101
4 806 245
4 807 117
4 808 209
4 809 138
4 810 189
4 811 179
4 812 116
4 813 123
4 814 75
4 815 133
4 816 6370
4 817 194
4 818 212
4 819 231
4 820 182
4 821 277
4 822 74
4 823 114
4 824 223
4 825 143
4 826 268
4 827 80
4 828 237
4 829 173
4 830 264
4 831 228
4 832 98
4 833 149
4 834 173
4 835 139
4 836 152
4 837 197
4 838 126
4 839 213
4 840 95
4 841 237
4 842 124
4 843 160
4 844 187
4 845 108
4 846 97
4 847 7766
4 848 225
4 849 214
4 850 211
4 851 204
4 852 129
4 853 101
4 854 99
4 855 155
4 856 321
4 857 199
4 858 222
4 859 190
4 860 259
4 861 143
4 862 66
4 863 210
4 864 229
4 865 111
4 866 96
4 867 82
4 868 132
4 869 168
4 870 257
4 871 150
4 872 176
4 873 46
4 874 187
4 875 137
4 876 2137
4 877 132
4 878 194
4 879 157
4 880 232
4 881 118
4 882 124
4 883 114
4 884 168
4 885 201
4 886 199
4 887 151
4 888 7005
4 889 171
4 890 135
4 891 74
4 892 206
4 893 145
4 894 168
4 895 174
4 896 182
4 897 153
4 898 136
4 899 178
4 900 217
4 901 204
4 902 222
4 903 169
4 904 121
4 905 171
4 906 230
4 907 196
4 908 3756
4 909 596
4 910 10720
4 911 244
4 912 207
4 913 76
4 914 303
4 915 9766
4 916 2859
4 917 153
4 918 123
4 919 197
4 920 261
4 921 309
4 922 122
4 923 170
4 924 257
4 925 74
4 926 158
4 927 162
4 928 174
4 929 87
4 930 107
4 931 166
4 932 171
4 933 192
4 934 13496
4 935 246
4 936 166
4 937 123
4 938 127
4 939 131
4 940 211
4 941 118
4 942 357
4 943 3954
4 944 331
4 945 2038
4 946 3357
4 947 190
4 948 214
4 949 4593
4 950 150
4 951 272
4 952 119
4 953 102
4 954 85
4 955 305
4 956 147
4 957 135
4 958 149
4 959 136
4 960 101
4 961 153
4 962 82
4 963 214
4 964 134
4 965 151
4 966 337
4 967 208
4 968 153
4 969 112
4 970 288
4 971 3983
4 972 231
4 973 270
4 974 209
4 975 302
4 976 89
4 977 67
4 978 151
4 979 126
4 980 197
4 981 153
4 982 393
4 983 179
4 984 72
4 985 163
4 986 209
4 987 119
4 988 104
4 989 111
4 990 52
4 991 198
4 992 184
4 993 145
4 994 242
4 995 133
4 996 171
4 997 60
4 998 124
4 999 168
4 1000 1142
4 1001 92
4 1002 274
4 1003 157
4 1004 82
4 1005 85
4 1006 115
4 1007 326
4 1008 157
4 1009 213
4 1010 155
4 1011 267
4 1012 198
4 1013 129
4 1014 251
4 1015 169
4 1016 294
4 1017 162
4 1018 100
4 1019 226
4 1020 116
4 1021 103
4 1022 204
4 1023 247
4 1024 205
4 1025 111
4 1026 224
4 1027 116
4 1028 173
4 1029 231
4 1030 273
4 1031 184
4 1032 90
4 1033 9035
4 1034 226
4 1035 199
4 1036 95
4 1037 224
4 1038 180
4 1039 228
4 1040 68
4 1041 329
4 1042 210
4 1043 181
4 1044 223
4 1045 224
4 1046 105
4 1047 186
4 1048 111
4 1049 109
4 1050 297
4 1051 158
4 1052 217
4 1053 150
4 1054 290
4 1055 1492
4 1056 143
4 1057 122
4 1058 135
4 1059 240
4 1060 85
4 1061 235
4 1062 186
4 1063 194
4 1064 89
4 1065 235
4 1066 230
4 1067 192
4 1068 145
4 1069 331
4 1070 99
4 1071 76
4 1072 81
4 1073 79
4 1074 110
4 1075 215
4 1076 153
4 1077 269
4 1078 155
4 1079 161
4 1080 144
4 1081 2518
4 1082 146
4 1083 153
4 1084 83
4 1085 4235
4 1086 198
4 1087 210
4 1088 129
4 1089 174
4 1090 2110
4 1091 290
4 1092 159
4 1093 301
4 1094 130
4 1095 136
4 1096 172
4 1097 162
4 1098 104
4 1099 204
4 1100 82
4 1101 247
4 1102 84
4 1103 156
4 1104 132
4 1105 195
4 1106 139
4 1107 172
4 1108 132
4 1109 5296
4 1110 150
4 1111 114
4 1112 139
4 1113 136
4 1114 188
4 1115 183
4 1116 202
4 1117 146
4 1118 156
4 1119 4415
4 1120 188
4 1121 185
4 1122 97
4 1123 297
4 1124 163
4 1125 180
4 1126 74
4 1127 170
4 1128 175
4 1129 173
4 1130 221
4 1131 282
4 1132 136
4 1133 222
4 1134 159
4 1135 262
4 1136 164
4 1137 125
4 1138 428
4 1139 151
4 1140 103
4 1141 134
4 1142 118
4 1143 202
4 1144 1866
4 1145 227
4 1146 177
4 1147 203
4 1148 182
4 1149 307
4 1150 245
4 1151 128
4 1152 169
4 1153 111
4 1154 155
4 1155 650
4 1156 140
4 1157 115
4 1158 184
4 1159 78
4 1160 189
4 1161 176
4 1162 1117
4 1163 154
4 1164 180
4 1165 213
4 1166 192
4 1167 97
4 1168 146
4 1169 178
4 1170 180
4 1171 275
4 1172 75
4 1173 158
4 1174 123
4 1175 237
4 1176 96
4 1177 159
4 1178 119
4 1179 95
4 1180 165
4 1181 134
4 1182 212
4 1183 108
4 1184 184
4 1185 100
4 1186 171
4 1187 585
4 1188 124
4 1189 135
4 1190 140
4 1191 80
4 1192 247
4 1193 112
4 1194 56
4 1195 188
4 1196 198
4 1197 126
4 1198 6177
4 1199 198
4 1200 6188
4 1201 103
4 1202 142
4 1203 154
4 1204 116
4 1205 153
4 1206 164
4 1207 132
4 1208 110
4 1209 2690
4 1210 137
4 1211 198
4 1212 276
4 1213 123
4 1214 158
4 1215 151
4 1216 231
4 1217 329
4 1218 229
4 1219 139
4 1220 269
4 1221 143
4 1222 186
4 1223 90
4 1224 173
4 1225 149
4 1226 81
4 1227 130
4 1228 198
4 1229 128
4 1230 161
4 1231 197
4 1232 144
4 1233 119
4 1234 225
4 1235 173
4 1236 246
4 1237 118
4 1238 305
4 1239 184
4 1240 259
4 1241 168
4 1242 1702
4 1243 107
4 1244 175
4 1245 117
4 1246 207
4 1247 160
4 1248 72
4 1249 152
4 1250 429
4 1251 219
4 1252 173
4 1253 174
4 1254 251
4 1255 127
4 1256 78
4 1257 105
4 1258 181
4 1259 150
4 1260 32552
4 1261 185
4 1262 892
4 1263 315
4 1264 83
4 1265 115
4 1266 133
4 1267 5889
4 1268 233
4 1269 204
4 1270 165
4 1271 72
4 1272 138
4 1273 135
4 1274 236
4 1275 120
4 1276 128
4 1277 98
4 1278 112
4 1279 190
4 1280 284
4 1281 37
4 1282 135
4 1283 100
4 1284 155
4 1285 148
4 1286 260
4 1287 4764
4 1288 158
4 1289 180
4 1290 217
4 1291 149
4 1292 102
4 1293 228
4 1294 69
4 1295 99
4 1296 120
4 1297 60
4 1298 219
4 1299 344
4 1300 284
4 1301 188
4 1302 241
4 1303 84
4 1304 95
4 1305 201
4 1306 127
4 1307 153
4 1308 139
4 1309 226
4 1310 236
4 1311 133
4 1312 124
4 1313 99
4 1314 144
4 1315 141
4 1316 99
4 1317 283
4 1318 185
4 1319 149
4 1320 147
4 1321 227
4 1322 165
4 1323 4683
4 1324 223
4 1325 7539
4 1326 192
4 1327 173
4 1328 198
4 1329 125
4 1330 114
4 1331 176
4 1332 86
4 1333 194
4 1334 150
4 1335 214
4 1336 135
4 1337 188
4 1338 216
4 1339 74
4 1340 230
4 1341 273
4 1342 202
4 1343 287
4 1344 199
4 1345 102
4 1346 197
4 1347 180
4 1348 57
4 1349 159
4 1350 227
4 1351 160
4 1352 84
4 1353 160
4 1354 161
4 1355 210
4 1356 162
4 1357 148
4 1358 221
4 1359 168
4 1360 2720
4 1361 76
4 1362 165
4 1363 139
4 1364 48
4 1365 163
4 1366 99
4 1367 209
4 1368 116
4 1369 211
4 1370 140
4 1371 3189
4 1372 3009
4 1373 65
4 1374 228
4 1375 163
4 1376 117
4 1377 174
4 1378 130
4 1379 143
4 1380 161
4 1381 268
4 1382 221
4 1383 355
4 1384 123
4 1385 144
4 1386 96
4 1387 144
4 1388 147
4 1389 197
4 1390 95
4 1391 101
4 1392 217
4 1393 115
4 1394 15091
4 1395 154
4 1396 156
4 1397 76
4 1398 86
4 1399 1361
4 1400 211
4 1401 264
4 1402 72
4 1403 161
4 1404 111
4 1405 153
4 1406 206
4 1407 154
4 1408 177
4 1409 181
4 1410 146
4 1411 271
4 1412 70
4 1413 162
4 1414 192
4 1415 154
4 1416 160
4 1417 146
4 1418 54
4 1419 235
4 1420 159
4 1421 81
4 1422 213
4 1423 115
4 1424 179
4 1425 216
4 1426 2466
4 1427 228
4 1428 1589
4 1429 133
4 1430 138
4 1431 230
4 1432 143
4 1433 155
4 1434 97
4 1435 240
4 1436 158
4 1437 4183
4 1438 111
4 1439 89
4 1440 184
4 1441 124
4 1442 277
4 1443 76
4 1444 132
4 1445 199
4 1446 4719
4 1447 215
4 1448 79
4 1449 134
4 1450 734
4 1451 127
4 1452 131
4 1453 488
4 1454 155
4 1455 109
4 1456 142
4 1457 230
4 1458 103
4 1459 240
4 1460 102
4 1461 62
4 1462 191
4 1463 131
4 1464 136
4 1465 313
4 1466 93
4 1467 188
4 1468 184
4 1469 11
4 1470 185
4 1471 135
4 1472 194
4 1473 136
4 1474 4053
4 1475 285
4 1476 151
4 1477 93
4 1478 111
4 1479 252
4 1480 258
4 1481 109
4 1482 203
4 1483 126
4 1484 152
4 1485 169
4 1486 216
4 1487 111
4 1488 273
4 1489 140
4 1490 189
4 1491 157
4 1492 138
4 1493 187
4 1494 308
4 1495 232
4 1496 1275
4 1497 160
4 1498 107
4 1499 112
4 1500 111
4 1501 142
4 1502 88
4 1503 235
4 1504 195
4 1505 210
4 1506 101
4 1507 85
4 1508 104
4 1509 136
4 1510 98
4 1511 144
4 1512 195
4 1513 207
4 1514 159
4 1515 213
4 1516 155
4 1517 121
4 1518 193
4 1519 209
4 1520 218
4 1521 128
4 1522 201
4 1523 158
4 1524 243
4 1525 235
4 1526 162
4 1527 141
4 1528 194
4 1529 138
4 1530 234
4 1531 556
4 1532 146
4 1533 166
4 1534 217
4 1535 185
4 1536 106
4 1537 78
4 1538 118
4 1539 49
4 1540 237
4 1541 139
4 1542 249
4 1543 12521
4 1544 117
4 1545 112
4 1546 127
4 1547 159
4 1548 104
4 1549 99
4 1550 137
4 1551 249
4 1552 85
4 1553 74
4 1554 92
4 1555 130
4 1556 61
4 1557 102
4 1558 283
4 1559 171
4 1560 100
4 1561 162
4 1562 156
4 1563 193
4 1564 161
4 1565 208
4 1566 177
4 1567 187
4 1568 145
4 1569 163
4 1570 230
4 1571 282
4 1572 205
4 1573 191
4 1574 112
4 1575 185
4 1576 168
4 1577 250
4 1578 153
4 1579 159
4 1580 94
4 1581 112
4 1582 128
4 1583 170
4 1584 8148
4 1585 187
4 1586 93
4 1587 225
4 1588 138
4 1589 247
4 1590 142
4 1591 148
4 1592 172
4 1593 206
4 1594 111
4 1595 119
4 1596 123
4 1597 116
4 1598 34
4 1599 228
4 1600 150
4 1601 65
4 1602 152
4 1603 199
4 1604 120
4 1605 154
4 1606 178
4 1607 111
4 1608 228
4 1609 174
4 1610 127
4 1611 206
4 1612 4856
4 1613 176
4 1614 178
4 1615 113
4 1616 156
4 1617 223
4 1618 205
4 1619 167
4 1620 164
4 1621 175
4 1622 167
4 1623 257
4 1624 206
4 1625 93
4 1626 218
4 1627 275
4 1628 995
4 1629 235
4 1630 158
4 1631 128
4 1632 174
4 1633 86
4 1634 150
4 1635 133
4 1636 214
4 1637 138
4 1638 195
4 1639 200
4 1640 265
4 1641 79
4 1642 148
4 1643 154
4 1644 79
4 1645 191
4 1646 200
4 1647 174
4 1648 150
4 1649 102
4 1650 124
4 1651 62
4 1652 216
4 1653 1620
4 1654 130
4 1655 270
4 1656 123
4 1657 80
4 1658 87
4 1659 229
4 1660 200
4 1661 171
4 1662 10251
4 1663 230
4 1664 246
4 1665 273
4 1666 125
4 1667 143
4 1668 286
4 1669 164
4 1670 87
4 1671 110
4 1672 242
4 1673 95
4 1674 156
4 1675 148
4 1676 177
4 1677 78
4 1678 65
4 1679 269
4 1680 85
4 1681 140
4 1682 134
4 1683 89
4 1684 5034
4 1685 127
4 1686 3499
4 1687 96
4 1688 182
4 1689 127
4 1690 87
4 1691 113
4 1692 120
4 1693 161
4 1694 126
4 1695 198
4 1696 110
4 1697 251
4 1698 138
4 1699 87
4 1700 189
4 1701 162
4 1702 138
4 1703 67
4 1704 100
4 1705 61
4 1706 173
4 1707 100
4 1708 121
4 1709 160
4 1710 169
4 1711 50
4 1712 248
4 1713 158
4 1714 111
4 1715 93
4 1716 118
4 1717 104
4 1718 117
4 1719 173
4 1720 183
4 1721 156
4 1722 115
4 1723 60
4 1724 238
4 1725 150
4 1726 151
4 1727 106
4 1728 179
4 1729 5397
4 1730 118
4 1731 99
4 1732 149
4 1733 122
4 1734 108
4 1735 318
4 1736 127
4 1737 138
4 1738 201
4 1739 142
4 1740 252
4 1741 150
4 1742 149
4 1743 964
4 1744 87
4 1745 130
4 1746 99
4 1747 132
4 1748 86
4 1749 189
4 1750 140
4 1751 73
4 1752 136
4 1753 214
4 1754 419
4 1755 106
4 1756 135
4 1757 204
4 1758 85
4 1759 102
4 1760 141
4 1761 314
4 1762 251
4 1763 213
4 1764 98
4 1765 133
4 1766 2511
4 1767 86
4 1768 143
4 1769 92
4 1770 190
4 1771 104
4 1772 150
4 1773 93
4 1774 99
4 1775 141
4 1776 145
4 1777 183
4 1778 247
4 1779 226
4 1780 90
4 1781 150
4 1782 161
4 1783 146
4 1784 107
4 1785 63
4 1786 205
4 1787 155
4 1788 79
4 1789 271
4 1790 266
4 1791 95
4 1792 156
4 1793 141
4 1794 144
4 1795 135
4 1796 72
4 1797 308
4 1798 126
4 1799 84
4 1800 220
4 1801 120
4 1802 92
4 1803 140
4 1804 168
4 1805 79
4 1806 160
4 1807 71
4 1808 91
4 1809 165
4 1810 101
4 1811 112
4 1812 73
4 1813 103
4 1814 192
4 1815 228
4 1816 173
4 1817 93
4 1818 799
4 1819 209
4 1820 204
4 1821 148
4 1822 125
4 1823 145
4 1824 121
4 1825 163
4 1826 401
4 1827 100
4 1828 85
4 1829 236
4 1830 335
4 1831 9046
4 1832 94
4 1833 139
4 1834 102
4 1835 90
4 1836 84
4 1837 280
4 1838 65
4 1839 161
4 1840 106
4 1841 160
4 1842 106
4 1843 205
4 1844 262
4 1845 170
4 1846 172
4 1847 191
4 1848 137
4 1849 91
4 1850 105
4 1851 145
4 1852 131
4 1853 124
4 1854 218
4 1855 84
4 1856 208
4 1857 179
4 1858 4598
4 1859 212
4 1860 175
4 1861 116
4 1862 131
4 1863 111
4 1864 124
4 1865 3100
4 1866 184
4 1867 147
4 1868 117
4 1869 141
4 1870 102
4 1871 138
4 1872 985
4 1873 106
4 1874 140
4 1875 138
4 1876 79
4 1877 173
4 1878 53
4 1879 77
4 1880 133
4 1881 2291
4 1882 42
4 1883 167
4 1884 123
4 1885 179
4 1886 123
4 1887 90
4 1888 100
4 1889 81
4 1890 147
4 1891 272
4 1892 180
4 1893 128
4 1894 67
4 1895 86
4 1896 139
4 1897 184
4 1898 162
4 1899 76
4 1900 169
4 1901 174
4 1902 183
4 1903 136
4 1904 224
4 1905 102
4 1906 154
4 1907 152
4 1908 138
4 1909 145
4 1910 238
4 1911 194
4 1912 101
4 1913 171
4 1914 98
4 1915 84
4 1916 99
4 1917 218
4 1918 114
4 1919 4759
4 1920 131
4 1921 6135
4 1922 122
4 1923 66
4 1924 133
4 1925 189
4 1926 99
4 1927 111
4 1928 121
4 1929 51
4 1930 158
4 1931 166
4 1932 144
4 1933 150
4 1934 168
4 1935 2826
4 1936 140
4 1937 209
4 1938 162
4 1939 133
4 1940 225
4 1941 145
4 1942 169
4 1943 67
4 1944 66
4 1945 246
4 1946 180
4 1947 260
4 1948 139
4 1949 298
4 1950 105
4 1951 206
4 1952 187
4 1953 129
4 1954 170
4 1955 2397
4 1956 132
4 1957 104
4 1958 133
4 1959 1247
4 1960 157
4 1961 101
4 1962 98
4 1963 101
4 1964 114
4 1965 276
4 1966 92
4 1967 120
4 1968 195
4 1969 232
4 1970 140
4 1971 169
4 1972 98
4 1973 54
4 1974 161
4 1975 111
4 1976 98
4 1977 130
4 1978 212
4 1979 163
4 1980 215
4 1981 173
4 1982 177
4 1983 183
4 1984 106
4 1985 161
4 1986 130
4 1987 1774
4 1988 153
4 1989 147
4 1990 102
4 1991 164
4 1992 322
4 1993 162
4 1994 219
4 1995 145
4 1996 125
4 1997 122
4 1998 135
4 1999 151
4 2000 137
4 2001 2499
4 2002 241
4 2003 158
4 2004 79
4 2005 166
4 2006 142
4 2007 90
4 2008 78
4 2009 97
4 2010 69
4 2011 166
4 2012 101
4 2013 571
4 2014 85
4 2015 291
4 2016 117
4 2017 132
4 2018 1738
4 2019 247
4 2020 133
4 2021 131
4 2022 132
4 2023 151
4 2024 67
4 2025 247
4 2026 263
4 2027 207
4 2028 128
4 2029 84
4 2030 155
4 2031 76
4 2032 6108
4 2033 447
4 2034 53
4 2035 375
4 2036 6258
4 2037 108
4 2038 152
4 2039 97
4 2040 175
4 2041 199
4 2042 294
4 2043 105
4 2044 198
4 2045 141
4 2046 103
4 2047 159
4 2048 159
4 2049 220
4 2050 2935
4 2051 172
4 2052 127
4 2053 139
4 2054 140
4 2055 41
4 2056 181
4 2057 260
4 2058 95
4 2059 60
4 2060 128
4 2061 103
4 2062 122
4 2063 510
4 2064 77
4 2065 108
4 2066 125
4 2067 103
4 2068 160
4 2069 114
4 2070 156
4 2071 154
4 2072 333
4 2073 152
4 2074 99
4 2075 125
4 2076 76
4 2077 181
4 2078 112
4 2079 63
4 2080 142
4 2081 134
4 2082 126
4 2083 57
4 2084 189
4 2085 89
4 2086 219
4 2087 180
4 2088 108
4 2089 114
4 2090 100
4 2091 94
4 2092 112
4 2093 174
4 2094 175
4 2095 11
4 2096 568
4 2097 159
4 2098 173
4 2099 2264
4 2100 261
4 2101 77
4 2102 224
4 2103 204
4 2104 53
4 2105 234
4 2106 236
4 2107 180
4 2108 142
4 2109 97
4 2110 97
4 2111 79
4 2112 228
4 2113 175
4 2114 126
4 2115 88
4 2116 169
4 2117 108
4 2118 106
4 2119 205
4 2120 218
4 2121 131
4 2122 78
4 2123 150
4 2124 258
4 2125 102
4 2126 202
4 2127 185
4 2128 755
4 2129 165
4 2130 1596
4 2131 123
4 2132 138
4 2133 164
4 2134 110
4 2135 147
4 2136 138
4 2137 94
4 2138 132
4 2139 453
4 2140 135
4 2141 151
4 2142 150
4 2143 179
4 2144 3468
4 2145 213
4 2146 112
4 2147 165
4 2148 162
4 2149 186
4 2150 138
4 2151 86
4 2152 2159
4 2153 170
4 2154 117
4 2155 86
4 2156 6488
4 2157 183
4 2158 148
4 2159 180
4 2160 101
4 2161 623
4 2162 139
4 2163 128
4 2164 141
4 2165 114
4 2166 221
4 2167 156
4 2168 83
4 2169 289
4 2170 99
4 2171 133
4 2172 116
4 2173 248
4 2174 174
4 2175 200
4 2176 166
4 2177 242
4 2178 118
4 2179 127
4 2180 132
4 2181 194
4 2182 48
4 2183 235
4 2184 66
4 2185 196
4 2186 157
4 2187 153
4 2188 138
4 2189 153
4 2190 194
4 2191 167
4 2192 126
4 2193 202
4 2194 226
4 2195 197
4 2196 108
4 2197 235
4 2198 126
4 2199 175
4 2200 175
4 2201 181
4 2202 145
4 2203 93
4 2204 143
4 2205 277
4 2206 165
4 2207 157
4 2208 111
4 2209 88
4 2210 228
4 2211 215
4 2212 158
4 2213 67
4 2214 145
4 2215 164
4 2216 121
4 2217 148
4 2218 546
4 2219 206
4 2220 227
4 2221 111
4 2222 124
4 2223 97
4 2224 88
4 2225 89
4 2226 114
4 2227 117
4 2228 121
4 2229 69
4 2230 190
4 2231 117
4 2232 154
4 2233 2324
4 2234 97
4 2235 151
4 2236 843
4 2237 177
4 2238 87
4 2239 689
4 2240 226
4 2241 55
4 2242 97
4 2243 139
4 2244 171
4 2245 168
4 2246 2010
4 2247 105
4 2248 244
4 2249 184
4 2250 126
4 2251 56
4 2252 228
4 2253 200
4 2254 123
4 2255 208
4 2256 9187
4 2257 60
4 2258 65
4 2259 1319
4 2260 102
4 2261 80
4 2262 139
4 2263 233
4 2264 88
4 2265 134
4 2266 116
4 2267 251
4 2268 203
4 2269 223
4 2270 67
4 2271 151
4 2272 184
4 2273 164
4 2274 83
4 2275 189
4 2276 113
4 2277 101
4 2278 151
4 2279 4688
4 2280 162
4 2281 108
4 2282 120
4 2283 213
4 2284 96
4 2285 132
4 2286 236
4 2287 222
4 2288 71
4 2289 145
4 2290 165
4 2291 99
4 2292 111
4 2293 6543
4 2294 48
4 2295 163
4 2296 151
4 2297 243
4 2298 5775
4 2299 104
4 2300 166
4 2301 2687
4 2302 60
4 2303 448
4 2304 170
4 2305 212
4 2306 87
4 2307 3783
4 2308 88
4 2309 240
4 2310 245
4 2311 147
4 2312 169
4 2313 7320
4 2314 91
4 2315 464
4 2316 132
4 2317 147
4 2318 124
4 2319 171
4 2320 244
4 2321 204
4 2322 236
4 2323 172
4 2324 231
4 2325 111
4 2326 162
4 2327 176
4 2328 141
4 2329 209
4 2330 75
4 2331 137
4 2332 217
4 2333 99
4 2334 320
4 2335 32
4 2336 174
4 2337 75
4 2338 90
4 2339 147
4 2340 73
4 2341 130
4 2342 150
4 2343 105
4 2344 244
4 2345 131
4 2346 107
4 2347 134
4 2348 144
4 2349 162
4 2350 165
4 2351 81
4 2352 122
4 2353 79
4 2354 154
4 2355 137
4 2356 77
4 2357 153
4 2358 132
4 2359 255
4 2360 111
4 2361 67
4 2362 128
4 2363 156
4 2364 550
4 2365 173
4 2366 115
4 2367 100
4 2368 113
4 2369 81
4 2370 1859
4 2371 143
4 2372 194
4 2373 89
4 2374 201
4 2375 183
4 2376 175
4 2377 183
4 2378 224
4 2379 150
4 2380 155
4 2381 6962
4 2382 125
4 2383 103
4 2384 686
4 2385 135
4 2386 162
4 2387 73
4 2388 183
4 2389 63
4 2390 171
4 2391 168
4 2392 108
4 2393 105
4 2394 218
4 2395 128
4 2396 213
4 2397 113
4 2398 164
4 2399 194
4 2400 129
4 2401 197
4 2402 3785
4 2403 80
4 2404 144
4 2405 96
4 2406 160
4 2407 97
4 2408 158
4 2409 61
4 2410 112
4 2411 239
4 2412 225
4 2413 144
4 2414 105
4 2415 140
4 2416 151
4 2417 28
4 2418 40
4 2419 145
4 2420 147
4 2421 205
4 2422 134
4 2423 98
4 2424 236
4 2425 144
4 2426 4772
4 2427 200
4 2428 164
4 2429 170
4 2430 1257
4 2431 211
4 2432 90
4 2433 251
4 2434 119
4 2435 183
4 2436 127
4 2437 71
4 2438 259
4 2439 116
4 2440 262
4 2441 152
4 2442 66
4 2443 120
4 2444 164
4 2445 1601
4 2446 195
4 2447 99
4 2448 144
4 2449 232
4 2450 143
4 2451 152
4 2452 77
4 2453 74
4 2454 97
4 2455 268
4 2456 120
4 2457 63
4 2458 48
4 2459 89
4 2460 130
4 2461 62
4 2462 100
4 2463 135
4 2464 3507
4 2465 180
4 2466 106
4 2467 148
4 2468 265
4 2469 116
4 2470 127
4 2471 103
4 2472 65
4 2473 136
4 2474 87
4 2475 198
4 2476 89
4 2477 177
4 2478 133
4 2479 233
4 2480 185
4 2481 82
4 2482 153
4 2483 282
4 2484 162
4 2485 94
4 2486 69
4 2487 184
4 2488 210
4 2489 285
4 2490 151
4 2491 58
4 2492 74
4 2493 184
4 2494 151
4 2495 1930
4 2496 111
4 2497 361
4 2498 104
4 2499 172
4 2500 120
4 2501 203
4 2502 165
4 2503 2569
4 2504 170
4 2505 297
4 2506 100
4 2507 123
4 2508 174
4 2509 176
4 2510 202
4 2511 57
4 2512 60
4 2513 131
4 2514 174
4 2515 92
4 2516 258
4 2517 161
4 2518 166
4 2519 236
4 2520 97
4 2521 2172
4 2522 153
4 2523 73
4 2524 161
4 2525 139
4 2526 52
4 2527 90
4 2528 245
4 2529 180
4 2530 79
4 2531 83
4 2532 100
4 2533 104
4 2534 83
4 2535 179
4 2536 158
4 2537 134
4 2538 75
4 2539 130
4 2540 89
4 2541 127
4 2542 109
4 2543 69
4 2544 428
4 2545 78
4 2546 83
4 2547 192
4 2548 115
4 2549 92
4 2550 79
4 2551 132
4 2552 206
4 2553 156
4 2554 123
4 2555 109
4 2556 137
4 2557 140
4 2558 113
4 2559 85
4 2560 89
4 2561 80
4 2562 88
4 2563 11074
4 2564 128
4 2565 87
4 2566 69
4 2567 144
4 2568 100
4 2569 179
4 2570 146
4 2571 91
4 2572 2481
4 2573 131
4 2574 88
4 2575 165
4 2576 82
4 2577 85
4 2578 133
4 2579 130
4 2580 211
4 2581 141
4 2582 131
4 2583 776
4 2584 116
4 2585 68
4 2586 147
4 2587 137
4 2588 201
4 2589 160
4 2590 133
4 2591 77
4 2592 5400
4 2593 131
4 2594 72
4 2595 85
4 2596 251
4 2597 212
4 2598 118
4 2599 162
4 2600 117
4 2601 188
4 2602 120
4 2603 106
4 2604 113
4 2605 1683
4 2606 306
4 2607 83
4 2608 36
4 2609 69
4 2610 75
4 2611 2407
4 2612 129
4 2613 143
4 2614 130
4 2615 214
4 2616 350
4 2617 71
4 2618 75
4 2619 167
4 2620 173
4 2621 119
4 2622 125
4 2623 73
4 2624 143
4 2625 252
4 2626 120
4 2627 136
4 2628 97
4 2629 519
4 2630 149
4 2631 137
4 2632 80
4 2633 204
4 2634 131
4 2635 179
4 2636 113
4 2637 164
4 2638 258
4 2639 91
4 2640 106
4 2641 182
4 2642 131
4 2643 325
4 2644 159
4 2645 187
4 2646 128
4 2647 86
4 2648 65
4 2649 110
4 2650 98
4 2651 196
4 2652 98
4 2653 75
4 2654 100
4 2655 152
4 2656 71
4 2657 128
4 2658 128
4 2659 4828
4 2660 159
4 2661 109
4 2662 154
4 2663 156
4 2664 82
4 2665 38
4 2666 155
4 2667 115
4 2668 9
4 2669 1320
4 2670 126
4 2671 206
4 2672 186
4 2673 126
4 2674 68
4 2675 132
4 2676 206
4 2677 95
4 2678 109
4 2679 116
4 2680 89
4 2681 231
4 2682 248
4 2683 181
4 2684 96
4 2685 147
4 2686 166
4 2687 372
4 2688 61
4 2689 61
4 2690 159
4 2691 184
4 2692 144
4 2693 3575
4 2694 94
4 2695 118
4 2696 120
4 2697 97
4 2698 123
4 2699 203
4 2700 4671
4 2701 180
4 2702 159
4 2703 131
4 2704 161
4 2705 176
4 2706 81
4 2707 161
4 2708 82
4 2709 143
4 2710 90
4 2711 271
4 2712 117
4 2713 191
4 2714 118
4 2715 174
4 2716 144
4 2717 126
4 2718 78
4 2719 320
4 2720 104
4 2721 156
4 2722 185
4 2723 178
4 2724 134
4 2725 83
4 2726 171
4 2727 158
4 2728 170
4 2729 91
4 2730 113
4 2731 131
4 2732 83
4 2733 569
4 2734 173
4 2735 151
4 2736 96
4 2737 106
4 2738 64
4 2739 153
4 2740 4214
4 2741 241
4 2742 105
4 2743 93
4 2744 166
4 2745 151
4 2746 102
4 2747 122
4 2748 5217
4 2749 64
4 2750 60
4 2751 2723
4 2752 65
4 2753 99
4 2754 3332
4 2755 73
4 2756 65
4 2757 128
4 2758 80
4 2759 161
4 2760 184
4 2761 3929
4 2762 141
4 2763 1044
4 2764 117
4 2765 165
4 2766 156
4 2767 157
4 2768 201
4 2769 99
4 2770 110
4 2771 182
4 2772 101
4 2773 228
4 2774 125
4 2775 84
4 2776 123
4 2777 107
4 2778 140
4 2779 112
4 2780 318
4 2781 1102
4 2782 1093
4 2783 206
4 2784 182
4 2785 146
4 2786 157
4 2787 156
4 2788 3134
4 2789 177
4 2790 35
4 2791 191
4 2792 80
4 2793 118
4 2794 93
4 2795 132
4 2796 273
4 2797 95
4 2798 269
4 2799 67
4 2800 157
4 2801 171
4 2802 151
4 2803 99
4 2804 18
4 2805 99
4 2806 122
4 2807 94
4 2808 139
4 2809 125
4 2810 159
4 2811 88
4 2812 148
4 2813 125
4 2814 179
4 2815 203
4 2816 99
4 2817 69
4 2818 11
4 2819 151
4 2820 79
4 2821 139
4 2822 230
4 2823 174
4 2824 130
4 2825 77
4 2826 64
4 2827 92
4 2828 178
4 2829 179
4 2830 107
4 2831 117
4 2832 93
4 2833 79
4 2834 125
4 2835 144
4 2836 96
4 2837 167
4 2838 123
4 2839 194
4 2840 97
4 2841 170
4 2842 161
4 2843 98
4 2844 58
4 2845 156
4 2846 182
4 2847 92
4 2848 143
4 2849 2167
4 2850 129
4 2851 162
4 2852 115
4 2853 195
4 2854 134
4 2855 153
4 2856 147
4 2857 62
4 2858 159
4 2859 58
4 2860 690
4 2861 142
4 2862 78
4 2863 95
4 2864 156
4 2865 108
4 2866 155
4 2867 174
4 2868 98
4 2869 64
4 2870 180
4 2871 171
4 2872 99
4 2873 51
4 2874 152
4 2875 195
4 2876 106
4 2877 182
4 2878 138
4 2879 267
4 2880 201
4 2881 105
4 2882 208
4 2883 155
4 2884 100
4 2885 101
4 2886 157
4 2887 198
4 2888 178
4 2889 82
4 2890 174
4 2891 76
4 2892 177
4 2893 84
4 2894 189
4 2895 89
4 2896 198
4 2897 157
4 2898 1613
4 2899 173
4 2900 119
4 2901 107
4 2902 125
4 2903 306
4 2904 159
4 2905 133
4 2906 104
4 2907 131
4 2908 253
4 2909 90
4 2910 119
4 2911 157
4 2912 223
4 2913 105
4 2914 147
4 2915 106
4 2916 143
4 2917 142
4 2918 153
4 2919 168
4 2920 141
4 2921 246
4 2922 262
4 2923 74
4 2924 171
4 2925 115
4 2926 159
4 2927 121
4 2928 125
4 2929 173
4 2930 115
4 2931 94
4 2932 107
4 2933 165
4 2934 146
4 2935 176
4 2936 71
4 2937 139
4 2938 115
4 2939 76
4 2940 123
4 2941 181
4 2942 113
4 2943 83
4 2944 120
4 2945 70
4 2946 140
4 2947 139
4 2948 144
4 2949 98
4 2950 148
4 2951 137
4 2952 93
4 2953 70
4 2954 103
4 2955 115
4 2956 51
4 2957 71
4 2958 175
4 2959 107
4 2960 199
4 2961 147
4 2962 113
4 2963 70
4 2964 120
4 2965 55
4 2966 110
4 2967 107
4 2968 74
4 2969 143
4 2970 134
4 2971 2528
4 2972 1306
4 2973 87
4 2974 151
4 2975 74
4 2976 108
4 2977 70
4 2978 128
4 2979 134
4 2980 94
4 2981 196
4 2982 156
4 2983 87
4 2984 44
4 2985 54
4 2986 83
4 2987 14
4 2988 69
4 2989 95
4 2990 140
4 2991 121
4 2992 151
4 2993 1878
4 2994 271
4 2995 104
4 2996 171
4 2997 108
4 2998 190
4 2999 154
4 3000 181
4 3001 114
4 3002 189
4 3003 172
4 3004 179
4 3005 123
4 3006 70
4 3007 130
4 3008 227
4 3009 62
4 3010 97
4 3011 39
4 3012 189
4 3013 156
4 3014 112
4 3015 142
4 3016 71
4 3017 99
4 3018 171
4 3019 133
4 3020 80
4 3021 128
4 3022 114
4 3023 188
4 3024 2915
4 3025 127
4 3026 127
4 3027 179
4 3028 81
4 3029 56
4 3030 181
4 3031 75
4 3032 210
4 3033 263
4 3034 81
4 3035 200
4 3036 123
4 3037 489
4 3038 137
4 3039 141
4 3040 105
4 3041 66
4 3042 142
4 3043 144
4 3044 126
4 3045 163
4 3046 91
4 3047 146
4 3048 95
4 3049 316
4 3050 153
4 3051 769
4 3052 194
4 3053 5573
4 3054 33
4 3055 160
4 3056 150
4 3057 57
4 3058 191
4 3059 109
4 3060 201
4 3061 88
4 3062 126
4 3063 1528
4 3064 133
4 3065 156
4 3066 73
4 3067 208
4 3068 82
4 3069 72
4 3070 91
4 3071 187
4 3072 159
4 3073 62
4 3074 169
4 3075 77
4 3076 154
4 3077 168
4 3078 147
4 3079 66
4 3080 182
4 3081 3113
4 3082 3501
4 3083 164
4 3084 195
4 3085 90
4 3086 115
4 3087 87
4 3088 19
4 3089 106
4 3090 177
4 3091 156
4 3092 109
4 3093 152
4 3094 105
4 3095 67
4 3096 117
4 3097 173
4 3098 2402
4 3099 76
4 3100 138
4 3101 117
4 3102 217
4 3103 119
4 3104 147
4 3105 187
4 3106 115
4 3107 102
4 3108 116
4 3109 3268
4 3110 168
4 3111 150
4 3112 155
4 3113 5469
4 3114 79
4 3115 142
4 3116 205
4 3117 162
4 3118 108
4 3119 150
4 3120 185
4 3121 81
4 3122 148
4 3123 116
4 3124 149
4 3125 142
4 3126 86
4 3127 154
4 3128 129
4 3129 115
4 3130 160
4 3131 166
4 3132 145
4 3133 160
4 3134 400
4 3135 138
4 3136 193
4 3137 188
4 3138 84
4 3139 105
4 3140 161
4 3141 200
4 3142 163
4 3143 953
4 3144 3011
4 3145 132
4 3146 177
4 3147 129
4 3148 75
4 3149 142
4 3150 119
4 3151 51
4 3152 119
4 3153 184
4 3154 115
4 3155 270
4 3156 28
4 3157 144
4 3158 129
4 3159 138
4 3160 150
4 3161 136
4 3162 117
4 3163 183
4 3164 217
4 3165 2186
4 3166 151
4 3167 85
4 3168 114
4 3169 125
4 3170 101
4 3171 114
4 3172 9196
4 3173 157
4 3174 162
4 3175 138
4 3176 136
4 3177 99
4 3178 92
4 3179 112
4 3180 81
4 3181 113
4 3182 255
4 3183 91
4 3184 184
4 3185 140
4 3186 49
4 3187 127
4 3188 84
4 3189 230
4 3190 87
4 3191 104
4 3192 186
4 3193 149
4 3194 116
4 3195 79
4 3196 135
4 3197 151
4 3198 93
4 3199 62
4 3200 215
4 3201 1032
4 3202 167
4 3203 69
4 3204 562
4 3205 102
4 3206 137
4 3207 143
4 3208 155
4 3209 76
4 3210 79
4 3211 174
4 3212 547
4 3213 1737
4 3214 118
4 3215 93
4 3216 114
4 3217 198
4 3218 157
4 3219 131
4 3220 119
4 3221 104
4 3222 272
4 3223 129
4 3224 94
4 3225 99
4 3226 363
4 3227 146
4 3228 155
4 3229 1757
4 3230 71
4 3231 123
4 3232 119
4 3233 183
4 3234 110
4 3235 142
4 3236 126
4 3237 164
4 3238 41
4 3239 126
4 3240 112
4 3241 159
4 3242 224
4 3243 150
4 3244 173
4 3245 158
4 3246 177
4 3247 148
4 3248 80
4 3249 83
4 3250 154
4 3251 181
4 3252 138
4 3253 109
4 3254 86
4 3255 178
4 3256 146
4 3257 108
4 3258 116
4 3259 120
4 3260 103
4 3261 164
4 3262 108
4 3263 172
4 3264 163
4 3265 105
4 3266 175
4 3267 160
4 3268 153
4 3269 171
4 3270 97
4 3271 82
4 3272 319
4 3273 114
4 3274 130
4 3275 78
4 3276 199
4 3277 77
4 3278 929
4 3279 82
4 3280 87
4 3281 235
4 3282 115
4 3283 121
4 3284 126
4 3285 53
4 3286 116
4 3287 167
4 3288 230
4 3289 64
4 3290 188
4 3291 89
4 3292 163
4 3293 102
4 3294 159
4 3295 157
4 3296 194
4 3297 132
4 3298 136
4 3299 123
4 3300 135
4 3301 182
4 3302 189
4 3303 145
4 3304 116
4 3305 111
4 3306 159
4 3307 91
4 3308 155
4 3309 115
4 3310 3040
4 3311 92
4 3312 293
4 3313 68
4 3314 146
4 3315 156
4 3316 203
4 3317 114
4 3318 155
4 3319 121
4 3320 6236
4 3321 102
4 3322 369
4 3323 168
4 3324 2479
4 3325 167
4 3326 105
4 3327 64
4 3328 76
4 3329 148
4 3330 137
4 3331 129
4 3332 71
4 3333 145
4 3334 91
4 3335 131
4 3336 127
4 3337 81
4 3338 89
4 3339 146
4 3340 108
4 3341 120
4 3342 171
4 3343 136
4 3344 97
4 3345 150
4 3346 183
4 3347 218
4 3348 172
4 3349 101
4 3350 100
4 3351 113
4 3352 83
4 3353 195
4 3354 83
4 3355 203
4 3356 112
4 3357 59
4 3358 92
4 3359 108
4 3360 114
4 3361 175
4 3362 113
4 3363 3198
4 3364 79
4 3365 142
4 3366 143
4 3367 72
4 3368 88
4 3369 4
4 3370 164
4 3371 67
4 3372 96
4 3373 236
4 3374 146
4 3375 119
4 3376 170
4 3377 115
4 3378 109
4 3379 99
4 3380 159
4 3381 138
4 3382 79
4 3383 154
4 3384 98
4 3385 139
4 3386 145
4 3387 171
4 3388 201
4 3389 61
4 3390 177
4 3391 141
4 3392 335
4 3393 56
4 3394 78
4 3395 90
4 3396 155
4 3397 283
4 3398 213
4 3399 81
4 3400 113
4 3401 153
4 3402 80
4 3403 129
4 3404 39
4 3405 160
4 3406 126
4 3407 188
4 3408 86
4 3409 106
4 3410 86
4 3411 22
4 3412 181
4 3413 73
4 3414 172
4 3415 96
4 3416 200
4 3417 58
4 3418 143
4 3419 32
4 3420 85
4 3421 161
4 3422 280
4 3423 57
4 3424 85
4 3425 174
4 3426 91
4 3427 48
4 3428 1495
4 3429 138
4 3430 133
4 3431 111
4 3432 102
4 3433 196
4 3434 72
4 3435 870
4 3436 164
4 3437 99
4 3438 120
4 3439 2289
4 3440 117
4 3441 154
4 3442 133
4 3443 197
4 3444 74
4 3445 89
4 3446 154
4 3447 142
4 3448 67
4 3449 68
4 3450 144
4 3451 870
4 3452 15
4 3453 135
4 3454 61
4 3455 153
4 3456 157
4 3457 196
4 3458 118
4 3459 72
4 3460 857
4 3461 98
4 3462 84
4 3463 73
4 3464 63
4 3465 121
4 3466 190
4 3467 659
4 3468 77
4 3469 105
4 3470 114
4 3471 78
4 3472 82
4 3473 80
4 3474 128
4 3475 81
4 3476 1193
4 3477 49
4 3478 67
4 3479 95
4 3480 158
4 3481 70
4 3482 111
4 3483 133
4 3484 86
4 3485 116
4 3486 135
4 3487 102
4 3488 5882
4 3489 62
4 3490 196
4 3491 127
4 3492 64
4 3493 186
4 3494 64
4 3495 166
4 3496 84
4 3497 195
4 3498 164
4 3499 290
4 3500 106
4 3501 90
4 3502 113
4 3503 2712
4 3504 84
4 3505 103
4 3506 77
4 3507 96
4 3508 188
4 3509 75
4 3510 134
4 3511 75
4 3512 171
4 3513 86
4 3514 1555
4 3515 280
4 3516 198
4 3517 91
4 3518 77
4 3519 160
4 3520 99
4 3521 137
4 3522 130
4 3523 41
4 3524 131
4 3525 241
4 3526 211
4 3527 179
4 3528 67
4 3529 267
4 3530 78
4 3531 149
4 3532 805
4 3533 157
4 3534 113
4 3535 159
4 3536 151
4 3537 92
4 3538 119
4 3539 119
4 3540 66
4 3541 2185
4 3542 112
4 3543 63
4 3544 164
4 3545 118
4 3546 85
4 3547 98
4 3548 74
4 3549 33
4 3550 103
4 3551 1544
4 3552 82
4 3553 145
4 3554 105
4 3555 124
4 3556 137
4 3557 169
4 3558 115
4 3559 162
4 3560 185
4 3561 1031
4 3562 120
4 3563 182
4 3564 169
4 3565 147
4 3566 221
4 3567 248
4 3568 101
4 3569 110
4 3570 100
4 3571 1401
4 3572 95
4 3573 128
4 3574 133
4 3575 115
4 3576 88
4 3577 144
4 3578 80
4 3579 70
4 3580 131
4 3581 192
4 3582 134
4 3583 175
4 3584 168
4 3585 102
4 3586 156
4 3587 49
4 3588 86
4 3589 38
4 3590 1869
4 3591 127
4 3592 150
4 3593 192
4 3594 110
4 3595 264
4 3596 127
4 3597 179
4 3598 159
4 3599 126
4 3600 137
4 3601 66
4 3602 84
4 3603 85
4 3604 150
4 3605 162
4 3606 125
4 3607 113
4 3608 163
4 3609 92
4 3610 122
4 3611 52
4 3612 220
4 3613 122
4 3614 189
4 3615 152
4 3616 96
4 3617 109
4 3618 185
4 3619 131
4 3620 113
4 3621 103
4 3622 161
4 3623 131
4 3624 124
4 3625 147
4 3626 140
4 3627 127
4 3628 110
4 3629 147
4 3630 64
4 3631 137
4 3632 140
4 3633 167
4 3634 126
4 3635 119
4 3636 81
4 3637 97
4 3638 96
4 3639 515
4 3640 111
4 3641 981
4 3642 85
4 3643 130
4 3644 146
4 3645 154
4 3646 82
4 3647 138
4 3648 187
4 3649 103
4 3650 124
4 3651 349
4 3652 148
4 3653 82
4 3654 96
4 3655 71
4 3656 168
4 3657 124
4 3658 2178
4 3659 121
4 3660 91
4 3661 118
4 3662 2580
4 3663 2569
4 3664 93
4 3665 80
4 3666 76
4 3667 74
4 3668 164
4 3669 108
4 3670 7470
4 3671 123
4 3672 239
4 3673 92
4 3674 149
4 3675 96
4 3676 76
4 3677 133
4 3678 103
4 3679 147
4 3680 80
4 3681 149
4 3682 117
4 3683 89
4 3684 81
4 3685 167
4 3686 177
4 3687 101
4 3688 80
4 3689 174
4 3690 134
4 3691 78
4 3692 88
4 3693 232
4 3694 182
4 3695 115
4 3696 155
4 3697 167
4 3698 8
4 3699 214
4 3700 113
4 3701 155
4 3702 128
4 3703 189
4 3704 148
4 3705 132
4 3706 81
4 3707 195
4 3708 98
4 3709 1596
4 3710 126
4 3711 147
4 3712 79
4 3713 130
4 3714 119
4 3715 119
4 3716 1548
4 3717 103
4 3718 157
4 3719 99
4 3720 149
4 3721 106
4 3722 169
4 3723 76
4 3724 104
4 3725 84
4 3726 95
4 3727 90
4 3728 195
4 3729 107
4 3730 1198
4 3731 174
4 3732 160
4 3733 4566
4 3734 136
4 3735 109
4 3736 83
4 3737 76
4 3738 118
4 3739 84
4 3740 128
4 3741 86
4 3742 170
4 3743 95
4 3744 142
4 3745 110
4 3746 68
4 3747 145
4 3748 78
4 3749 148
4 3750 130
4 3751 103
4 3752 72
4 3753 114
4 3754 77
4 3755 94
4 3756 140
4 3757 123
4 3758 79
4 3759 89
4 3760 297
4 3761 125
4 3762 125
4 3763 120
4 3764 110
4 3765 1079
4 3766 128
4 3767 95
4 3768 508
4 3769 136
4 3770 115
4 3771 734
4 3772 82
4 3773 65
4 3774 68
4 3775 114
4 3776 162
4 3777 99
4 3778 111
4 3779 77
4 3780 185
4 3781 114
4 3782 1601
4 3783 122
4 3784 78
4 3785 101
4 3786 100
4 3787 81
4 3788 159
4 3789 145
4 3790 584
4 3791 119
4 3792 134
4 3793 147
4 3794 60
4 3795 1879
4 3796 886
4 3797 148
4 3798 76
4 3799 128
4 3800 1470
4 3801 159
4 3802 94
4 3803 57
4 3804 59
4 3805 192
4 3806 113
4 3807 67
4 3808 79
4 3809 117
4 3810 101
4 3811 157
4 3812 108
4 3813 100
4 3814 144
4 3815 122
4 3816 153
4 3817 97
4 3818 107
4 3819 108
4 3820 142
4 3821 55
4 3822 137
4 3823 133
4 3824 134
4 3825 184
4 3826 113
4 3827 180
4 3828 121
4 3829 57
4 3830 114
4 3831 378
4 3832 1895
4 3833 127
4 3834 77
4 3835 59
4 3836 119
4 3837 94
4 3838 184
4 3839 100
4 3840 94
4 3841 1797
4 3842 82
4 3843 420
4 3844 179
4 3845 292
4 3846 156
4 3847 140
4 3848 93
4 3849 84
4 3850 89
4 3851 166
4 3852 79
4 3853 65
4 3854 85
4 3855 104
4 3856 177
4 3857 134
4 3858 223
4 3859 61
4 3860 149
4 3861 167
4 3862 81
4 3863 68
4 3864 35
4 3865 42
4 3866 177
4 3867 119
4 3868 141
4 3869 91
4 3870 193
4 3871 166
4 3872 81
4 3873 123
4 3874 43
4 3875 145
4 3876 117
4 3877 153
4 3878 97
4 3879 83
4 3880 9
4 3881 256
4 3882 175
4 3883 78
4 3884 160
4 3885 167
4 3886 7
4 3887 249
4 3888 161
4 3889 130
4 3890 177
4 3891 194
4 3892 150
4 3893 134
4 3894 142
4 3895 88
4 3896 93
4 3897 167
4 3898 284
4 3899 255
4 3900 122
4 3901 80
4 3902 171
4 3903 117
4 3904 179
4 3905 116
4 3906 167
4 3907 168
4 3908 79
4 3909 70
4 3910 92
4 3911 75
4 3912 52
4 3913 126
4 3914 100
4 3915 136
4 3916 36
4 3917 151
4 3918 146
4 3919 517
4 3920 203
4 3921 54
4 3922 99
4 3923 113
4 3924 102
4 3925 46
4 3926 139
4 3927 63
4 3928 93
4 3929 2655
4 3930 72
4 3931 167
4 3932 92
4 3933 77
4 3934 70
4 3935 199
4 3936 179
4 3937 28
4 3938 153
4 3939 98
4 3940 197
4 3941 165
4 3942 62
4 3943 438
4 3944 145
4 3945 100
4 3946 116
4 3947 57
4 3948 92
4 3949 175
4 3950 67
4 3951 129
4 3952 148
4 3953 147
4 3954 105
4 3955 45
4 3956 119
4 3957 165
4 3958 168
4 3959 581
4 3960 34
4 3961 75
4 3962 82
4 3963 90
4 3964 100
4 3965 71
4 3966 116
4 3967 151
4 3968 82
4 3969 96
4 3970 84
4 3971 81
4 3972 2195
4 3973 133
4 3974 99
4 3975 79
4 3976 107
4 3977 173
4 3978 135
4 3979 159
4 3980 143
4 3981 1320
4 3982 144
4 3983 122
4 3984 144
4 3985 95
4 3986 135
4 3987 44
4 3988 88
4 3989 244
4 3990 117
4 3991 68
4 3992 138
4 3993 257
4 3994 126
4 3995 110
4 3996 159
4 3997 142
4 3998 112
4 3999 118
4 4000 91
4 4001 125
4 4002 133
4 4003 111
4 4004 84
4 4005 103
4 4006 146
4 4007 145
4 4008 139
4 4009 150
4 4010 89
4 4011 72
4 4012 109
4 4013 158
4 4014 141
4 4015 244
4 4016 123
4 4017 78
4 4018 184
4 4019 107
4 4020 102
4 4021 91
4 4022 113
4 4023 93
4 4024 184
4 4025 94
4 4026 72
4 4027 85
4 4028 64
4 4029 84
4 4030 94
4 4031 62
4 4032 142
4 4033 100
4 4034 106
4 4035 44
4 4036 192
4 4037 112
4 4038 127
4 4039 244
4 4040 149
4 4041 304
4 4042 73
4 4043 95
4 4044 51
4 4045 113
4 4046 43
4 4047 89
4 4048 107
4 4049 416
4 4050 89
4 4051 83
4 4052 145
4 4053 108
4 4054 141
4 4055 100
4 4056 139
4 4057 75
4 4058 156
4 4059 54
4 4060 257
4 4061 96
4 4062 181
4 4063 167
4 4064 215
4 4065 1545
4 4066 169
4 4067 125
4 4068 91
4 4069 135
4 4070 86
4 4071 79
4 4072 106
4 4073 111
4 4074 310
4 4075 84
4 4076 134
4 4077 151
4 4078 67
4 4079 229
4 4080 2189
4 4081 83
4 4082 102
4 4083 156
4 4084 137
4 4085 73
4 4086 75
4 4087 82
4 4088 149
4 4089 473
4 4090 604
4 4091 64
4 4092 150
4 4093 86
4 4094 71
4 4095 130
4 4096 203
4 4097 151
4 4098 97
4 4099 110
4 4100 184
4 4101 59
4 4102 118
4 4103 98
4 4104 84
4 4105 16
4 4106 97
4 4107 116
4 4108 348
4 4109 74
4 4110 493
4 4111 73
4 4112 128
4 4113 83
4 4114 69
4 4115 81
4 4116 109
4 4117 114
4 4118 128
4 4119 120
4 4120 89
4 4121 150
4 4122 51
4 4123 140
4 4124 79
4 4125 96
4 4126 722
4 4127 169
4 4128 102
4 4129 164
4 4130 124
4 4131 143
4 4132 114
4 4133 89
4 4134 114
4 4135 75
4 4136 241
4 4137 66
4 4138 86
4 4139 151
4 4140 76
4 4141 232
4 4142 77
4 4143 104
4 4144 54
4 4145 314
4 4146 123
4 4147 123
4 4148 159
4 4149 64
4 4150 123
4 4151 158
4 4152 164
4 4153 102
4 4154 79
4 4155 89
4 4156 71
4 4157 111
4 4158 93
4 4159 84
4 4160 119
4 4161 126
4 4162 46
4 4163 276
4 4164 199
4 4165 180
4 4166 116
4 4167 125
4 4168 191
4 4169 196
4 4170 30
4 4171 95
4 4172 94
4 4173 126
4 4174 138
4 4175 61
4 4176 55
4 4177 141
4 4178 121
4 4179 42
4 4180 57
4 4181 98
4 4182 61
4 4183 76
4 4184 123
4 4185 79
4 4186 285
4 4187 134
4 4188 80
4 4189 169
4 4190 173
4 4191 80
4 4192 311
4 4193 168
4 4194 111
4 4195 144
4 4196 67
4 4197 94
4 4198 491
4 4199 104
4 4200 191
4 4201 65
4 4202 71
4 4203 308
4 4204 172
4 4205 151
4 4206 130
4 4207 121
4 4208 87
4 4209 159
4 4210 140
4 4211 125
4 4212 47
4 4213 169
4 4214 263
4 4215 57
4 4216 76
4 4217 127
4 4218 87
4 4219 146
4 4220 93
4 4221 121
4 4222 135
4 4223 126
4 4224 124
4 4225 117
4 4226 136
4 4227 140
4 4228 146
4 4229 96
4 4230 113
4 4231 216
4 4232 71
4 4233 150
4 4234 76
4 4235 133
4 4236 148
4 4237 111
4 4238 183
4 4239 229
4 4240 107
4 4241 59
4 4242 398
4 4243 58
4 4244 79
4 4245 93
4 4246 117
4 4247 151
4 4248 100
4 4249 66
4 4250 48
4 4251 122
4 4252 134
4 4253 119
4 4254 133
4 4255 189
4 4256 86
4 4257 155
4 4258 197
4 4259 135
4 4260 95
4 4261 76
4 4262 146
4 4263 71
4 4264 109
4 4265 597
4 4266 80
4 4267 64
4 4268 70
4 4269 103
4 4270 59
4 4271 93
4 4272 969
4 4273 118
4 4274 346
4 4275 16
4 4276 86
4 4277 49
4 4278 134
4 4279 97
4 4280 142
4 4281 169
4 4282 156
4 4283 116
4 4284 53
4 4285 166
4 4286 143
4 4287 119
4 4288 92
4 4289 128
4 4290 171
4 4291 165
4 4292 149
4 4293 39
4 4294 141
4 4295 166
4 4296 61
4 4297 138
4 4298 84
4 4299 80
4 4300 85
4 4301 201
4 4302 18
4 4303 108
4 4304 56
4 4305 141
4 4306 126
4 4307 168
4 4308 91
4 4309 69
4 4310 152
4 4311 67
4 4312 66
4 4313 426
4 4314 249
4 4315 57
4 4316 157
4 4317 62
4 4318 93
4 4319 60
4 4320 75
4 4321 139
4 4322 163
4 4323 78
4 4324 127
4 4325 57
4 4326 52
4 4327 214
4 4328 118
4 4329 158
4 4330 84
4 4331 229
4 4332 72
4 4333 133
4 4334 54
4 4335 165
4 4336 101
4 4337 79
4 4338 203
4 4339 53
4 4340 3481
4 4341 271
4 4342 132
4 4343 107
4 4344 70
4 4345 99
4 4346 121
4 4347 169
4 4348 109
4 4349 129
4 4350 114
4 4351 68
4 4352 117
4 4353 144
4 4354 102
4 4355 138
4 4356 55
4 4357 175
4 4358 72
4 4359 1388
4 4360 95
4 4361 70
4 4362 115
4 4363 105
4 4364 187
4 4365 141
4 4366 202
4 4367 132
4 4368 82
4 4369 74
4 4370 145
4 4371 84
4 4372 59
4 4373 763
4 4374 74
4 4375 127
4 4376 93
4 4377 190
4 4378 137
4 4379 169
4 4380 140
4 4381 157
4 4382 95
4 4383 152
4 4384 100
4 4385 159
4 4386 847
4 4387 102
4 4388 110
4 4389 189
4 4390 43
4 4391 171
4 4392 124
4 4393 52
4 4394 221
4 4395 104
4 4396 64
4 4397 2650
4 4398 101
4 4399 175
4 4400 107
4 4401 189
4 4402 157
4 4403 157
4 4404 78
4 4405 146
4 4406 50
4 4407 60
4 4408 194
4 4409 123
4 4410 177
4 4411 166
4 4412 110
4 4413 51
4 4414 115
4 4415 94
4 4416 119
4 4417 99
4 4418 109
4 4419 175
4 4420 2234
4 4421 159
4 4422 91
4 4423 91
4 4424 2757
4 4425 84
4 4426 91
4 4427 524
4 4428 91
4 4429 89
4 4430 59
4 4431 152
4 4432 66
4 4433 127
4 4434 136
4 4435 79
4 4436 170
4 4437 64
4 4438 121
4 4439 180
4 4440 102
4 4441 129
4 4442 102
4 4443 188
4 4444 42
4 4445 122
4 4446 120
4 4447 154
4 4448 104
4 4449 162
4 4450 83
4 4451 66
4 4452 149
4 4453 41
4 4454 97
4 4455 121
4 4456 196
4 4457 91
4 4458 70
4 4459 140
4 4460 1094
4 4461 135
4 4462 102
4 4463 104
4 4464 2915
4 4465 75
4 4466 103
4 4467 78
4 4468 270
4 4469 90
4 4470 59
4 4471 136
4 4472 111
4 4473 121
4 4474 11
4 4475 93
4 4476 164
4 4477 106
4 4478 66
4 4479 55
4 4480 105
4 4481 138
4 4482 68
4 4483 123
4 4484 70
4 4485 143
4 4486 105
4 4487 127
4 4488 42
4 4489 71
4 4490 90
4 4491 40
4 4492 175
4 4493 59
4 4494 136
4 4495 114
4 4496 101
4 4497 169
4 4498 120
4 4499 157
4 4500 145
4 4501 93
4 4502 145
4 4503 129
4 4504 139
4 4505 130
4 4506 145
4 4507 178
4 4508 50
4 4509 60
4 4510 73
4 4511 124
4 4512 140
4 4513 323
4 4514 127
4 4515 151
4 4516 152
4 4517 81
4 4518 98
4 4519 234
4 4520 174
4 4521 112
4 4522 158
4 4523 231
4 4524 187
4 4525 71
4 4526 149
4 4527 55
4 4528 159
4 4529 79
4 4530 140
4 4531 604
4 4532 98
4 4533 83
4 4534 139
4 4535 60
4 4536 86
4 4537 84
4 4538 148
4 4539 147
4 4540 106
4 4541 144
4 4542 226
4 4543 126
4 4544 69
4 4545 149
4 4546 153
4 4547 170
4 4548 117
4 4549 107
4 4550 194
4 4551 61
4 4552 25
4 4553 361
4 4554 156
4 4555 215
4 4556 117
4 4557 61
4 4558 95
4 4559 117
4 4560 158
4 4561 156
4 4562 81
4 4563 1050
4 4564 142
4 4565 116
4 4566 186
4 4567 56
4 4568 68
4 4569 82
4 4570 157
4 4571 165
4 4572 151
4 4573 155
4 4574 113
4 4575 131
4 4576 53
4 4577 139
4 4578 85
4 4579 89
4 4580 87
4 4581 37
4 4582 67
4 4583 119
4 4584 188
4 4585 73
4 4586 115
4 4587 135
4 4588 149
4 4589 79
4 4590 73
4 4591 77
4 4592 207
4 4593 1563
4 4594 71
4 4595 132
4 4596 89
4 4597 134
4 4598 101
4 4599 134
4 4600 87
4 4601 10
4 4602 131
4 4603 130
4 4604 219
4 4605 57
4 4606 123
4 4607 56
4 4608 168
4 4609 132
4 4610 260
4 4611 102
4 4612 70
4 4613 496
4 4614 148
4 4615 121
4 4616 87
4 4617 121
4 4618 139
4 4619 131
4 4620 68
4 4621 90
4 4622 187
4 4623 184
4 4624 92
4 4625 175
4 4626 134
4 4627 133
4 4628 136
4 4629 117
4 4630 80
4 4631 65
4 4632 169
4 4633 151
4 4634 92
4 4635 103
4 4636 72
4 4637 3550
4 4638 172
4 4639 333
4 4640 128
4 4641 151
4 4642 69
4 4643 206
4 4644 58
4 4645 550
4 4646 50
4 4647 130
4 4648 122
4 4649 123
4 4650 243
4 4651 151
4 4652 115
4 4653 93
4 4654 86
4 4655 122
4 4656 115
4 4657 93
4 4658 141
4 4659 77
4 4660 34
4 4661 86
4 4662 500
4 4663 95
4 4664 149
4 4665 188
4 4666 26
4 4667 134
4 4668 89
4 4669 117
4 4670 140
4 4671 92
4 4672 85
4 4673 96
4 4674 70
4 4675 107
4 4676 27
4 4677 1423
4 4678 100
4 4679 141
4 4680 120
4 4681 162
4 4682 85
4 4683 82
4 4684 121
4 4685 144
4 4686 71
4 4687 125
4 4688 167
4 4689 138
4 4690 120
4 4691 7
4 4692 114
4 4693 68
4 4694 83
4 4695 28
4 4696 191
4 4697 105
4 4698 108
4 4699 58
4 4700 82
4 4701 99
4 4702 134
4 4703 74
4 4704 79
4 4705 78
4 4706 161
4 4707 87
4 4708 83
4 4709 71
4 4710 133
4 4711 149
4 4712 153
4 4713 114
4 4714 151
4 4715 138
4 4716 93
4 4717 144
4 4718 70
4 4719 100
4 4720 130
4 4721 79
4 4722 135
4 4723 70
4 4724 76
4 4725 195
4 4726 154
4 4727 192
4 4728 159
4 4729 149
4 4730 78
4 4731 412
4 4732 48
4 4733 158
4 4734 89
4 4735 81
4 4736 82
4 4737 177
4 4738 82
4 4739 149
4 4740 135
4 4741 106
4 4742 173
4 4743 102
4 4744 206
4 4745 131
4 4746 78
4 4747 81
4 4748 83
4 4749 89
4 4750 87
4 4751 86
4 4752 94
4 4753 152
4 4754 55
4 4755 124
4 4756 73
4 4757 61
4 4758 191
4 4759 143
4 4760 98
4 4761 268
4 4762 149
4 4763 168
4 4764 63
4 4765 152
4 4766 165
4 4767 107
4 4768 79
4 4769 110
4 4770 89
4 4771 165
4 4772 99
4 4773 83
4 4774 103
4 4775 45
4 4776 98
4 4777 64
4 4778 118
4 4779 128
4 4780 124
4 4781 181
4 4782 87
4 4783 84
4 4784 91
4 4785 85
4 4786 110
4 4787 53
4 4788 126
4 4789 110
4 4790 133
4 4791 77
4 4792 162
4 4793 131
4 4794 1440
4 4795 158
4 4796 66
4 4797 125
4 4798 90
4 4799 122
4 4800 61
4 4801 140
4 4802 87
4 4803 17
4 4804 228
4 4805 141
4 4806 116
4 4807 63
4 4808 72
4 4809 157
4 4810 158
4 4811 135
4 4812 182
4 4813 64
4 4814 44
4 4815 88
4 4816 104
4 4817 91
4 4818 135
4 4819 71
4 4820 120
4 4821 166
4 4822 111
4 4823 127
4 4824 123
4 4825 124
4 4826 53
4 4827 119
4 4828 98
4 4829 158
4 4830 174
4 4831 127
4 4832 70
4 4833 73
4 4834 81
4 4835 33
4 4836 244
4 4837 80
4 4838 262
4 4839 120
4 4840 495
4 4841 130
4 4842 8
4 4843 116
4 4844 130
4 4845 153
4 4846 91
4 4847 163
4 4848 69
4 4849 32
4 4850 433
4 4851 117
4 4852 187
4 4853 153
4 4854 95
4 4855 33
4 4856 240
4 4857 139
4 4858 95
4 4859 239
4 4860 128
4 4861 127
4 4862 96
4 4863 1438
4 4864 153
4 4865 120
4 4866 146
4 4867 61
4 4868 166
4 4869 138
4 4870 151
4 4871 131
4 4872 58
4 4873 123
4 4874 144
4 4875 130
4 4876 158
4 4877 141
4 4878 89
4 4879 32
4 4880 147
4 4881 77
4 4882 113
4 4883 66
4 4884 209
4 4885 76
4 4886 124
4 4887 138
4 4888 172
4 4889 123
4 4890 164
4 4891 65
4 4892 98
4 4893 128
4 4894 76
4 4895 115
4 4896 89
4 4897 165
4 4898 78
4 4899 133
4 4900 106
4 4901 116
4 4902 153
4 4903 118
4 4904 98
4 4905 378
4 4906 144
4 4907 135
4 4908 51
4 4909 134
4 4910 489
4 4911 93
4 4912 67
4 4913 385
4 4914 107
4 4915 61
4 4916 82
4 4917 100
4 4918 68
4 4919 197
4 4920 158
4 4921 58
4 4922 162
4 4923 63
4 4924 66
4 4925 133
4 4926 103
4 4927 20
4 4928 133
4 4929 71
4 4930 79
4 4931 151
4 4932 100
4 4933 182
4 4934 3
4 4935 71
4 4936 94
4 4937 77
4 4938 89
4 4939 65
4 4940 175
4 4941 73
4 4942 86
4 4943 242
4 4944 158
4 4945 132
4 4946 85
4 4947 173
4 4948 129
4 4949 51
4 4950 91
4 4951 140
4 4952 243
4 4953 120
4 4954 139
4 4955 75
4 4956 188
4 4957 49
4 4958 52
4 4959 80
4 4960 53
4 4961 135
4 4962 150
4 4963 107
4 4964 63
4 4965 60
4 4966 103
4 4967 80
4 4968 174
4 4969 113
4 4970 174
4 4971 64
4 4972 72
4 4973 47
4 4974 55
4 4975 126
4 4976 92
4 4977 291
4 4978 94
4 4979 117
4 4980 100
4 4981 150
4 4982 98
4 4983 69
4 4984 205
4 4985 55
4 4986 58
4 4987 154
4 4988 82
4 4989 55
4 4990 770
4 4991 64
4 4992 118
4 4993 55
4 4994 71
4 4995 113
4 4996 73
4 4997 70
4 4998 109
4 4999 103
4 5000 245
4 5001 181
4 5002 74
4 5003 156
4 5004 68
4 5005 4
4 5006 52
4 5007 192
4 5008 18
4 5009 30
4 5010 104
4 5011 85
4 5012 107
4 5013 83
4 5014 93
4 5015 85
4 5016 70
4 5017 70
4 5018 85
4 5019 87
4 5020 135
4 5021 92
4 5022 105
4 5023 90
4 5024 131
4 5025 685
4 5026 114
4 5027 8
4 5028 92
4 5029 152
4 5030 61
4 5031 72
4 5032 78
4 5033 50
4 5034 42
4 5035 106
4 5036 58
4 5037 88
4 5038 147
4 5039 116
4 5040 82
4 5041 111
4 5042 153
4 5043 78
4 5044 74
4 5045 118
4 5046 97
4 5047 69
4 5048 89
4 5049 86
4 5050 97
4 5051 109
4 5052 74
4 5053 105
4 5054 72
4 5055 88
4 5056 2194
4 5057 120
4 5058 116
4 5059 80
4 5060 35
4 5061 16
4 5062 171
4 5063 63
4 5064 323
4 5065 154
4 5066 158
4 5067 187
4 5068 60
4 5069 113
4 5070 3
4 5071 105
4 5072 175
4 5073 73
4 5074 85
4 5075 51
4 5076 89
4 5077 84
4 5078 98
4 5079 1030
4 5080 95
4 5081 120
4 5082 11
4 5083 20
4 5084 123
4 5085 124
4 5086 120
4 5087 60
4 5088 38
4 5089 99
4 5090 122
4 5091 173
4 5092 116
4 5093 67
4 5094 52
4 5095 134
4 5096 32
4 5097 108
4 5098 118
4 5099 96
4 5100 67
4 5101 120
4 5102 115
4 5103 107
4 5104 116
4 5105 103
4 5106 65
4 5107 163
4 5108 78
4 5109 170
4 5110 116
4 5111 150
4 5112 139
4 5113 107
4 5114 107
4 5115 87
4 5116 126
4 5117 145
4 5118 76
4 5119 129
4 5120 29
4 5121 118
4 5122 85
4 5123 142
4 5124 108
4 5125 170
4 5126 49
4 5127 114
4 5128 80
4 5129 83
4 5130 92
4 5131 87
4 5132 113
4 5133 87
4 5134 124
4 5135 102
4 5136 146
4 5137 93
4 5138 53
4 5139 68
4 5140 110
4 5141 86
4 5142 70
4 5143 68
4 5144 138
4 5145 116
4 5146 121
4 5147 194
4 5148 75
4 5149 142
4 5150 71
4 5151 92
4 5152 111
4 5153 110
4 5154 183
4 5155 173
4 5156 160
4 5157 97
4 5158 111
4 5159 146
4 5160 57
4 5161 301
4 5162 82
4 5163 139
4 5164 69
4 5165 144
4 5166 84
4 5167 87
4 5168 104
4 5169 64
4 5170 86
4 5171 180
4 5172 112
4 5173 19
4 5174 74
4 5175 137
4 5176 70
4 5177 80
4 5178 115
4 5180 59
4 5181 117
4 5182 111
4 5183 78
4 5184 104
4 5185 79
4 5186 83
4 5187 249
4 5188 242
4 5189 31
4 5190 26
4 5191 77
4 5192 76
4 5193 73
4 5194 71
4 5195 304
4 5196 78
4 5197 628
4 5198 159
4 5199 82
4 5200 740
4 5201 118
4 5202 97
4 5203 138
4 5204 155
4 5205 29
4 5206 94
4 5207 70
4 5208 69
4 5209 18
4 5210 172
4 5211 64
4 5212 106
4 5213 67
4 5214 142
4 5215 82
4 5216 219
4 5217 57
4 5218 152
4 5219 45
4 5220 223
4 5221 129
4 5222 14
4 5223 2
4 5224 60
4 5225 156
4 5226 151
4 5227 51
4 5228 161
4 5229 84
4 5230 112
4 5231 159
4 5232 179
4 5233 93
4 5234 111
4 5235 97
4 5236 94
4 5237 106
4 5238 108
4 5239 120
4 5240 67
4 5241 112
4 5242 90
4 5243 97
4 5244 149
4 5245 132
4 5246 122
4 5247 105
4 5248 72
4 5249 78
4 5250 136
4 5251 15
4 5252 61
4 5253 169
4 5254 126
4 5255 68
4 5256 151
4 5257 67
4 5258 88
4 5259 82
4 5260 72
4 5261 11
4 5262 177
4 5263 67
4 5264 83
4 5265 80
4 5266 151
4 5267 34
4 5268 461
4 5269 108
4 5270 132
4 5271 56
4 5272 140
4 5273 86
4 5274 70
4 5275 135
4 5276 192
4 5277 158
4 5278 116
4 5279 131
4 5280 70
4 5281 161
4 5282 217
4 5283 178
4 5284 79
4 5285 159
4 5286 85
4 5287 87
4 5288 117
4 5289 73
4 5290 106
4 5291 121
4 5292 104
4 5293 128
4 5294 86
4 5295 186
4 5296 141
4 5297 121
4 5298 152
4 5299 127
4 5300 109
4 5301 95
4 5302 29
4 5303 89
4 5304 83
4 5305 51
4 5306 158
4 5307 104
4 5308 157
4 5309 92
4 5310 71
4 5311 112
4 5312 67
4 5313 117
4 5314 144
4 5315 102
4 5316 159
4 5317 27
4 5318 172
4 5319 197
4 5320 39
4 5321 76
4 5322 101
4 5323 1165
4 5324 17
4 5325 46
4 5326 85
4 5327 79
4 5328 129
4 5329 126
4 5330 59
4 5331 99
4 5332 107
4 5333 131
4 5334 98
4 5335 99
4 5336 57
4 5337 160
4 5338 144
4 5339 181
4 5340 29
4 5341 116
4 5342 63
4 5343 393
4 5344 87
4 5345 92
4 5346 175
4 5347 87
4 5348 156
4 5349 122
4 5350 195
4 5351 91
4 5352 96
4 5353 83
4 5354 101
4 5355 119
4 5356 1930
4 5357 131
4 5358 172
4 5359 76
4 5360 66
4 5361 104
4 5362 112
4 5363 578
4 5364 76
4 5365 185
4 5366 68
4 5367 113
4 5368 153
4 5369 88
4 5370 34
4 5371 151
4 5372 56
4 5373 78
4 5374 136
4 5375 188
4 5376 91
4 5377 71
4 5378 196
4 5379 145
4 5380 133
4 5381 137
4 5382 25
4 5383 117
4 5384 51
4 5385 207
4 5386 82
4 5387 16
4 5388 69
4 5389 151
4 5390 215
4 5391 151
4 5392 96
4 5393 45
4 5394 122
4 5395 89
4 5396 131
4 5397 106
4 5398 97
4 5399 143
4 5400 100
4 5401 131
4 5402 132
4 5403 102
4 5404 99
4 5405 155
4 5406 82
4 5407 117
4 5408 78
4 5409 76
4 5410 73
4 5411 61
4 5412 73
4 5413 82
4 5414 91
4 5415 9
4 5416 57
4 5417 113
4 5418 18
4 5419 3
4 5420 206
4 5421 92
4 5422 112
4 5423 179
4 5424 20
4 5425 98
4 5426 76
4 5427 152
4 5428 92
4 5429 25
4 5430 114
4 5431 73
4 5432 126
4 5433 86
4 5434 103
4 5435 71
4 5436 85
4 5437 180
4 5438 50
4 5439 45
4 5440 64
4 5441 86
4 5442 82
4 5443 153
4 5444 71
4 5445 64
4 5446 80
4 5447 102
4 5448 105
4 5449 50
4 5450 63
4 5451 130
4 5452 140
4 5453 114
4 5454 33
4 5455 168
4 5456 65
4 5457 135
4 5458 211
4 5459 98
4 5460 95
4 5461 105
4 5462 118
4 5463 58
4 5464 82
4 5465 183
4 5466 191
4 5467 74
4 5468 89
4 5469 82
4 5470 203
4 5471 66
4 5472 115
4 5473 69
4 5474 114
4 5475 80
4 5476 112
4 5477 110
4 5478 119
4 5479 142
4 5480 59
4 5481 88
4 5482 90
4 5483 76
4 5484 70
4 5485 111
4 5486 98
4 5487 138
4 5488 154
4 5489 60
4 5490 156
4 5491 133
4 5492 48
4 5493 89
4 5494 61
4 5495 112
4 5496 233
4 5497 112
4 5498 63
4 5499 121
4 5500 68
4 5501 53
4 5502 83
4 5503 72
4 5504 66
4 5505 56
4 5506 51
4 5507 98
4 5508 112
4 5509 194
4 5510 50
4 5511 38
4 5512 62
4 5513 88
4 5514 58
4 5515 207
4 5516 31
4 5517 106
4 5518 62
4 5519 168
4 5520 130
4 5521 39
4 5522 78
4 5523 88
4 5524 35
4 5525 123
4 5526 59
4 5527 75
4 5528 119
4 5529 148
4 5530 118
4 5531 47
4 5532 85
4 5533 163
4 5534 58
4 5535 72
4 5536 79
4 5537 70
4 5538 99
4 5539 72
4 5540 123
4 5541 52
4 5542 139
4 5543 49
4 5544 155
4 5545 26
4 5546 42
4 5547 60
4 5548 49
4 5549 61
4 5550 120
4 5551 9
4 5552 61
4 5553 60
4 5554 124
4 5555 69
4 5556 9
4 5557 168
4 5558 91
4 5559 76
4 5560 62
4 5561 131
4 5562 87
4 5563 81
4 5564 76
4 5565 97
4 5566 23
4 5567 85
4 5568 97
4 5569 71
4 5570 71
4 5571 68
4 5572 202
4 5573 33
4 5574 135
4 5575 99
4 5576 107
4 5577 81
4 5578 183
4 5579 95
4 5580 129
4 5581 73
4 5582 51
4 5583 110
4 5584 80
4 5585 158
4 5586 65
4 5587 83
4 5588 78
4 5589 118
4 5590 62
4 5591 82
4 5592 88
4 5593 63
4 5594 57
4 5595 192
4 5596 49
4 5597 64
4 5598 99
4 5599 60
4 5600 78
4 5601 131
4 5602 59
4 5603 70
4 5604 145
4 5605 78
4 5606 120
4 5607 52
4 5608 35
4 5609 39
4 5610 27
4 5611 68
4 5612 91
4 5613 172
4 5614 94
4 5615 130
4 5616 14
4 5617 156
4 5618 24
4 5619 61
4 5620 40
4 5621 137
4 5622 87
4 5623 82
4 5624 89
4 5625 51
4 5626 120
4 5627 94
4 5628 108
4 5629 170
4 5630 113
4 5631 83
4 5632 173
4 5633 93
4 5634 120
4 5635 167
4 5636 81
4 5637 60
4 5638 93
4 5639 147
4 5640 21
4 5641 68
4 5642 139
4 5643 55
4 5644 204
4 5645 93
4 5646 108
4 5647 126
4 5648 82
4 5649 182
4 5650 65
4 5651 108
4 5652 70
4 5653 36
4 5654 2
4 5655 27
4 5656 68
4 5657 52
4 5658 34
4 5659 52
4 5660 33
4 5661 74
4 5662 46
4 5663 141
4 5664 125
4 5665 183
4 5666 16
4 5667 18
4 5668 63
4 5669 14
4 5670 19
4 5671 48
4 5672 14
4 5673 76
4 5674 73
4 5675 59
4 5676 84
4 5677 86
4 5678 18
4 5679 15
4 5680 110
4 5681 25
4 5682 49
4 5683 59
4 5684 64
4 5685 14
4 5686 21
4 5687 60
4 5688 104
4 5689 64
4 5690 199
4 5691 28
4 5692 32
4 5693 23
4 5694 11
4 5695 10
4 5696 51
4 5697 68
4 5698 60
4 5699 41
4 5700 3
4 5701 193
4 5702 46
4 5703 3
4 5704 49
4 5705 19
4 5706 7
4 5707 15
4 5708 4
4 5709 9
4 5710 14
4 5711 7
4 5712 5
4 5713 3
4 5714 6
4 5715 18
4 5719 1
5 1 250
5 2 477
5 3 134689
5 4 121
5 5 89
5 6 161
5 7 157
5 8 191
5 9 112
5 10 118
5 11 183
5 12 160
5 13 162
5 14 133
5 15 236
5 16 66
5 17 107
5 18 151
5 19 4597
5 20 151
5 21 107
5 22 225
5 23 165
5 24 125
5 25 216
5 26 187
5 27 104
5 28 121
5 29 81
5 30 67
5 31 5315
5 32 76
5 33 153
5 34 204
5 35 37
5 36 171
5 37 158
5 38 134
5 39 130
5 40 110
5 41 146
5 42 56664
5 43 172
5 44 100
5 45 38
5 46 245
5 47 123
5 48 188
5 49 125
5 50 102
5 51 173
5 52 126
5 53 82
5 54 81
5 55 264
5 56 214
5 57 127
5 58 110
5 59 167
5 60 201
5 61 200
5 62 180
5 63 208
5 64 175
5 65 244
5 66 154
5 67 112
5 68 142
5 69 115
5 70 209
5 71 207718
5 72 126
5 73 135
5 74 147
5 75 160
5 76 127
5 77 233
5 78 100
5 79 378
5 80 109
5 81 281
5 82 126
5 83 164
5 84 152
5 85 175
5 86 107
5 87 164
5 88 9454
5 89 23126
5 90 214
5 91 127
5 92 134
5 93 173
5 94 103
5 95 130
5 96 110
5 97 217
5 98 185
5 99 156
5 100 102
5 101 129
5 102 66
5 103 16412
5 104 131
5 105 163
5 106 64
5 107 146
5 108 156
5 109 117
5 110 82
5 111 81
5 112 113
5 113 138
5 114 100
5 115 150
5 116 5388
5 117 114
5 118 112
5 119 223
5 120 220
5 121 163
5 122 18012
5 123 92
5 124 286
5 125 164
5 126 38
5 127 7484
5 128 154
5 129 141
5 130 186
5 131 108
5 132 157
5 133 194
5 134 92
5 135 213021
5 136 95
5 137 29348
5 138 179
5 139 342
5 140 327
5 141 164
5 142 117
5 143 189
5 144 191
5 145 92
5 146 102
5 147 182
5 148 188
5 149 168
5 150 67
5 151 77
5 152 57713
5 153 158
5 154 26603
5 155 148
5 156 209
5 157 73
5 158 148
5 159 217
5 160 204
5 161 249
5 162 106
5 163 11384
5 164 150
5 165 204
5 166 222
5 167 198
5 168 62
5 169 105
5 170 164
5 171 169
5 172 426
5 173 159
5 174 16431
5 175 129
5 176 212
5 177 71
5 178 43395
5 179 81
5 180 162
5 181 107
5 182 202
5 183 144
5 184 7997
5 185 119
5 186 7610
5 187 170
5 188 209
5 189 142
5 190 129
5 191 152
5 192 126
5 193 84
5 194 181
5 195 86
5 196 137
5 197 71
5 198 146
5 199 103
5 200 204
5 201 200
5 202 171
5 203 120
5 204 114
5 205 814
5 206 105
5 207 195
5 208 30
5 209 149
5 210 127
5 211 177
5 212 112
5 213 179
5 214 69
5 215 310
5 216 167
5 217 158
5 218 90
5 219 177
5 220 94
5 221 11627
5 222 130
5 223 20458
5 224 108
5 225 138
5 226 106
5 227 121
5 228 118
5 229 137
5 230 134
5 231 85
5 232 186
5 233 134
5 234 1828
5 235 44
5 236 169
5 237 112
5 238 17430
5 239 169
5 240 203
5 241 91
5 242 161
5 243 212
5 244 222
5 245 161
5 246 185
5 247 121
5 248 148
5 249 150
5 250 291
5 251 55
5 252 61
5 253 103
5 254 64
5 255 86
5 256 167
5 257 207
5 258 531
5 259 148
5 260 147
5 261 8493
5 262 186
5 263 103
5 264 191
5 265 40958
5 266 1444
5 267 50
5 268 46108
5 269 225
5 270 13123
5 271 175
5 272 153
5 273 100
5 274 156
5 275 79
5 276 289
5 277 216
5 278 18978
5 279 159
5 280 111
5 281 145
5 282 44995
5 283 145
5 284 140
5 285 210
5 286 128
5 287 171
5 288 164
5 289 19
5 290 155
5 291 148
5 292 180
5 293 177
5 294 132
5 295 91
5 296 165
5 297 198
5 298 129
5 299 158
5 300 107
5 301 178
5 302 75
5 303 154
5 304 170
5 305 13
5 306 138
5 307 191
5 308 127
5 309 111
5 310 165
5 311 161
5 312 10461
5 313 150
5 314 109
5 315 137
5 316 111
5 317 142
5 318 155
5 319 110
5 320 29581
5 321 106
5 322 151
5 323 146
5 324 139
5 325 116
5 326 126
5 327 16647
5 328 115
5 329 12859
5 330 203
5 331 152
5 332 48
5 333 49512
5 334 28
5 335 169
5 336 61
5 337 127
5 338 95
5 339 107
5 340 181
5 341 9070
5 342 111
5 343 96
5 344 115
5 345 141
5 346 14409
5 347 73
5 348 134
5 349 189
5 350 21108
5 351 126
5 352 10249
5 353 129
5 354 97
5 355 81
5 356 166
5 357 107
5 358 167
5 359 235
5 360 13624
5 361 15960
5 362 236
5 363 14549
5 364 97
5 365 95
5 366 96
5 367 17193
5 368 81
5 369 100
5 370 92
5 371 74
5 372 99
5 373 166
5 374 144
5 375 105
5 376 211
5 377 141
5 378 176
5 379 147
5 380 101
5 381 84
5 382 162
5 383 155
5 384 164
5 385 132
5 386 95
5 387 123
5 388 140
5 389 155
5 390 125
5 391 97
5 392 194
5 393 149
5 394 35073
5 395 171
5 396 223
5 397 2104
5 398 173
5 399 132
5 400 128
5 401 135
5 402 81
5 403 207
5 404 129
5 405 89
5 406 23149
5 407 147
5 408 174
5 409 156
5 410 94
5 411 146
5 412 130
5 413 123
5 414 105
5 415 206
5 416 83
5 417 81
5 418 6886
5 419 107
5 420 244
5 421 238
5 422 104
5 423 99
5 424 52812
5 425 167
5 426 158
5 427 169
5 428 55318
5 429 177
5 430 30987
5 431 119
5 432 20442
5 433 125
5 434 144
5 435 137
5 436 12466
5 437 15929
5 438 66
5 439 86
5 440 184
5 441 110
5 442 180
5 443 138
5 444 129
5 445 130
5 446 164
5 447 133
5 448 166
5 449 138
5 450 132
5 451 115
5 452 160
5 453 180
5 454 35918
5 455 195
5 456 159
5 457 88
5 458 128
5 459 83
5 460 192
5 461 174
5 462 132
5 463 128
5 464 126
5 465 344
5 466 142
5 467 124
5 468 125
5 469 113
5 470 247
5 471 6294
5 472 112
5 473 154
5 474 229
5 475 176
5 476 125
5 477 88
5 478 194
5 479 88
5 480 171
5 481 119
5 482 176
5 483 153
5 484 149
5 485 121
5 486 181
5 487 110
5 488 82
5 489 161
5 490 153
5 491 132
5 492 96
5 493 89
5 494 128
5 495 64
5 496 68
5 497 190
5 498 69
5 499 141
5 500 130
5 501 13622
5 502 113
5 503 60
5 504 73
5 505 89
5 506 201
5 507 101
5 508 255
5 509 84
5 510 139
5 511 69
5 512 84
5 513 153
5 514 140
5 515 184
5 516 121
5 517 176
5 518 23639
5 519 98
5 520 165
5 521 78
5 522 205
5 523 108
5 524 142
5 525 2531
5 526 11169
5 527 148
5 528 134
5 529 113
5 530 113
5 531 146
5 532 80
5 533 135
5 534 109
5 535 157
5 536 99
5 537 146
5 538 65
5 539 129
5 540 91
5 541 138
5 542 5419
5 543 164
5 544 151
5 545 220
5 546 131
5 547 165
5 548 4716
5 549 110
5 550 60
5 551 166
5 552 275
5 553 201
5 554 137
5 555 6104
5 556 84
5 557 60
5 558 233
5 559 113
5 560 180
5 561 73
5 562 93
5 563 10921
5 564 87
5 565 121
5 566 153
5 567 1071
5 568 94
5 569 129
5 570 183
5 571 138
5 572 84
5 573 114
5 574 191
5 575 243
5 576 163
5 577 245
5 578 186
5 579 122
5 580 143
5 581 167
5 582 73
5 583 158
5 584 112
5 585 143
5 586 89
5 587 128
5 588 134
5 589 136
5 590 151
5 591 140
5 592 96
5 593 86
5 594 102
5 595 146
5 596 127
5 597 178
5 598 62
5 599 126
5 600 82
5 601 72
5 602 136
5 603 120
5 604 107
5 605 99
5 606 159
5 607 74
5 608 53
5 609 112
5 610 165
5 611 183
5 612 230
5 613 64
5 614 141
5 615 144
5 616 33274
5 617 111
5 618 142
5 619 262
5 620 76
5 621 1380
5 622 6173
5 623 155
5 624 132
5 625 178
5 626 143
5 627 180
5 628 183
5 629 126
5 630 136
5 631 104
5 632 176
5 633 962
5 634 145
5 635 122
5 636 161
5 637 103
5 638 80
5 639 74
5 640 122
5 641 13446
5 642 110
5 643 30289
5 644 165
5 645 145
5 646 110
5 647 153
5 648 160
5 649 110
5 650 165
5 651 155
5 652 248
5 653 173
5 654 153
5 655 91
5 656 68
5 657 111
5 658 178
5 659 304
5 660 36
5 661 124
5 662 145
5 663 139
5 664 98
5 665 63
5 666 171
5 667 142
5 668 208
5 669 165
5 670 11057
5 671 3609
5 672 176
5 673 135
5 674 313
5 675 122
5 676 51
5 677 133
5 678 118
5 679 144
5 680 174
5 681 88
5 682 194
5 683 126
5 684 153
5 685 25227
5 686 4496
5 687 181
5 688 178
5 689 146
5 690 55
5 691 16470
5 692 87
5 693 151
5 694 259
5 695 147
5 696 94
5 697 25079
5 698 60
5 699 155
5 700 164
5 701 191
5 702 85
5 703 112
5 704 161
5 705 100
5 706 52
5 707 111
5 708 98
5 709 182
5 710 111
5 711 213
5 712 116
5 713 140
5 714 219
5 715 13739
5 716 134
5 717 70
5 718 94
5 719 206
5 720 131
5 721 74
5 722 137
5 723 79
5 724 155
5 725 163
5 726 145
5 727 200
5 728 150
5 729 163
5 730 60
5 731 174
5 732 71
5 733 122
5 734 81
5 735 217
5 736 123
5 737 189
5 738 73
5 739 109
5 740 12566
5 741 221
5 742 84
5 743 90
5 744 156
5 745 139
5 746 82
5 747 164
5 748 152
5 749 58
5 750 164
5 751 113
5 752 122
5 753 120
5 754 166
5 755 71
5 756 203
5 757 155
5 758 434
5 759 158
5 760 104
5 761 9491
5 762 180
5 763 101
5 764 207
5 765 3680
5 766 178
5 767 107
5 768 178
5 769 108
5 770 145
5 771 4121
5 772 55
5 773 132
5 774 179
5 775 150
5 776 140
5 777 137
5 778 151
5 779 163
5 780 128
5 781 81
5 782 169
5 783 173
5 784 18026
5 785 93
5 786 131
5 787 126
5 788 17660
5 789 189
5 790 90
5 791 176
5 792 177
5 793 3305
5 794 8049
5 795 130
5 796 96
5 797 147
5 798 122
5 799 174
5 800 76
5 801 118
5 802 133
5 803 141
5 804 162
5 805 120
5 806 190
5 807 99
5 808 120
5 809 124
5 810 164
5 811 104
5 812 112
5 813 110
5 814 61
5 815 94
5 816 342
5 817 163
5 818 187
5 819 193
5 820 131
5 821 146
5 822 1273
5 823 16942
5 824 14922
5 825 7574
5 826 145
5 827 71
5 828 167
5 829 86
5 830 143
5 831 13694
5 832 97
5 833 124
5 834 8873
5 835 122
5 836 135
5 837 109
5 838 131
5 839 236
5 840 68
5 841 159
5 842 100
5 843 154
5 844 151
5 845 86
5 846 76
5 847 83
5 848 166
5 849 160
5 850 172
5 851 9696
5 852 103
5 853 71
5 854 101
5 855 139
5 856 169
5 857 101
5 858 161
5 859 137
5 860 155
5 861 111
5 862 47
5 863 134
5 864 134
5 865 29828
5 866 91
5 867 66
5 868 111
5 869 118
5 870 189
5 871 82
5 872 121
5 873 4528
5 874 137
5 875 156
5 876 178
5 877 90
5 878 162
5 879 92
5 880 138
5 881 962
5 882 108
5 883 67
5 884 128
5 885 125
5 886 149
5 887 120
5 888 145
5 889 145
5 890 116
5 891 86
5 892 119
5 893 145
5 894 122
5 895 142
5 896 134
5 897 114
5 898 175
5 899 139
5 900 124
5 901 10500
5 902 997
5 903 178
5 904 89
5 905 4449
5 906 147
5 907 121
5 908 219
5 909 145
5 910 247
5 911 17799
5 912 160
5 913 67
5 914 36044
5 915 135
5 916 182
5 917 119
5 918 95
5 919 137
5 920 154
5 921 198
5 922 99
5 923 149
5 924 209
5 925 1056
5 926 104
5 927 123
5 928 144
5 929 80
5 930 158
5 931 141
5 932 129
5 933 137
5 934 158
5 935 176
5 936 140
5 937 131
5 938 92
5 939 6432
5 940 131
5 941 152
5 942 223
5 943 104
5 944 193
5 945 101
5 946 75
5 947 168
5 948 149
5 949 35
5 950 466
5 951 163
5 952 93
5 953 82
5 954 1960
5 955 75456
5 956 107
5 957 110
5 958 89
5 959 158
5 960 108
5 961 147
5 962 88
5 963 183
5 964 112
5 965 139
5 966 185
5 967 103
5 968 300
5 969 87
5 970 189
5 971 231
5 972 191
5 973 156
5 974 34341
5 975 168
5 976 70
5 977 5708
5 978 89
5 979 65
5 980 9331
5 981 99
5 982 55
5 983 1472
5 984 80
5 985 145
5 986 148
5 987 155
5 988 72
5 989 211
5 990 69
5 991 143
5 992 98
5 993 146
5 994 183
5 995 109
5 996 601
5 997 61
5 998 117
5 999 96
5 1000 521
5 1001 82
5 1002 242
5 1003 136
5 1004 142
5 1005 123
5 1006 60
5 1007 168
5 1008 102
5 1009 167
5 1010 107
5 1011 151
5 1012 163
5 1013 129
5 1014 250
5 1015 7561
5 1016 78
5 1017 5300
5 1018 62
5 1019 144
5 1020 1229
5 1021 74
5 1022 148
5 1023 127
5 1024 145
5 1025 149
5 1026 255
5 1027 1321
5 1028 127
5 1029 136
5 1030 194
5 1031 146
5 1032 72
5 1033 141
5 1034 232
5 1035 152
5 1036 100
5 1037 141
5 1038 160
5 1039 165
5 1040 68
5 1041 271
5 1042 128
5 1043 170
5 1044 21873
5 1045 124
5 1046 86
5 1047 219
5 1048 95
5 1049 284
5 1050 171
5 1051 80
5 1052 138
5 1053 114
5 1054 259
5 1055 71
5 1056 121
5 1057 91
5 1058 99
5 1059 178
5 1060 82
5 1061 42090
5 1062 25978
5 1063 141
5 1064 104
5 1065 138
5 1066 25517
5 1067 130
5 1068 111
5 1069 193
5 1070 79
5 1071 73
5 1072 107
5 1073 75
5 1074 102
5 1075 180
5 1076 115
5 1077 248
5 1078 114
5 1079 1650
5 1080 1378
5 1081 115
5 1082 127
5 1083 129
5 1084 71
5 1085 140
5 1086 113
5 1087 135
5 1088 105
5 1089 3947
5 1090 76
5 1091 165
5 1092 102
5 1093 188
5 1094 89
5 1095 105
5 1096 122
5 1097 144
5 1098 161
5 1099 144
5 1100 64
5 1101 152
5 1102 83
5 1103 136
5 1104 167
5 1105 129
5 1106 133
5 1107 13626
5 1108 107
5 1109 157
5 1110 3471
5 1111 128
5 1112 121
5 1113 117
5 1114 145
5 1115 4636
5 1116 121
5 1117 3193
5 1118 112
5 1119 99
5 1120 138
5 1121 130
5 1122 115
5 1123 195
5 1124 1811
5 1125 116
5 1126 64
5 1127 125
5 1128 123
5 1129 150
5 1130 384
5 1131 20972
5 1132 89
5 1133 155
5 1134 138
5 1135 175
5 1136 110
5 1137 112
5 1138 197
5 1139 175
5 1140 92
5 1141 251
5 1142 135
5 1143 141
5 1144 173
5 1145 112
5 1146 130
5 1147 163
5 1148 101
5 1149 144
5 1150 559
5 1151 1440
5 1152 177
5 1153 126
5 1154 121
5 1155 91
5 1156 16887
5 1157 106
5 1158 141
5 1159 81
5 1160 121
5 1161 147
5 1162 88
5 1163 10680
5 1164 181
5 1165 11311
5 1166 120
5 1167 74
5 1168 124
5 1169 140
5 1170 11387
5 1171 182
5 1172 5552
5 1173 134
5 1174 109
5 1175 177
5 1176 82
5 1177 154
5 1178 118
5 1179 62
5 1180 132
5 1181 99
5 1182 207
5 1183 135
5 1184 13527
5 1185 101
5 1186 139
5 1187 166
5 1188 89
5 1189 88
5 1190 233
5 1191 147
5 1192 116
5 1193 8815
5 1194 65
5 1195 124
5 1196 138
5 1197 112
5 1198 147
5 1199 116
5 1200 145
5 1201 158
5 1202 132
5 1203 124
5 1204 85
5 1205 125
5 1206 13740
5 1207 104
5 1208 148
5 1209 75
5 1210 90
5 1211 160
5 1212 18523
5 1213 123
5 1214 108
5 1215 117
5 1216 12704
5 1217 132
5 1218 145
5 1219 99
5 1220 203
5 1221 73
5 1222 8040
5 1223 66
5 1224 140
5 1225 151
5 1226 61
5 1227 115
5 1228 145
5 1229 98
5 1230 179
5 1231 165
5 1232 109
5 1233 124
5 1234 135
5 1235 142
5 1236 116
5 1237 116
5 1238 194
5 1239 167
5 1240 103
5 1241 164
5 1242 127
5 1243 108
5 1244 150
5 1245 98
5 1246 34730
5 1247 108
5 1248 94
5 1249 137
5 1250 131
5 1251 9085
5 1252 98
5 1253 149
5 1254 322
5 1255 247
5 1256 66
5 1257 114
5 1258 133
5 1259 121
5 1260 299
5 1261 113
5 1262 146
5 1263 204
5 1264 77
5 1265 126
5 1266 103
5 1267 103
5 1268 162
5 1269 7487
5 1270 149
5 1271 88
5 1272 141
5 1273 99
5 1274 165
5 1275 90
5 1276 856
5 1277 131
5 1278 109
5 1279 84
5 1280 168
5 1281 25
5 1282 151
5 1283 83
5 1284 132
5 1285 154
5 1286 188
5 1287 167
5 1288 433
5 1289 140
5 1290 340
5 1291 133
5 1292 68
5 1293 14868
5 1294 55
5 1295 82
5 1296 195
5 1297 54
5 1298 159
5 1299 198
5 1300 3134
5 1301 136
5 1302 215
5 1303 4624
5 1304 14002
5 1305 135
5 1306 131
5 1307 120
5 1308 133
5 1309 192
5 1310 183
5 1311 88
5 1312 105
5 1313 84
5 1314 116
5 1315 66
5 1316 92
5 1317 184
5 1318 134
5 1319 9630
5 1320 117
5 1321 146
5 1322 125
5 1323 141
5 1324 222
5 1325 131
5 1326 14416
5 1327 110
5 1328 125
5 1329 112
5 1330 78
5 1331 134
5 1332 104
5 1333 264
5 1334 137
5 1335 160
5 1336 767
5 1337 137
5 1338 118
5 1339 82
5 1340 13618
5 1341 202
5 1342 123
5 1343 225
5 1344 163
5 1345 63
5 1346 148
5 1347 166
5 1348 60
5 1349 97
5 1350 112
5 1351 124
5 1352 95
5 1353 115
5 1354 158
5 1355 116
5 1356 96
5 1357 106
5 1358 171
5 1359 135
5 1360 109
5 1361 62
5 1362 8306
5 1363 87
5 1364 25
5 1365 107
5 1366 76
5 1367 210
5 1368 119
5 1369 130
5 1370 127
5 1371 193
5 1372 84
5 1373 106
5 1374 189
5 1375 159
5 1376 77
5 1377 144
5 1378 102
5 1379 157
5 1380 155
5 1381 243
5 1382 162
5 1383 139
5 1384 124
5 1385 163
5 1386 104
5 1387 150
5 1388 130
5 1389 165
5 1390 2473
5 1391 3860
5 1392 173
5 1393 61
5 1394 112
5 1395 124
5 1396 108
5 1397 118
5 1398 76
5 1399 82
5 1400 373
5 1401 170
5 1402 62
5 1403 110
5 1404 111
5 1405 191
5 1406 165
5 1407 127
5 1408 144
5 1409 166
5 1410 157
5 1411 159
5 1412 100
5 1413 120
5 1414 163
5 1415 102
5 1416 149
5 1417 112
5 1418 72
5 1419 176
5 1420 5265
5 1421 83
5 1422 9186
5 1423 93
5 1424 141
5 1425 26393
5 1426 140
5 1427 169
5 1428 69
5 1429 5035
5 1430 126
5 1431 165
5 1432 74
5 1433 123
5 1434 93
5 1435 12505
5 1436 143
5 1437 101
5 1438 153
5 1439 86
5 1440 137
5 1441 112
5 1442 169
5 1443 78
5 1444 73
5 1445 159
5 1446 68
5 1447 261
5 1448 98
5 1449 134
5 1450 593
5 1451 152
5 1452 478
5 1453 202
5 1454 102
5 1455 113
5 1456 117
5 1457 232
5 1458 73
5 1459 114
5 1460 68
5 1461 48
5 1462 136
5 1463 133
5 1464 152
5 1465 190
5 1466 103
5 1467 148
5 1468 125
5 1469 6
5 1470 126
5 1471 60
5 1472 137
5 1473 121
5 1474 145
5 1475 137
5 1476 185
5 1477 93
5 1478 122
5 1479 257
5 1480 389
5 1481 120
5 1482 13727
5 1483 82
5 1484 133
5 1485 189
5 1486 157
5 1487 99
5 1488 152
5 1489 129
5 1490 133
5 1491 121
5 1492 256
5 1493 127
5 1494 200
5 1495 5818
5 1496 100
5 1497 894
5 1498 124
5 1499 164
5 1500 80
5 1501 110
5 1502 85
5 1503 159
5 1504 178
5 1505 134
5 1506 82
5 1507 78
5 1508 126
5 1509 385
5 1510 224
5 1511 150
5 1512 167
5 1513 420
5 1514 90
5 1515 137
5 1516 147
5 1517 67
5 1518 143
5 1519 125
5 1520 206
5 1521 101
5 1522 196
5 1523 120
5 1524 151
5 1525 183
5 1526 152
5 1527 116
5 1528 76
5 1529 268
5 1530 135
5 1531 107
5 1532 154
5 1533 268
5 1534 194
5 1535 124
5 1536 75
5 1537 91
5 1538 82
5 1539 40
5 1540 142
5 1541 145
5 1542 261
5 1543 110
5 1544 105
5 1545 157
5 1546 100
5 1547 3263
5 1548 81
5 1549 61
5 1550 151
5 1551 160
5 1552 81
5 1553 50
5 1554 134
5 1555 9067
5 1556 55
5 1557 94
5 1558 205
5 1559 192
5 1560 80
5 1561 135
5 1562 83
5 1563 103
5 1564 110
5 1565 19614
5 1566 121
5 1567 160
5 1568 399
5 1569 6922
5 1570 10452
5 1571 164
5 1572 147
5 1573 168
5 1574 121
5 1575 16737
5 1576 108
5 1577 171
5 1578 134
5 1579 151
5 1580 87
5 1581 80
5 1582 142
5 1583 138
5 1584 109
5 1585 145
5 1586 90
5 1587 171
5 1588 85
5 1589 151
5 1590 93
5 1591 155
5 1592 140
5 1593 137
5 1594 97
5 1595 116
5 1596 129
5 1597 101
5 1598 41
5 1599 208
5 1600 841
5 1601 57
5 1602 89
5 1603 104
5 1604 199
5 1605 91
5 1606 5782
5 1607 98
5 1608 152
5 1609 132
5 1610 75
5 1611 198
5 1612 131
5 1613 96
5 1614 137
5 1615 81
5 1616 168
5 1617 87
5 1618 3790
5 1619 136
5 1620 142
5 1621 122
5 1622 109
5 1623 145
5 1624 143
5 1625 70
5 1626 128
5 1627 201
5 1628 456
5 1629 176
5 1630 4211
5 1631 70
5 1632 122
5 1633 81
5 1634 108
5 1635 112
5 1636 151
5 1637 184
5 1638 209
5 1639 152
5 1640 139
5 1641 82
5 1642 169
5 1643 136
5 1644 55
5 1645 4363
5 1646 154
5 1647 135
5 1648 92
5 1649 62
5 1650 118
5 1651 75
5 1652 135
5 1653 266
5 1654 140
5 1655 277
5 1656 81
5 1657 112
5 1658 107
5 1659 968
5 1660 138
5 1661 129
5 1662 131
5 1663 148
5 1664 164
5 1665 179
5 1666 147
5 1667 129
5 1668 854
5 1669 67
5 1670 85
5 1671 68
5 1672 155
5 1673 18694
5 1674 349
5 1675 127
5 1676 166
5 1677 65
5 1678 50
5 1679 172
5 1680 81
5 1681 118
5 1682 100
5 1683 78
5 1684 87
5 1685 155
5 1686 139
5 1687 86
5 1688 130
5 1689 86
5 1690 58
5 1691 93
5 1692 121
5 1693 112
5 1694 134
5 1695 142
5 1696 66
5 1697 292
5 1698 82
5 1699 76
5 1700 133
5 1701 125
5 1702 108
5 1703 66
5 1704 154
5 1705 66
5 1706 137
5 1707 71
5 1708 114
5 1709 102
5 1710 140
5 1711 37
5 1712 28482
5 1713 10302
5 1714 95
5 1715 83
5 1716 85
5 1717 77
5 1718 98
5 1719 124
5 1720 3171
5 1721 151
5 1722 87
5 1723 82
5 1724 159
5 1725 11391
5 1726 9232
5 1727 5912
5 1728 201
5 1729 116
5 1730 123
5 1731 78
5 1732 138
5 1733 139
5 1734 93
5 1735 217
5 1736 138
5 1737 103
5 1738 161
5 1739 91
5 1740 163
5 1741 86
5 1742 146
5 1743 96
5 1744 1290
5 1745 4434
5 1746 87
5 1747 1552
5 1748 99
5 1749 203
5 1750 3656
5 1751 86
5 1752 160
5 1753 90
5 1754 4028
5 1755 247
5 1756 127
5 1757 221
5 1758 97
5 1759 64
5 1760 222
5 1761 261
5 1762 127
5 1763 112
5 1764 85
5 1765 64
5 1766 62
5 1767 67
5 1768 168
5 1769 115
5 1770 173
5 1771 80
5 1772 112
5 1773 83
5 1774 94
5 1775 109
5 1776 100
5 1777 116
5 1778 180
5 1779 175
5 1780 76
5 1781 146
5 1782 141
5 1783 147
5 1784 92
5 1785 71
5 1786 148
5 1787 125
5 1788 6110
5 1789 303
5 1790 225
5 1791 80
5 1792 119
5 1793 150
5 1794 136
5 1795 114
5 1796 63
5 1797 89
5 1798 189
5 1799 85
5 1800 156
5 1801 112
5 1802 81
5 1803 148
5 1804 143
5 1805 59
5 1806 129
5 1807 79
5 1808 108
5 1809 435
5 1810 69
5 1811 7612
5 1812 94
5 1813 86
5 1814 141
5 1815 144
5 1816 134
5 1817 68
5 1818 63
5 1819 119
5 1820 160
5 1821 115
5 1822 106
5 1823 157
5 1824 75
5 1825 150
5 1826 55
5 1827 79
5 1828 88
5 1829 202
5 1830 223
5 1831 131
5 1832 111
5 1833 124
5 1834 93
5 1835 71
5 1836 97
5 1837 154
5 1838 77
5 1839 153
5 1840 230
5 1841 2094
5 1842 7647
5 1843 228
5 1844 229
5 1845 161
5 1846 149
5 1847 131
5 1848 123
5 1849 56
5 1850 150
5 1851 2241
5 1852 109
5 1853 139
5 1854 154
5 1855 78
5 1856 170
5 1857 118
5 1858 89
5 1859 119
5 1860 154
5 1861 90
5 1862 124
5 1863 239
5 1864 74
5 1865 176
5 1866 213
5 1867 112
5 1868 79
5 1869 129
5 1870 97
5 1871 121
5 1872 130
5 1873 72
5 1874 123
5 1875 159
5 1876 91
5 1877 178
5 1878 59
5 1879 62
5 1880 6898
5 1881 149
5 1882 59
5 1883 93
5 1884 121
5 1885 151
5 1886 103
5 1887 62
5 1888 8061
5 1889 75
5 1890 93
5 1891 178
5 1892 122
5 1893 120
5 1894 60
5 1895 448
5 1896 136
5 1897 167
5 1898 122
5 1899 62
5 1900 154
5 1901 177
5 1902 139
5 1903 132
5 1904 208
5 1905 63
5 1906 117
5 1907 128
5 1908 122
5 1909 141
5 1910 193
5 1911 85
5 1912 635
5 1913 128
5 1914 97
5 1915 88
5 1916 86
5 1917 173
5 1918 5971
5 1919 67
5 1920 119
5 1921 113
5 1922 90
5 1923 47
5 1924 66
5 1925 106
5 1926 101
5 1927 104
5 1928 108
5 1929 46
5 1930 109
5 1931 104
5 1932 102
5 1933 1231
5 1934 5018
5 1935 135
5 1936 112
5 1937 191
5 1938 168
5 1939 120
5 1940 9845
5 1941 126
5 1942 180
5 1943 84
5 1944 81
5 1945 213
5 1946 201
5 1947 157
5 1948 135
5 1949 142
5 1950 99
5 1951 139
5 1952 106
5 1953 133
5 1954 147
5 1955 94
5 1956 100
5 1957 94
5 1958 109
5 1959 114
5 1960 108
5 1961 98
5 1962 102
5 1963 9581
5 1964 81
5 1965 736
5 1966 5461
5 1967 112
5 1968 9883
5 1969 129
5 1970 155
5 1971 150
5 1972 4491
5 1973 59
5 1974 897
5 1975 98
5 1976 69
5 1977 181
5 1978 163
5 1979 237
5 1980 112
5 1981 176
5 1982 146
5 1983 91
5 1984 4664
5 1985 82
5 1986 109
5 1987 210
5 1988 148
5 1989 93
5 1990 74
5 1991 616
5 1992 177
5 1993 3503
5 1994 146
5 1995 7307
5 1996 700
5 1997 2287
5 1998 126
5 1999 139
5 2000 172
5 2001 128
5 2002 172
5 2003 119
5 2004 65
5 2005 128
5 2006 13610
5 2007 54
5 2008 68
5 2009 112
5 2010 77
5 2011 142
5 2012 86
5 2013 99
5 2014 131
5 2015 155
5 2016 97
5 2017 137
5 2018 180
5 2019 136
5 2020 98
5 2021 102
5 2022 166
5 2023 6306
5 2024 58
5 2025 225
5 2026 193
5 2027 173
5 2028 86
5 2029 89
5 2030 171
5 2031 103
5 2032 168
5 2033 147
5 2034 66
5 2035 106
5 2036 117
5 2037 56
5 2038 141
5 2039 135
5 2040 7837
5 2041 119
5 2042 138
5 2043 97
5 2044 156
5 2045 152
5 2046 166
5 2047 145
5 2048 140
5 2049 159
5 2050 125
5 2051 264
5 2052 4695
5 2053 131
5 2054 129
5 2055 46
5 2056 146
5 2057 230
5 2058 72
5 2059 58
5 2060 164
5 2061 112
5 2062 118
5 2063 235
5 2064 74
5 2065 118
5 2066 88
5 2067 113
5 2068 156
5 2069 107
5 2070 3400
5 2071 152
5 2072 65
5 2073 143
5 2074 94
5 2075 119
5 2076 84
5 2077 146
5 2078 112
5 2079 66
5 2080 133
5 2081 98
5 2082 1315
5 2083 57
5 2084 140
5 2085 91
5 2086 206
5 2087 146
5 2088 109
5 2089 88
5 2090 86
5 2091 101
5 2092 96
5 2093 147
5 2094 17858
5 2095 7
5 2096 141
5 2097 310
5 2098 111
5 2099 113
5 2100 202
5 2101 84
5 2102 120
5 2103 7580
5 2104 81
5 2105 82
5 2106 131
5 2107 94
5 2108 161
5 2109 66
5 2110 97
5 2111 84
5 2112 126
5 2113 123
5 2114 151
5 2115 73
5 2116 105
5 2117 129
5 2118 92
5 2119 134
5 2120 168
5 2121 20896
5 2122 96
5 2123 113
5 2124 170
5 2125 78
5 2126 124
5 2127 142
5 2128 68
5 2129 149
5 2130 134
5 2131 122
5 2132 1218
5 2133 140
5 2134 8306
5 2135 109
5 2136 114
5 2137 60
5 2138 151
5 2139 143
5 2140 143
5 2141 97
5 2142 124
5 2143 134
5 2144 294
5 2145 155
5 2146 1122
5 2147 98
5 2148 137
5 2149 132
5 2150 4590
5 2151 414
5 2152 90
5 2153 154
5 2154 70
5 2155 84
5 2156 160
5 2157 151
5 2158 128
5 2159 2263
5 2160 57
5 2161 13
5 2162 104
5 2163 122
5 2164 285
5 2165 115
5 2166 176
5 2167 153
5 2168 5451
5 2169 241
5 2170 85
5 2171 163
5 2172 225
5 2173 174
5 2174 143
5 2175 2123
5 2176 106
5 2177 144
5 2178 78
5 2179 100
5 2180 160
5 2181 126
5 2182 1453
5 2183 162
5 2184 124
5 2185 165
5 2186 773
5 2187 103
5 2188 127
5 2189 136
5 2190 167
5 2191 161
5 2192 1666
5 2193 176
5 2194 169
5 2195 209
5 2196 95
5 2197 120
5 2198 476
5 2199 132
5 2200 8402
5 2201 188
5 2202 132
5 2203 88
5 2204 162
5 2205 202
5 2206 18803
5 2207 135
5 2208 80
5 2209 74
5 2210 126
5 2211 150
5 2212 150
5 2213 60
5 2214 115
5 2215 5177
5 2216 291
5 2217 71
5 2218 516
5 2219 13628
5 2220 198
5 2221 104
5 2222 92
5 2223 115
5 2224 92
5 2225 130
5 2226 119
5 2227 117
5 2228 109
5 2229 53
5 2230 189
5 2231 109
5 2232 96
5 2233 109
5 2234 89
5 2235 1737
5 2236 154
5 2237 129
5 2238 98
5 2239 165
5 2240 125
5 2241 62
5 2242 154
5 2243 93
5 2244 137
5 2245 144
5 2246 110
5 2247 113
5 2248 163
5 2249 179
5 2250 111
5 2251 81
5 2252 134
5 2253 9003
5 2254 89
5 2255 165
5 2256 221
5 2257 65
5 2258 170
5 2259 100
5 2260 9657
5 2261 72
5 2262 126
5 2263 194
5 2264 4381
5 2265 121
5 2266 95
5 2267 149
5 2268 143
5 2269 165
5 2270 96
5 2271 150
5 2272 155
5 2273 175
5 2274 71
5 2275 123
5 2276 115
5 2277 64
5 2278 171
5 2279 75
5 2280 115
5 2281 103
5 2282 118
5 2283 143
5 2284 60
5 2285 5527
5 2286 86
5 2287 121
5 2288 69
5 2289 134
5 2290 134
5 2291 65
5 2292 94
5 2293 299
5 2294 46
5 2295 190
5 2296 143
5 2297 135
5 2298 141
5 2299 429
5 2300 125
5 2301 63
5 2302 88
5 2303 86
5 2304 135
5 2305 176
5 2306 88
5 2307 125
5 2308 74
5 2309 123
5 2310 143
5 2311 138
5 2312 4471
5 2313 89
5 2314 2447
5 2315 171
5 2316 135
5 2317 145
5 2318 92
5 2319 145
5 2320 24908
5 2321 150
5 2322 5355
5 2323 190
5 2324 232
5 2325 83
5 2326 136
5 2327 139
5 2328 99
5 2329 203
5 2330 67
5 2331 137
5 2332 135
5 2333 78
5 2334 394
5 2335 24
5 2336 150
5 2337 67
5 2338 98
5 2339 145
5 2340 417
5 2341 151
5 2342 126
5 2343 100
5 2344 147
5 2345 75
5 2346 143
5 2347 118
5 2348 154
5 2349 135
5 2350 121
5 2351 123
5 2352 96
5 2353 64
5 2354 154
5 2355 144
5 2356 51
5 2357 161
5 2358 150
5 2359 123
5 2360 92
5 2361 68
5 2362 95
5 2363 3238
5 2364 49
5 2365 144
5 2366 74
5 2367 78
5 2368 83
5 2369 154
5 2370 91
5 2371 139
5 2372 144
5 2373 86
5 2374 184
5 2375 150
5 2376 178
5 2377 115
5 2378 154
5 2379 174
5 2380 148
5 2381 286
5 2382 132
5 2383 68
5 2384 75
5 2385 173
5 2386 154
5 2387 96
5 2388 96
5 2389 53
5 2390 141
5 2391 237
5 2392 92
5 2393 91
5 2394 153
5 2395 114
5 2396 169
5 2397 83
5 2398 114
5 2399 166
5 2400 117
5 2401 161
5 2402 96
5 2403 65
5 2404 133
5 2405 78
5 2406 151
5 2407 114
5 2408 114
5 2409 56
5 2410 105
5 2411 143
5 2412 84
5 2413 146
5 2414 106
5 2415 878
5 2416 128
5 2417 103
5 2418 4091
5 2419 199
5 2420 136
5 2421 184
5 2422 98
5 2423 92
5 2424 132
5 2425 145
5 2426 175
5 2427 189
5 2428 145
5 2429 128
5 2430 112
5 2431 160
5 2432 75
5 2433 144
5 2434 133
5 2435 76
5 2436 124
5 2437 65
5 2438 243
5 2439 89
5 2440 209
5 2441 113
5 2442 61
5 2443 254
5 2444 124
5 2445 82
5 2446 152
5 2447 89
5 2448 178
5 2449 160
5 2450 145
5 2451 160
5 2452 94
5 2453 56
5 2454 96
5 2455 288
5 2456 83
5 2457 165
5 2458 49
5 2459 98
5 2460 110
5 2461 68
5 2462 76
5 2463 81
5 2464 124
5 2465 2408
5 2466 102
5 2467 143
5 2468 1776
5 2469 70
5 2470 140
5 2471 128
5 2472 75
5 2473 327
5 2474 73
5 2475 112
5 2476 70
5 2477 142
5 2478 121
5 2479 145
5 2480 219
5 2481 126
5 2482 122
5 2483 145
5 2484 151
5 2485 81
5 2486 70
5 2487 120
5 2488 126
5 2489 170
5 2490 87
5 2491 55
5 2492 76
5 2493 117
5 2494 240
5 2495 116
5 2496 109
5 2497 190
5 2498 82
5 2499 214
5 2500 88
5 2501 199
5 2502 120
5 2503 42
5 2504 8011
5 2505 195
5 2506 101
5 2507 102
5 2508 160
5 2509 148
5 2510 537
5 2511 64
5 2512 70
5 2513 96
5 2514 139
5 2515 90
5 2516 1579
5 2517 1218
5 2518 164
5 2519 322
5 2520 90
5 2521 136
5 2522 95
5 2523 83
5 2524 136
5 2525 125
5 2526 40
5 2527 84
5 2528 93
5 2529 116
5 2530 88
5 2531 69
5 2532 126
5 2533 73
5 2534 303
5 2535 142
5 2536 1178
5 2537 103
5 2538 86
5 2539 533
5 2540 70
5 2541 154
5 2542 111
5 2543 69
5 2544 103
5 2545 104
5 2546 85
5 2547 149
5 2548 126
5 2549 174
5 2550 87
5 2551 102
5 2552 212
5 2553 112
5 2554 202
5 2555 87
5 2556 91
5 2557 122
5 2558 66
5 2559 62
5 2560 92
5 2561 57
5 2562 46
5 2563 126
5 2564 127
5 2565 80
5 2566 1063
5 2567 172
5 2568 2158
5 2569 118
5 2570 158
5 2571 100
5 2572 99
5 2573 125
5 2574 127
5 2575 147
5 2576 80
5 2577 80
5 2578 77
5 2579 136
5 2580 171
5 2581 157
5 2582 75
5 2583 260
5 2584 76
5 2585 65
5 2586 190
5 2587 121
5 2588 393
5 2589 115
5 2590 109
5 2591 77
5 2592 97
5 2593 88
5 2594 84
5 2595 1829
5 2596 143
5 2597 220
5 2598 131
5 2599 142
5 2600 185
5 2601 160
5 2602 100
5 2603 90
5 2604 88
5 2605 136
5 2606 221
5 2607 130
5 2608 59
5 2609 3681
5 2610 86
5 2611 134
5 2612 132
5 2613 60
5 2614 128
5 2615 11654
5 2616 9546
5 2617 65
5 2618 55
5 2619 143
5 2620 139
5 2621 47
5 2622 97
5 2623 63
5 2624 10879
5 2625 282
5 2626 114
5 2627 115
5 2628 144
5 2629 124
5 2630 159
5 2631 77
5 2632 73
5 2633 136
5 2634 122
5 2635 148
5 2636 112
5 2637 128
5 2638 285
5 2639 159
5 2640 74
5 2641 257
5 2642 154
5 2643 335
5 2644 155
5 2645 135
5 2646 130
5 2647 162
5 2648 61
5 2649 129
5 2650 81
5 2651 134
5 2652 4084
5 2653 78
5 2654 75
5 2655 138
5 2656 77
5 2657 4143
5 2658 138
5 2659 111
5 2660 78
5 2661 82
5 2662 130
5 2663 118
5 2664 90
5 2665 29
5 2666 152
5 2667 7355
5 2668 5
5 2669 102
5 2670 6445
5 2671 172
5 2672 156
5 2673 123
5 2674 93
5 2675 95
5 2676 170
5 2677 93
5 2678 187
5 2679 131
5 2680 87
5 2681 159
5 2682 206
5 2683 125
5 2684 80
5 2685 190
5 2686 143
5 2687 177
5 2688 77
5 2689 38
5 2690 9363
5 2691 160
5 2692 163
5 2693 75
5 2694 79
5 2695 83
5 2696 106
5 2697 132
5 2698 116
5 2699 164
5 2700 132
5 2701 88
5 2702 170
5 2703 108
5 2704 138
5 2705 85
5 2706 69
5 2707 160
5 2708 82
5 2709 117
5 2710 101
5 2711 173
5 2712 95
5 2713 176
5 2714 69
5 2715 133
5 2716 103
5 2717 101
5 2718 54
5 2719 279
5 2720 105
5 2721 138
5 2722 127
5 2723 193
5 2724 126
5 2725 57
5 2726 131
5 2727 170
5 2728 165
5 2729 98
5 2730 388
5 2731 99
5 2732 79
5 2733 125
5 2734 115
5 2735 153
5 2736 68
5 2737 132
5 2738 62
5 2739 6260
5 2740 80
5 2741 175
5 2742 152
5 2743 72
5 2744 123
5 2745 115
5 2746 109
5 2747 102
5 2748 267
5 2749 81
5 2750 93
5 2751 133
5 2752 62
5 2753 87
5 2754 106
5 2755 72
5 2756 68
5 2757 113
5 2758 86
5 2759 161
5 2760 151
5 2761 122
5 2762 126
5 2763 62
5 2764 109
5 2765 130
5 2766 153
5 2767 174
5 2768 107
5 2769 77
5 2770 68
5 2771 146
5 2772 81
5 2773 124
5 2774 78
5 2775 81
5 2776 161
5 2777 2144
5 2778 113
5 2779 81
5 2780 190
5 2781 121
5 2782 66
5 2783 134
5 2784 149
5 2785 155
5 2786 2359
5 2787 121
5 2788 111
5 2789 87
5 2790 98
5 2791 8879
5 2792 84
5 2793 118
5 2794 126
5 2795 151
5 2796 163
5 2797 163
5 2798 257
5 2799 78
5 2800 137
5 2801 182
5 2802 125
5 2803 86
5 2804 231
5 2805 97
5 2806 82
5 2807 56
5 2808 120
5 2809 138
5 2810 143
5 2811 92
5 2812 117
5 2813 108
5 2814 159
5 2815 145
5 2816 96
5 2817 72
5 2818 13
5 2819 133
5 2820 73
5 2821 154
5 2822 127
5 2823 133
5 2824 70
5 2825 80
5 2826 132
5 2827 106
5 2828 153
5 2829 161
5 2830 84
5 2831 7591
5 2832 104
5 2833 72
5 2834 80
5 2835 130
5 2836 75
5 2837 161
5 2838 673
5 2839 171
5 2840 47
5 2841 146
5 2842 167
5 2843 69
5 2844 77
5 2845 123
5 2846 113
5 2847 89
5 2848 68
5 2849 117
5 2850 253
5 2851 127
5 2852 49
5 2853 107
5 2854 110
5 2855 118
5 2856 271
5 2857 74
5 2858 117
5 2859 66
5 2860 135
5 2861 155
5 2862 86
5 2863 90
5 2864 145
5 2865 98
5 2866 173
5 2867 122
5 2868 3272
5 2869 79
5 2870 221
5 2871 142
5 2872 89
5 2873 35
5 2874 163
5 2875 155
5 2876 61
5 2877 145
5 2878 102
5 2879 160
5 2880 159
5 2881 72
5 2882 150
5 2883 114
5 2884 81
5 2885 87
5 2886 178
5 2887 139
5 2888 120
5 2889 77
5 2890 139
5 2891 680
5 2892 191
5 2893 59
5 2894 194
5 2895 104
5 2896 170
5 2897 124
5 2898 147
5 2899 153
5 2900 87
5 2901 88
5 2902 136
5 2903 220
5 2904 116
5 2905 196
5 2906 176
5 2907 436
5 2908 196
5 2909 76
5 2910 134
5 2911 239
5 2912 174
5 2913 95
5 2914 3939
5 2915 156
5 2916 4293
5 2917 127
5 2918 147
5 2919 77
5 2920 170
5 2921 241
5 2922 255
5 2923 76
5 2924 137
5 2925 80
5 2926 2211
5 2927 113
5 2928 146
5 2929 168
5 2930 93
5 2931 102
5 2932 107
5 2933 477
5 2934 118
5 2935 143
5 2936 61
5 2937 103
5 2938 82
5 2939 90
5 2940 98
5 2941 172
5 2942 110
5 2943 79
5 2944 107
5 2945 72
5 2946 125
5 2947 91
5 2948 76
5 2949 83
5 2950 377
5 2951 129
5 2952 75
5 2953 57
5 2954 108
5 2955 127
5 2956 37
5 2957 65
5 2958 89
5 2959 82
5 2960 151
5 2961 154
5 2962 106
5 2963 60
5 2964 73
5 2965 205
5 2966 71
5 2967 199
5 2968 61
5 2969 106
5 2970 254
5 2971 83
5 2972 88
5 2973 58
5 2974 277
5 2975 88
5 2976 87
5 2977 65
5 2978 238
5 2979 137
5 2980 82
5 2981 131
5 2982 95
5 2983 76
5 2984 102
5 2985 185
5 2986 54
5 2987 13
5 2988 1807
5 2989 84
5 2990 121
5 2991 117
5 2992 175
5 2993 75
5 2994 120
5 2995 852
5 2996 181
5 2997 148
5 2998 182
5 2999 9088
5 3000 138
5 3001 110
5 3002 145
5 3003 110
5 3004 96
5 3005 97
5 3006 127
5 3007 127
5 3008 215
5 3009 96
5 3010 86
5 3011 43
5 3012 156
5 3013 154
5 3014 113
5 3015 120
5 3016 70
5 3017 102
5 3018 146
5 3019 144
5 3020 86
5 3021 127
5 3022 110
5 3023 1400
5 3024 149
5 3025 87
5 3026 158
5 3027 122
5 3028 61
5 3029 29
5 3030 116
5 3031 89
5 3032 136
5 3033 193
5 3034 85
5 3035 118
5 3036 144
5 3037 140
5 3038 113
5 3039 7857
5 3040 69
5 3041 91
5 3042 143
5 3043 4560
5 3044 106
5 3045 148
5 3046 82
5 3047 147
5 3048 201
5 3049 117
5 3050 85
5 3051 145
5 3052 184
5 3053 131
5 3054 43
5 3055 97
5 3056 121
5 3057 53
5 3058 162
5 3059 183
5 3060 218
5 3061 89
5 3062 132
5 3063 231
5 3064 136
5 3065 117
5 3066 64
5 3067 182
5 3068 93
5 3069 84
5 3070 275
5 3071 188
5 3072 131
5 3073 71
5 3074 153
5 3075 69
5 3076 164
5 3077 131
5 3078 124
5 3079 111
5 3080 148
5 3081 148
5 3082 62
5 3083 240
5 3084 108
5 3085 60
5 3086 120
5 3087 89
5 3088 10
5 3089 87
5 3090 539
5 3091 115
5 3092 83
5 3093 131
5 3094 95
5 3095 85
5 3096 105
5 3097 156
5 3098 437
5 3099 73
5 3100 120
5 3101 153
5 3102 138
5 3103 108
5 3104 65
5 3105 153
5 3106 72
5 3107 2156
5 3108 110
5 3109 104
5 3110 124
5 3111 138
5 3112 132
5 3113 160
5 3114 117
5 3115 106
5 3116 140
5 3117 124
5 3118 63
5 3119 129
5 3120 137
5 3121 60
5 3122 145
5 3123 95
5 3124 164
5 3125 164
5 3126 99
5 3127 107
5 3128 106
5 3129 76
5 3130 436
5 3131 111
5 3132 166
5 3133 151
5 3134 147
5 3135 126
5 3136 163
5 3137 294
5 3138 87
5 3139 121
5 3140 130
5 3141 145
5 3142 462
5 3143 229
5 3144 77
5 3145 86
5 3146 109
5 3147 73
5 3148 61
5 3149 115
5 3150 119
5 3151 67
5 3152 316
5 3153 152
5 3154 6709
5 3155 153
5 3156 22
5 3157 122
5 3158 145
5 3159 107
5 3160 127
5 3161 107
5 3162 121
5 3163 143
5 3164 221
5 3165 80
5 3166 168
5 3167 75
5 3168 116
5 3169 502
5 3170 90
5 3171 824
5 3172 640
5 3173 146
5 3174 120
5 3175 112
5 3176 65
5 3177 81
5 3178 408
5 3179 93
5 3180 72
5 3181 115
5 3182 192
5 3183 55
5 3184 120
5 3185 156
5 3186 52
5 3187 3042
5 3188 77
5 3189 120
5 3190 89
5 3191 110
5 3192 152
5 3193 129
5 3194 92
5 3195 69
5 3196 152
5 3197 97
5 3198 126
5 3199 86
5 3200 388
5 3201 490
5 3202 156
5 3203 37
5 3204 50
5 3205 79
5 3206 146
5 3207 126
5 3208 175
5 3209 54
5 3210 99
5 3211 124
5 3212 80
5 3213 106
5 3214 57
5 3215 69
5 3216 120
5 3217 128
5 3218 101
5 3219 117
5 3220 125
5 3221 125
5 3222 146
5 3223 119
5 3224 163
5 3225 130
5 3226 54
5 3227 128
5 3228 174
5 3229 54
5 3230 69
5 3231 160
5 3232 88
5 3233 144
5 3234 62
5 3235 163
5 3236 114
5 3237 78
5 3238 46
5 3239 7068
5 3240 77
5 3241 146
5 3242 124
5 3243 133
5 3244 145
5 3245 124
5 3246 176
5 3247 132
5 3248 53
5 3249 86
5 3250 144
5 3251 165
5 3252 105
5 3253 98
5 3254 73
5 3255 153
5 3256 63
5 3257 84
5 3258 264
5 3259 115
5 3260 110
5 3261 255
5 3262 93
5 3263 211
5 3264 124
5 3265 129
5 3266 122
5 3267 170
5 3268 112
5 3269 182
5 3270 152
5 3271 90
5 3272 121
5 3273 103
5 3274 85
5 3275 57
5 3276 146
5 3277 86
5 3278 169
5 3279 79
5 3280 58
5 3281 1468
5 3282 146
5 3283 73
5 3284 111
5 3285 62
5 3286 96
5 3287 156
5 3288 1258
5 3289 52
5 3290 176
5 3291 76
5 3292 116
5 3293 92
5 3294 683
5 3295 137
5 3296 93
5 3297 146
5 3298 159
5 3299 90
5 3300 123
5 3301 176
5 3302 110
5 3303 122
5 3304 122
5 3305 106
5 3306 150
5 3307 89
5 3308 113
5 3309 92
5 3310 76
5 3311 88
5 3312 288
5 3313 77
5 3314 140
5 3315 125
5 3316 99
5 3317 140
5 3318 3192
5 3319 103
5 3320 258
5 3321 119
5 3322 329
5 3323 105
5 3324 113
5 3325 171
5 3326 93
5 3327 53
5 3328 76
5 3329 104
5 3330 150
5 3331 143
5 3332 133
5 3333 136
5 3334 85
5 3335 947
5 3336 133
5 3337 123
5 3338 105
5 3339 108
5 3340 101
5 3341 92
5 3342 191
5 3343 96
5 3344 81
5 3345 129
5 3346 79
5 3347 188
5 3348 272
5 3349 94
5 3350 53
5 3351 92
5 3352 127
5 3353 146
5 3354 85
5 3355 190
5 3356 124
5 3357 72
5 3358 74
5 3359 88
5 3360 291
5 3361 136
5 3362 428
5 3363 102
5 3364 87
5 3365 145
5 3366 145
5 3367 70
5 3368 83
5 3369 7
5 3370 113
5 3371 81
5 3372 105
5 3373 139
5 3374 152
5 3375 103
5 3376 142
5 3377 69
5 3378 84
5 3379 91
5 3380 140
5 3381 93
5 3382 58
5 3383 108
5 3384 3366
5 3385 171
5 3386 247
5 3387 161
5 3388 124
5 3389 51
5 3390 162
5 3391 86
5 3392 228
5 3393 49
5 3394 85
5 3395 70
5 3396 131
5 3397 77
5 3398 206
5 3399 85
5 3400 82
5 3401 147
5 3402 75
5 3403 682
5 3404 4972
5 3405 143
5 3406 167
5 3407 9008
5 3408 79
5 3409 80
5 3410 50
5 3411 37
5 3412 137
5 3413 81
5 3414 147
5 3415 133
5 3416 110
5 3417 93
5 3418 157
5 3419 21
5 3420 93
5 3421 138
5 3422 341
5 3423 61
5 3424 63
5 3425 133
5 3426 89
5 3427 32
5 3428 85
5 3429 131
5 3430 86
5 3431 123
5 3432 92
5 3433 163
5 3434 67
5 3435 66
5 3436 111
5 3437 145
5 3438 96
5 3439 177
5 3440 160
5 3441 127
5 3442 126
5 3443 129
5 3444 85
5 3445 92
5 3446 311
5 3447 157
5 3448 55
5 3449 59
5 3450 142
5 3451 70
5 3452 64
5 3453 124
5 3454 57
5 3455 112
5 3456 116
5 3457 132
5 3458 89
5 3459 66
5 3460 102
5 3461 71
5 3462 177
5 3463 71
5 3464 68
5 3465 72
5 3466 76
5 3467 146
5 3468 54
5 3469 134
5 3470 104
5 3471 105
5 3472 68
5 3473 67
5 3474 92
5 3475 97
5 3476 83
5 3477 41
5 3478 48
5 3479 66
5 3480 141
5 3481 83
5 3482 151
5 3483 133
5 3484 73
5 3485 106
5 3486 247
5 3487 117
5 3488 99
5 3489 115
5 3490 132
5 3491 116
5 3492 101
5 3493 166
5 3494 60
5 3495 103
5 3496 60
5 3497 100
5 3498 139
5 3499 223
5 3500 138
5 3501 78
5 3502 117
5 3503 80
5 3504 88
5 3505 90
5 3506 52
5 3507 85
5 3508 171
5 3509 61
5 3510 170
5 3511 66
5 3512 132
5 3513 53
5 3514 127
5 3515 612
5 3516 179
5 3517 100
5 3518 63
5 3519 142
5 3520 85
5 3521 106
5 3522 108
5 3523 73
5 3524 184
5 3525 59
5 3526 178
5 3527 1266
5 3528 64
5 3529 83
5 3530 78
5 3531 131
5 3532 100
5 3533 154
5 3534 102
5 3535 300
5 3536 123
5 3537 66
5 3538 138
5 3539 135
5 3540 1802
5 3541 135
5 3542 90
5 3543 51
5 3544 113
5 3545 109
5 3546 63
5 3547 76
5 3548 83
5 3549 65
5 3550 133
5 3551 167
5 3552 639
5 3553 157
5 3554 105
5 3555 93
5 3556 152
5 3557 224
5 3558 2067
5 3559 129
5 3560 72
5 3561 59
5 3562 116
5 3563 128
5 3564 151
5 3565 154
5 3566 1726
5 3567 126
5 3568 99
5 3569 108
5 3570 86
5 3571 191
5 3572 91
5 3573 319
5 3574 154
5 3575 241
5 3576 114
5 3577 4134
5 3578 68
5 3579 208
5 3580 121
5 3581 222
5 3582 74
5 3583 129
5 3584 159
5 3585 77
5 3586 111
5 3587 52
5 3588 71
5 3589 55
5 3590 148
5 3591 120
5 3592 128
5 3593 171
5 3594 69
5 3595 76
5 3596 136
5 3597 151
5 3598 244
5 3599 246
5 3600 117
5 3601 71
5 3602 84
5 3603 69
5 3604 106
5 3605 130
5 3606 76
5 3607 1293
5 3608 158
5 3609 225
5 3610 81
5 3611 83
5 3612 192
5 3613 105
5 3614 148
5 3615 339
5 3616 77
5 3617 102
5 3618 812
5 3619 89
5 3620 86
5 3621 100
5 3622 171
5 3623 93
5 3624 71
5 3625 139
5 3626 127
5 3627 115
5 3628 83
5 3629 6251
5 3630 59
5 3631 111
5 3632 122
5 3633 142
5 3634 129
5 3635 111
5 3636 68
5 3637 119
5 3638 87
5 3639 68
5 3640 212
5 3641 125
5 3642 84
5 3643 76
5 3644 129
5 3645 141
5 3646 81
5 3647 142
5 3648 122
5 3649 62
5 3650 113
5 3651 167
5 3652 150
5 3653 94
5 3654 84
5 3655 69
5 3656 136
5 3657 152
5 3658 144
5 3659 106
5 3660 88
5 3661 98
5 3662 162
5 3663 106
5 3664 110
5 3665 70
5 3666 97
5 3667 78
5 3668 123
5 3669 67
5 3670 132
5 3671 88
5 3672 215
5 3673 111
5 3674 139
5 3675 113
5 3676 50
5 3677 120
5 3678 78
5 3679 123
5 3680 81
5 3681 151
5 3682 104
5 3683 75
5 3684 66
5 3685 191
5 3686 94
5 3687 134
5 3688 89
5 3689 155
5 3690 106
5 3691 2437
5 3692 84
5 3693 137
5 3694 145
5 3695 113
5 3696 165
5 3697 129
5 3698 56
5 3699 124
5 3700 156
5 3701 127
5 3702 173
5 3703 185
5 3704 130
5 3705 105
5 3706 77
5 3707 119
5 3708 76
5 3709 122
5 3710 135
5 3711 107
5 3712 2161
5 3713 116
5 3714 166
5 3715 81
5 3716 155
5 3717 133
5 3718 97
5 3719 72
5 3720 672
5 3721 77
5 3722 1531
5 3723 59
5 3724 80
5 3725 78
5 3726 115
5 3727 81
5 3728 174
5 3729 212
5 3730 88
5 3731 124
5 3732 125
5 3733 170
5 3734 104
5 3735 70
5 3736 756
5 3737 71
5 3738 157
5 3739 119
5 3740 124
5 3741 64
5 3742 155
5 3743 82
5 3744 164
5 3745 93
5 3746 88
5 3747 139
5 3748 659
5 3749 91
5 3750 105
5 3751 140
5 3752 60
5 3753 70
5 3754 82
5 3755 234
5 3756 129
5 3757 93
5 3758 76
5 3759 68
5 3760 183
5 3761 149
5 3762 161
5 3763 136
5 3764 108
5 3765 68
5 3766 94
5 3767 87
5 3768 167
5 3769 136
5 3770 107
5 3771 65
5 3772 65
5 3773 59
5 3774 61
5 3775 98
5 3776 87
5 3777 78
5 3778 653
5 3779 54
5 3780 112
5 3781 167
5 3782 73
5 3783 106
5 3784 74
5 3785 95
5 3786 71
5 3787 89
5 3788 141
5 3789 156
5 3790 136
5 3791 99
5 3792 154
5 3793 142
5 3794 72
5 3795 148
5 3796 147
5 3797 120
5 3798 64
5 3799 142
5 3800 152
5 3801 146
5 3802 83
5 3803 45
5 3804 56
5 3805 1292
5 3806 495
5 3807 93
5 3808 63
5 3809 116
5 3810 79
5 3811 159
5 3812 188
5 3813 65
5 3814 165
5 3815 101
5 3816 111
5 3817 111
5 3818 121
5 3819 92
5 3820 113
5 3821 79
5 3822 162
5 3823 118
5 3824 136
5 3825 198
5 3826 84
5 3827 132
5 3828 75
5 3829 51
5 3830 91
5 3831 123
5 3832 53
5 3833 131
5 3834 162
5 3835 76
5 3836 123
5 3837 97
5 3838 150
5 3839 100
5 3840 80
5 3841 62
5 3842 73
5 3843 231
5 3844 170
5 3845 127
5 3846 116
5 3847 156
5 3848 81
5 3849 66
5 3850 90
5 3851 154
5 3852 111
5 3853 76
5 3854 119
5 3855 91
5 3856 450
5 3857 103
5 3858 118
5 3859 57
5 3860 187
5 3861 114
5 3862 90
5 3863 94
5 3864 56
5 3865 40
5 3866 153
5 3867 110
5 3868 137
5 3869 120
5 3870 128
5 3871 135
5 3872 99
5 3873 217
5 3874 27
5 3875 54
5 3876 107
5 3877 134
5 3878 185
5 3879 71
5 3880 5
5 3881 298
5 3882 168
5 3883 99
5 3884 96
5 3885 158
5 3886 645
5 3887 171
5 3888 147
5 3889 113
5 3890 160
5 3891 135
5 3892 144
5 3893 92
5 3894 61
5 3895 56
5 3896 1141
5 3897 188
5 3898 61
5 3899 372
5 3900 142
5 3901 113
5 3902 158
5 3903 139
5 3904 183
5 3905 128
5 3906 200
5 3907 143
5 3908 262
5 3909 81
5 3910 102
5 3911 56
5 3912 53
5 3913 86
5 3914 92
5 3915 116
5 3916 22
5 3917 170
5 3918 130
5 3919 80
5 3920 526
5 3921 240
5 3922 126
5 3923 114
5 3924 130
5 3925 34
5 3926 1566
5 3927 52
5 3928 70
5 3929 315
5 3930 74
5 3931 156
5 3932 61
5 3933 61
5 3934 75
5 3935 197
5 3936 130
5 3937 47
5 3938 168
5 3939 75
5 3940 154
5 3941 129
5 3942 58
5 3943 67
5 3944 180
5 3945 1589
5 3946 127
5 3947 81
5 3948 74
5 3949 172
5 3950 55
5 3951 87
5 3952 127
5 3953 153
5 3954 87
5 3955 59
5 3956 704
5 3957 153
5 3958 141
5 3959 72
5 3960 45
5 3961 91
5 3962 81
5 3963 114
5 3964 73
5 3965 81
5 3966 120
5 3967 117
5 3968 81
5 3969 92
5 3970 1343
5 3971 67
5 3972 156
5 3973 90
5 3974 92
5 3975 67
5 3976 81
5 3977 174
5 3978 306
5 3979 153
5 3980 118
5 3981 89
5 3982 137
5 3983 142
5 3984 140
5 3985 67
5 3986 117
5 3987 52
5 3988 92
5 3989 245
5 3990 75
5 3991 60
5 3992 151
5 3993 250
5 3994 384
5 3995 87
5 3996 134
5 3997 109
5 3998 41
5 3999 126
5 4000 69
5 4001 134
5 4002 117
5 4003 98
5 4004 2013
5 4005 85
5 4006 147
5 4007 86
5 4008 101
5 4009 106
5 4010 72
5 4011 84
5 4012 87
5 4013 138
5 4014 111
5 4015 237
5 4016 115
5 4017 75
5 4018 1365
5 4019 223
5 4020 88
5 4021 65
5 4022 93
5 4023 153
5 4024 109
5 4025 62
5 4026 83
5 4027 61
5 4028 74
5 4029 56
5 4030 177
5 4031 52
5 4032 152
5 4033 62
5 4034 67
5 4035 22
5 4036 134
5 4037 7515
5 4038 154
5 4039 117
5 4040 122
5 4041 125
5 4042 62
5 4043 94
5 4044 49
5 4045 90
5 4046 80
5 4047 120
5 4048 131
5 4049 166
5 4050 84
5 4051 84
5 4052 127
5 4053 852
5 4054 221
5 4055 116
5 4056 149
5 4057 49
5 4058 123
5 4059 46
5 4060 145
5 4061 1117
5 4062 125
5 4063 155
5 4064 136
5 4065 134
5 4066 141
5 4067 104
5 4068 104
5 4069 160
5 4070 80
5 4071 102
5 4072 89
5 4073 83
5 4074 123
5 4075 74
5 4076 96
5 4077 107
5 4078 72
5 4079 158
5 4080 105
5 4081 77
5 4082 99
5 4083 143
5 4084 131
5 4085 75
5 4086 90
5 4087 80
5 4088 140
5 4089 179
5 4090 271
5 4091 59
5 4092 107
5 4093 66
5 4094 99
5 4095 119
5 4096 168
5 4097 159
5 4098 76
5 4099 117
5 4100 89
5 4101 68
5 4102 125
5 4103 111
5 4104 78
5 4105 7
5 4106 77
5 4107 397
5 4108 154
5 4109 78
5 4110 136
5 4111 149
5 4112 122
5 4113 105
5 4114 77
5 4115 2407
5 4116 75
5 4117 94
5 4118 118
5 4119 187
5 4120 80
5 4121 144
5 4122 58
5 4123 127
5 4124 58
5 4125 89
5 4126 111
5 4127 94
5 4128 77
5 4129 130
5 4130 462
5 4131 179
5 4132 89
5 4133 81
5 4134 111
5 4135 68
5 4136 237
5 4137 86
5 4138 86
5 4139 163
5 4140 95
5 4141 116
5 4142 65
5 4143 127
5 4144 72
5 4145 96
5 4146 117
5 4147 101
5 4148 152
5 4149 76
5 4150 106
5 4151 147
5 4152 116
5 4153 77
5 4154 85
5 4155 62
5 4156 45
5 4157 96
5 4158 62
5 4159 86
5 4160 139
5 4161 115
5 4162 38
5 4163 255
5 4164 143
5 4165 156
5 4166 106
5 4167 109
5 4168 125
5 4169 143
5 4170 42
5 4171 76
5 4172 95
5 4173 75
5 4174 158
5 4175 68
5 4176 61
5 4177 126
5 4178 109
5 4179 78
5 4180 86
5 4181 63
5 4182 53
5 4183 38
5 4184 105
5 4185 74
5 4186 265
5 4187 441
5 4188 84
5 4189 141
5 4190 139
5 4191 2339
5 4192 112
5 4193 130
5 4194 115
5 4195 142
5 4196 78
5 4197 84
5 4198 154
5 4199 116
5 4200 136
5 4201 59
5 4202 87
5 4203 67
5 4204 134
5 4205 149
5 4206 161
5 4207 120
5 4208 104
5 4209 166
5 4210 111
5 4211 105
5 4212 45
5 4213 133
5 4214 156
5 4215 63
5 4216 78
5 4217 159
5 4218 78
5 4219 149
5 4220 109
5 4221 70
5 4222 109
5 4223 144
5 4224 87
5 4225 112
5 4226 135
5 4227 153
5 4228 115
5 4229 105
5 4230 99
5 4231 134
5 4232 76
5 4233 141
5 4234 87
5 4235 145
5 4236 148
5 4237 104
5 4238 152
5 4239 237
5 4240 77
5 4241 76
5 4242 123
5 4243 57
5 4244 66
5 4245 75
5 4246 142
5 4247 116
5 4248 78
5 4249 73
5 4250 51
5 4251 109
5 4252 188
5 4253 125
5 4254 119
5 4255 150
5 4256 96
5 4257 156
5 4258 150
5 4259 145
5 4260 115
5 4261 101
5 4262 113
5 4263 80
5 4264 137
5 4265 51
5 4266 98
5 4267 54
5 4268 72
5 4269 103
5 4270 76
5 4271 104
5 4272 140
5 4273 102
5 4274 165
5 4275 551
5 4276 98
5 4277 40
5 4278 128
5 4279 143
5 4280 139
5 4281 131
5 4282 136
5 4283 115
5 4284 71
5 4285 131
5 4286 139
5 4287 130
5 4288 77
5 4289 116
5 4290 108
5 4291 159
5 4292 141
5 4293 50
5 4294 141
5 4295 159
5 4296 85
5 4297 128
5 4298 74
5 4299 71
5 4300 53
5 4301 158
5 4302 17
5 4303 90
5 4304 59
5 4305 127
5 4306 82
5 4307 166
5 4308 65
5 4309 74
5 4310 149
5 4311 119
5 4312 81
5 4313 118
5 4314 242
5 4315 56
5 4316 164
5 4317 84
5 4318 75
5 4319 62
5 4320 91
5 4321 143
5 4322 121
5 4323 86
5 4324 134
5 4325 51
5 4326 62
5 4327 115
5 4328 96
5 4329 199
5 4330 79
5 4331 214
5 4332 68
5 4333 160
5 4334 47
5 4335 151
5 4336 65
5 4337 75
5 4338 181
5 4339 52
5 4340 147
5 4341 107
5 4342 142
5 4343 93
5 4344 50
5 4345 128
5 4346 126
5 4347 134
5 4348 124
5 4349 155
5 4350 180
5 4351 48
5 4352 105
5 4353 136
5 4354 78
5 4355 113
5 4356 81
5 4357 90
5 4358 76
5 4359 102
5 4360 80
5 4361 68
5 4362 121
5 4363 82
5 4364 138
5 4365 125
5 4366 134
5 4367 98
5 4368 69
5 4369 58
5 4370 121
5 4371 1132
5 4372 113
5 4373 149
5 4374 216
5 4375 114
5 4376 103
5 4377 134
5 4378 114
5 4379 181
5 4380 110
5 4381 152
5 4382 103
5 4383 406
5 4384 100
5 4385 147
5 4386 85
5 4387 110
5 4388 87
5 4389 140
5 4390 74
5 4391 143
5 4392 160
5 4393 67
5 4394 157
5 4395 85
5 4396 79
5 4397 89
5 4398 85
5 4399 115
5 4400 98
5 4401 123
5 4402 153
5 4403 435
5 4404 74
5 4405 196
5 4406 45
5 4407 53
5 4408 155
5 4409 128
5 4410 130
5 4411 148
5 4412 80
5 4413 68
5 4414 122
5 4415 78
5 4416 108
5 4417 77
5 4418 98
5 4419 151
5 4420 160
5 4421 159
5 4422 94
5 4423 77
5 4424 75
5 4425 108
5 4426 122
5 4427 161
5 4428 61
5 4429 84
5 4430 82
5 4431 109
5 4432 88
5 4433 120
5 4434 140
5 4435 74
5 4436 135
5 4437 63
5 4438 61
5 4439 140
5 4440 91
5 4441 102
5 4442 68
5 4443 96
5 4444 56
5 4445 105
5 4446 1863
5 4447 109
5 4448 87
5 4449 1108
5 4450 81
5 4451 76
5 4452 123
5 4453 42
5 4454 77
5 4455 126
5 4456 244
5 4457 74
5 4458 70
5 4459 148
5 4460 77
5 4461 98
5 4462 116
5 4463 104
5 4464 63
5 4465 60
5 4466 72
5 4467 110
5 4468 104
5 4469 82
5 4470 89
5 4471 131
5 4472 448
5 4473 81
5 4474 13
5 4475 69
5 4476 128
5 4477 81
5 4478 246
5 4479 48
5 4480 121
5 4481 154
5 4482 86
5 4483 99
5 4484 83
5 4485 138
5 4486 74
5 4487 149
5 4488 24
5 4489 75
5 4490 109
5 4491 44
5 4492 150
5 4493 115
5 4494 111
5 4495 136
5 4496 121
5 4497 106
5 4498 100
5 4499 141
5 4500 86
5 4501 82
5 4502 127
5 4503 103
5 4504 116
5 4505 155
5 4506 133
5 4507 116
5 4508 48
5 4509 58
5 4510 60
5 4511 101
5 4512 148
5 4513 156
5 4514 102
5 4515 108
5 4516 145
5 4517 71
5 4518 321
5 4519 223
5 4520 171
5 4521 101
5 4522 128
5 4523 130
5 4524 142
5 4525 62
5 4526 112
5 4527 69
5 4528 206
5 4529 66
5 4530 119
5 4531 109
5 4532 60
5 4533 114
5 4534 141
5 4535 64
5 4536 95
5 4537 76
5 4538 136
5 4539 156
5 4540 147
5 4541 140
5 4542 72
5 4543 88
5 4544 62
5 4545 87
5 4546 361
5 4547 125
5 4548 170
5 4549 136
5 4550 140
5 4551 74
5 4552 28
5 4553 141
5 4554 161
5 4555 149
5 4556 136
5 4557 72
5 4558 90
5 4559 117
5 4560 449
5 4561 310
5 4562 97
5 4563 56
5 4564 233
5 4565 95
5 4566 75
5 4567 28
5 4568 91
5 4569 72
5 4570 165
5 4571 181
5 4572 204
5 4573 146
5 4574 86
5 4575 106
5 4576 34
5 4577 230
5 4578 91
5 4579 935
5 4580 115
5 4581 22
5 4582 88
5 4583 82
5 4584 131
5 4585 70
5 4586 160
5 4587 145
5 4588 165
5 4589 1609
5 4590 96
5 4591 77
5 4592 194
5 4593 160
5 4594 78
5 4595 601
5 4596 77
5 4597 128
5 4598 112
5 4599 118
5 4600 59
5 4601 4
5 4602 124
5 4603 121
5 4604 134
5 4605 62
5 4606 152
5 4607 42
5 4608 138
5 4609 303
5 4610 214
5 4611 138
5 4612 123
5 4613 371
5 4614 107
5 4615 100
5 4616 63
5 4617 192
5 4618 109
5 4619 101
5 4620 79
5 4621 65
5 4622 142
5 4623 115
5 4624 86
5 4625 114
5 4626 125
5 4627 106
5 4628 89
5 4629 87
5 4630 70
5 4631 66
5 4632 150
5 4633 147
5 4634 75
5 4635 117
5 4636 210
5 4637 173
5 4638 136
5 4639 69
5 4640 96
5 4641 147
5 4642 83
5 4643 162
5 4644 57
5 4645 226
5 4646 49
5 4647 107
5 4648 140
5 4649 117
5 4650 49
5 4651 479
5 4652 85
5 4653 84
5 4654 87
5 4655 101
5 4656 109
5 4657 87
5 4658 124
5 4659 59
5 4660 55
5 4661 86
5 4662 88
5 4663 80
5 4664 182
5 4665 130
5 4666 22
5 4667 99
5 4668 78
5 4669 112
5 4670 169
5 4671 110
5 4672 70
5 4673 1010
5 4674 69
5 4675 826
5 4676 52
5 4677 85
5 4678 117
5 4679 152
5 4680 103
5 4681 151
5 4682 62
5 4683 80
5 4684 113
5 4685 140
5 4686 82
5 4687 148
5 4688 114
5 4689 173
5 4690 139
5 4691 5
5 4692 116
5 4693 63
5 4694 131
5 4695 53
5 4696 182
5 4697 82
5 4698 83
5 4699 90
5 4700 74
5 4701 64
5 4702 111
5 4703 74
5 4704 117
5 4705 93
5 4706 129
5 4707 104
5 4708 94
5 4709 89
5 4710 121
5 4711 168
5 4712 163
5 4713 115
5 4714 163
5 4715 136
5 4716 81
5 4717 125
5 4718 69
5 4719 73
5 4720 110
5 4721 508
5 4722 126
5 4723 57
5 4724 76
5 4725 89
5 4726 157
5 4727 137
5 4728 176
5 4729 122
5 4730 84
5 4731 93
5 4732 64
5 4733 148
5 4734 94
5 4735 62
5 4736 80
5 4737 147
5 4738 68
5 4739 131
5 4740 1013
5 4741 1473
5 4742 133
5 4743 102
5 4744 155
5 4745 113
5 4746 91
5 4747 69
5 4748 75
5 4749 81
5 4750 68
5 4751 88
5 4752 88
5 4753 113
5 4754 125
5 4755 81
5 4756 60
5 4757 199
5 4758 154
5 4759 241
5 4760 93
5 4761 291
5 4762 162
5 4763 128
5 4764 81
5 4765 144
5 4766 122
5 4767 70
5 4768 48
5 4769 69
5 4770 78
5 4771 111
5 4772 67
5 4773 50
5 4774 54
5 4775 49
5 4776 124
5 4777 73
5 4778 114
5 4779 81
5 4780 208
5 4781 156
5 4782 98
5 4783 84
5 4784 48
5 4785 73
5 4786 119
5 4787 58
5 4788 108
5 4789 112
5 4790 114
5 4791 82
5 4792 878
5 4793 107
5 4794 81
5 4795 135
5 4796 41
5 4797 134
5 4798 98
5 4799 146
5 4800 79
5 4801 123
5 4802 82
5 4803 22
5 4804 57
5 4805 118
5 4806 148
5 4807 100
5 4808 75
5 4809 114
5 4810 141
5 4811 287
5 4812 141
5 4813 67
5 4814 35
5 4815 64
5 4816 82
5 4817 321
5 4818 609
5 4819 115
5 4820 89
5 4821 159
5 4822 110
5 4823 151
5 4824 131
5 4825 95
5 4826 97
5 4827 121
5 4828 89
5 4829 124
5 4830 192
5 4831 105
5 4832 86
5 4833 85
5 4834 83
5 4835 24
5 4836 232
5 4837 82
5 4838 221
5 4839 91
5 4840 29
5 4841 170
5 4842 3
5 4843 140
5 4844 126
5 4845 175
5 4846 74
5 4847 251
5 4848 57
5 4849 44
5 4850 34
5 4851 131
5 4852 136
5 4853 3180
5 4854 380
5 4855 19
5 4856 231
5 4857 718
5 4858 159
5 4859 139
5 4860 1599
5 4861 92
5 4862 94
5 4863 127
5 4864 168
5 4865 121
5 4866 104
5 4867 72
5 4868 94
5 4869 133
5 4870 173
5 4871 127
5 4872 892
5 4873 139
5 4874 234
5 4875 135
5 4876 149
5 4877 172
5 4878 67
5 4879 54
5 4880 119
5 4881 64
5 4882 147
5 4883 47
5 4884 143
5 4885 58
5 4886 241
5 4887 146
5 4888 132
5 4889 144
5 4890 189
5 4891 68
5 4892 91
5 4893 157
5 4894 117
5 4895 365
5 4896 68
5 4897 134
5 4898 63
5 4899 159
5 4900 133
5 4901 111
5 4902 143
5 4903 1512
5 4904 96
5 4905 73
5 4906 124
5 4907 258
5 4908 39
5 4909 137
5 4910 79
5 4911 87
5 4912 53
5 4913 135
5 4914 240
5 4915 98
5 4916 71
5 4917 133
5 4918 56
5 4919 223
5 4920 122
5 4921 61
5 4922 1911
5 4923 58
5 4924 92
5 4925 162
5 4926 92
5 4927 21
5 4928 86
5 4929 101
5 4930 70
5 4931 113
5 4932 82
5 4933 162
5 4934 8
5 4935 82
5 4936 92
5 4937 101
5 4938 73
5 4939 81
5 4940 137
5 4941 120
5 4942 1368
5 4943 132
5 4944 208
5 4945 153
5 4946 98
5 4947 155
5 4948 128
5 4949 44
5 4950 82
5 4951 117
5 4952 123
5 4953 116
5 4954 158
5 4955 61
5 4956 161
5 4957 60
5 4958 44
5 4959 79
5 4960 68
5 4961 98
5 4962 136
5 4963 92
5 4964 75
5 4965 58
5 4966 104
5 4967 78
5 4968 140
5 4969 74
5 4970 122
5 4971 57
5 4972 62
5 4973 52
5 4974 69
5 4975 91
5 4976 93
5 4977 67
5 4978 64
5 4979 208
5 4980 93
5 4981 128
5 4982 90
5 4983 72
5 4984 162
5 4985 50
5 4986 52
5 4987 162
5 4988 95
5 4989 75
5 4990 70
5 4991 95
5 4992 209
5 4993 57
5 4994 66
5 4995 73
5 4996 77
5 4997 73
5 4998 151
5 4999 106
5 5000 248
5 5001 160
5 5002 77
5 5003 139
5 5004 79
5 5005 3
5 5006 174
5 5007 129
5 5008 91
5 5009 54
5 5010 76
5 5011 101
5 5012 734
5 5013 68
5 5014 60
5 5015 83
5 5016 57
5 5017 61
5 5018 88
5 5019 71
5 5020 103
5 5021 83
5 5022 140
5 5023 86
5 5024 75
5 5025 184
5 5026 133
5 5027 1
5 5028 86
5 5029 179
5 5030 72
5 5031 76
5 5032 92
5 5033 81
5 5034 58
5 5035 130
5 5036 87
5 5037 123
5 5038 125
5 5039 82
5 5040 106
5 5041 183
5 5042 124
5 5043 59
5 5044 64
5 5045 136
5 5046 109
5 5047 119
5 5048 108
5 5049 78
5 5050 71
5 5051 116
5 5052 74
5 5053 116
5 5054 66
5 5055 89
5 5056 45
5 5057 95
5 5058 73
5 5059 314
5 5060 45
5 5061 14
5 5062 119
5 5063 58
5 5064 114
5 5065 141
5 5066 98
5 5067 228
5 5068 78
5 5069 82
5 5070 779
5 5071 74
5 5072 163
5 5073 82
5 5074 85
5 5075 72
5 5076 84
5 5077 70
5 5078 103
5 5079 71
5 5080 99
5 5081 139
5 5082 7
5 5083 28
5 5084 159
5 5085 177
5 5086 180
5 5087 78
5 5088 38
5 5089 150
5 5090 120
5 5091 157
5 5092 129
5 5093 188
5 5094 37
5 5095 102
5 5096 48
5 5097 63
5 5098 101
5 5099 77
5 5100 59
5 5101 125
5 5102 150
5 5103 86
5 5104 97
5 5105 89
5 5106 66
5 5107 135
5 5108 98
5 5109 92
5 5110 113
5 5111 106
5 5112 134
5 5113 113
5 5114 74
5 5115 55
5 5116 143
5 5117 154
5 5118 80
5 5119 152
5 5120 52
5 5121 107
5 5122 94
5 5123 117
5 5124 85
5 5125 170
5 5126 52
5 5127 74
5 5128 87
5 5129 72
5 5130 68
5 5131 92
5 5132 111
5 5133 68
5 5134 117
5 5135 98
5 5136 89
5 5137 65
5 5138 45
5 5139 86
5 5140 106
5 5141 75
5 5142 43
5 5143 73
5 5144 120
5 5145 106
5 5146 105
5 5147 136
5 5148 68
5 5149 133
5 5150 76
5 5151 78
5 5152 76
5 5153 80
5 5154 328
5 5155 123
5 5156 132
5 5157 115
5 5158 131
5 5159 109
5 5160 92
5 5161 54
5 5162 70
5 5163 125
5 5164 61
5 5165 136
5 5166 68
5 5167 88
5 5168 428
5 5169 66
5 5170 89
5 5171 102
5 5172 91
5 5173 23
5 5174 62
5 5175 151
5 5176 61
5 5177 73
5 5178 80
5 5179 8
5 5180 67
5 5181 155
5 5182 86
5 5183 74
5 5184 91
5 5185 65
5 5186 77
5 5187 113
5 5188 69
5 5189 20
5 5190 28
5 5191 66
5 5192 108
5 5193 63
5 5194 80
5 5195 108
5 5196 60
5 5197 61
5 5198 133
5 5199 72
5 5200 49
5 5201 152
5 5202 290
5 5203 136
5 5204 102
5 5205 23
5 5206 114
5 5207 55
5 5208 56
5 5209 8
5 5210 75
5 5211 66
5 5212 80
5 5213 73
5 5214 101
5 5215 98
5 5216 115
5 5217 55
5 5218 130
5 5219 52
5 5220 109
5 5221 154
5 5222 26
5 5223 4
5 5224 91
5 5225 158
5 5226 151
5 5227 70
5 5228 105
5 5229 67
5 5230 132
5 5231 93
5 5232 153
5 5233 45
5 5234 531
5 5235 82
5 5236 62
5 5237 127
5 5238 82
5 5239 267
5 5240 64
5 5241 89
5 5242 78
5 5243 104
5 5244 179
5 5245 167
5 5246 113
5 5247 105
5 5248 49
5 5249 75
5 5250 115
5 5251 22
5 5252 72
5 5253 118
5 5254 112
5 5255 46
5 5256 465
5 5257 66
5 5258 99
5 5259 62
5 5260 90
5 5261 747
5 5262 138
5 5263 78
5 5264 49
5 5265 77
5 5266 148
5 5267 25
5 5268 60
5 5269 74
5 5270 111
5 5271 150
5 5272 141
5 5273 74
5 5274 92
5 5275 152
5 5276 154
5 5277 158
5 5278 99
5 5279 149
5 5280 71
5 5281 146
5 5282 124
5 5283 164
5 5284 109
5 5285 104
5 5286 110
5 5287 97
5 5288 130
5 5289 78
5 5290 109
5 5291 121
5 5292 117
5 5293 159
5 5294 63
5 5295 137
5 5296 153
5 5297 97
5 5298 129
5 5299 84
5 5300 148
5 5301 46
5 5302 10
5 5303 79
5 5304 57
5 5305 63
5 5306 163
5 5307 129
5 5308 118
5 5309 106
5 5310 77
5 5311 88
5 5312 78
5 5313 107
5 5314 155
5 5315 62
5 5316 155
5 5317 32
5 5318 108
5 5319 113
5 5320 41
5 5321 83
5 5322 90
5 5323 132
5 5324 13
5 5325 70
5 5326 79
5 5327 80
5 5328 117
5 5329 233
5 5330 83
5 5331 82
5 5332 73
5 5333 105
5 5334 237
5 5335 87
5 5336 68
5 5337 114
5 5338 122
5 5339 157
5 5340 38
5 5341 156
5 5342 72
5 5343 144
5 5344 97
5 5345 74
5 5346 182
5 5347 87
5 5348 110
5 5349 138
5 5350 84
5 5351 72
5 5352 81
5 5353 68
5 5354 102
5 5355 56
5 5356 66
5 5357 118
5 5358 140
5 5359 78
5 5360 59
5 5361 91
5 5362 64
5 5363 90
5 5364 59
5 5365 152
5 5366 55
5 5367 128
5 5368 116
5 5369 79
5 5370 50
5 5371 156
5 5372 56
5 5373 66
5 5374 126
5 5375 151
5 5376 101
5 5377 71
5 5378 108
5 5379 125
5 5380 114
5 5381 149
5 5382 21
5 5383 133
5 5384 55
5 5385 147
5 5386 62
5 5387 31
5 5388 99
5 5389 124
5 5390 161
5 5391 138
5 5392 84
5 5393 45
5 5394 161
5 5395 59
5 5396 144
5 5397 48
5 5398 89
5 5399 139
5 5400 78
5 5401 104
5 5402 134
5 5403 96
5 5404 79
5 5405 150
5 5406 50
5 5407 103
5 5408 105
5 5409 81
5 5410 81
5 5411 49
5 5412 68
5 5413 81
5 5414 57
5 5415 9
5 5416 56
5 5417 109
5 5418 28
5 5419 468
5 5420 134
5 5421 159
5 5422 87
5 5423 114
5 5424 20
5 5425 85
5 5426 51
5 5427 97
5 5428 110
5 5429 35
5 5430 135
5 5431 307
5 5432 103
5 5433 99
5 5434 104
5 5435 67
5 5436 57
5 5437 114
5 5438 90
5 5439 70
5 5440 98
5 5441 80
5 5442 227
5 5443 150
5 5444 99
5 5445 70
5 5446 154
5 5447 177
5 5448 145
5 5449 61
5 5450 67
5 5451 124
5 5452 144
5 5453 76
5 5454 24
5 5455 168
5 5456 83
5 5457 96
5 5458 64
5 5459 76
5 5460 93
5 5461 80
5 5462 88
5 5463 95
5 5464 64
5 5465 140
5 5466 158
5 5467 41
5 5468 66
5 5469 92
5 5470 91
5 5471 93
5 5472 99
5 5473 75
5 5474 111
5 5475 90
5 5476 102
5 5477 607
5 5478 111
5 5479 325
5 5480 44
5 5481 75
5 5482 74
5 5483 92
5 5484 73
5 5485 117
5 5486 121
5 5487 82
5 5488 123
5 5489 248
5 5490 153
5 5491 108
5 5492 726
5 5493 95
5 5494 59
5 5495 122
5 5496 145
5 5497 118
5 5498 75
5 5499 96
5 5500 61
5 5501 85
5 5502 69
5 5503 58
5 5504 61
5 5505 54
5 5506 48
5 5507 86
5 5508 86
5 5509 159
5 5510 75
5 5511 72
5 5512 63
5 5513 83
5 5514 68
5 5515 99
5 5516 47
5 5517 162
5 5518 84
5 5519 117
5 5520 134
5 5521 34
5 5522 94
5 5523 87
5 5524 58
5 5525 97
5 5526 79
5 5527 58
5 5528 69
5 5529 98
5 5530 92
5 5531 482
5 5532 86
5 5533 139
5 5534 80
5 5535 72
5 5536 67
5 5537 53
5 5538 493
5 5539 69
5 5540 136
5 5541 65
5 5542 139
5 5543 70
5 5544 191
5 5545 40
5 5546 52
5 5547 55
5 5548 53
5 5549 65
5 5550 254
5 5551 7
5 5552 55
5 5553 60
5 5554 134
5 5555 65
5 5556 3
5 5557 217
5 5558 75
5 5559 67
5 5560 81
5 5561 104
5 5562 111
5 5563 75
5 5564 87
5 5565 83
5 5566 9
5 5567 70
5 5568 125
5 5569 56
5 5570 73
5 5571 86
5 5572 148
5 5573 614
5 5574 139
5 5575 77
5 5576 88
5 5577 106
5 5578 116
5 5579 98
5 5580 141
5 5581 91
5 5582 45
5 5583 100
5 5584 110
5 5585 112
5 5586 74
5 5587 91
5 5588 90
5 5589 137
5 5590 71
5 5591 114
5 5592 93
5 5593 80
5 5594 76
5 5595 135
5 5596 45
5 5597 58
5 5598 67
5 5599 66
5 5600 87
5 5601 102
5 5602 55
5 5603 89
5 5604 82
5 5605 71
5 5606 103
5 5607 66
5 5608 131
5 5609 66
5 5610 49
5 5611 55
5 5612 56
5 5613 140
5 5614 76
5 5615 152
5 5616 19
5 5617 161
5 5618 17
5 5619 131
5 5620 54
5 5621 113
5 5622 79
5 5623 71
5 5624 77
5 5625 59
5 5626 110
5 5627 72
5 5628 114
5 5629 105
5 5630 141
5 5631 100
5 5632 157
5 5633 75
5 5634 189
5 5635 72
5 5636 108
5 5637 74
5 5638 118
5 5639 106
5 5640 22
5 5641 38
5 5642 101
5 5643 69
5 5644 77
5 5645 123
5 5646 74
5 5647 153
5 5648 74
5 5649 156
5 5650 69
5 5651 111
5 5652 70
5 5653 78
5 5654 4
5 5655 194
5 5656 65
5 5657 60
5 5658 26
5 5659 75
5 5660 110
5 5661 46
5 5662 62
5 5663 92
5 5664 67
5 5665 117
5 5666 46
5 5667 14
5 5668 77
5 5669 7
5 5670 38
5 5671 47
5 5672 13
5 5673 91
5 5674 70
5 5675 64
5 5676 97
5 5677 55
5 5678 278
5 5679 21
5 5680 90
5 5681 31
5 5682 48
5 5683 60
5 5684 47
5 5685 10
5 5686 128
5 5687 73
5 5688 103
5 5689 72
5 5690 45
5 5691 21
5 5692 43
5 5693 28
5 5694 7
5 5695 13
5 5696 35
5 5697 71
5 5698 71
5 5699 47
5 5700 7
5 5701 113
5 5702 57
5 5703 1
5 5704 16
5 5705 27
5 5706 7
5 5707 10
5 5708 4
5 5709 10
5 5710 17
5 5711 7
5 5712 3
5 5713 5
5 5714 1
5 5715 16
5 5716 1
5 5717 2
5 5718 1
5 5719 1
6 1 76
6 2 142
6 3 100
6 4 62
6 5 41
6 6 63
6 7 62
6 8 82
6 9 56
6 10 54
6 11 5763
6 12 46
6 13 101
6 14 54
6 15 36
6 16 23
6 17 52
6 18 69
6 19 32
6 20 41
6 21 41
6 22 118
6 23 69
6 24 54
6 25 70
6 26 89
6 27 45
6 28 42
6 29 37
6 30 21
6 31 70
6 32 19
6 33 62
6 34 92
6 35 25
6 36 68
6 37 52
6 38 76
6 39 61
6 40 39
6 41 59
6 42 102
6 43 70
6 44 52
6 45 14
6 46 101
6 47 62
6 48 69
6 49 83
6 50 49
6 51 51
6 52 63
6 53 29
6 54 34
6 55 101
6 56 95
6 57 7487
6 58 57
6 59 95
6 60 56
6 61 89
6 62 88
6 63 77
6 64 96
6 65 75
6 66 62
6 67 43
6 68 71
6 69 35
6 70 109
6 71 133
6 72 66
6 73 51
6 74 68
6 75 62
6 76 45
6 77 77
6 78 39
6 79 185
6 80 40
6 81 141
6 82 125
6 83 100
6 84 61
6 85 108
6 86 26
6 87 58
6 88 59
6 89 77
6 90 98
6 91 87
6 92 49
6 93 62
6 94 49
6 95 50
6 96 29
6 97 102
6 98 73
6 99 71
6 100 56
6 101 52
6 102 20
6 103 54
6 104 53
6 105 59
6 106 23
6 107 75
6 108 70
6 109 60
6 110 38
6 111 46
6 112 42
6 113 53
6 114 58
6 115 81
6 116 21
6 117 33
6 118 52
6 119 67
6 120 101
6 121 63
6 122 71
6 123 35
6 124 75
6 125 100
6 126 14
6 127 58
6 128 63
6 129 48
6 130 3428
6 131 49
6 132 42
6 133 87
6 134 1636
6 135 152
6 136 49
6 137 69
6 138 5293
6 139 80
6 140 105
6 141 69
6 142 67
6 143 78
6 144 76
6 145 41
6 146 48
6 147 84
6 148 60
6 149 85
6 150 30
6 151 49
6 152 79
6 153 69
6 154 69
6 155 54
6 156 60
6 157 98
6 158 4152
6 159 88
6 160 7482
6 161 79
6 162 46
6 163 61
6 164 74
6 165 67
6 166 76
6 167 68
6 168 34
6 169 35
6 170 56
6 171 80
6 172 103
6 173 56
6 174 69
6 175 66
6 176 81
6 177 22
6 178 92
6 179 39
6 180 61
6 181 43
6 182 77
6 183 56
6 184 50
6 185 54
6 186 41
6 187 56
6 188 69
6 189 71
6 190 65
6 191 61
6 192 47
6 193 41
6 194 92
6 195 27
6 196 49
6 197 25
6 198 45
6 199 27
6 200 83
6 201 70
6 202 75
6 203 51
6 204 49
6 205 81
6 206 3143
6 207 105
6 208 8
6 209 91
6 210 49
6 211 91
6 212 59
6 213 116
6 214 25
6 215 127
6 216 95
6 217 65
6 218 30
6 219 75
6 220 41
6 221 41
6 222 75
6 223 65
6 224 2362
6 225 53
6 226 45
6 227 38
6 228 37
6 229 96
6 230 51
6 231 26
6 232 79
6 233 47
6 234 60
6 235 16
6 236 53
6 237 47
6 238 66
6 239 55
6 240 94
6 241 21
6 242 76
6 243 109
6 244 61
6 245 57
6 246 58
6 247 52
6 248 73
6 249 64
6 250 120
6 251 18
6 252 40
6 253 27
6 254 38
6 255 24
6 256 35879
6 257 79
6 258 27
6 259 87
6 260 51
6 261 18
6 262 58
6 263 47
6 264 166
6 265 67
6 266 35
6 267 20
6 268 76
6 269 92
6 270 72
6 271 71
6 272 59
6 273 36
6 274 62
6 275 31
6 276 103
6 277 70
6 278 74
6 279 77
6 280 43
6 281 4279
6 282 38
6 283 70
6 284 53
6 285 68
6 286 72
6 287 66
6 288 51
6 289 8
6 290 59
6 291 67
6 292 65
6 293 83
6 294 53
6 295 47
6 296 69
6 297 81
6 298 71
6 299 52
6 300 42
6 301 80
6 302 31
6 303 59
6 304 58
6 305 6
6 306 36
6 307 106
6 308 40
6 309 36
6 310 83
6 311 74
6 312 18
6 313 58
6 314 47
6 315 54
6 316 46
6 317 78
6 318 5580
6 319 55
6 320 55
6 321 47
6 322 78
6 323 51
6 324 92
6 325 75
6 326 35
6 327 83
6 328 53
6 329 55
6 330 70
6 331 69
6 332 15
6 333 72
6 334 13
6 335 43
6 336 36
6 337 64
6 338 49
6 339 40
6 340 40
6 341 70
6 342 54
6 343 21
6 344 57
6 345 68
6 346 30
6 347 21
6 348 45
6 349 68
6 350 50
6 351 42
6 352 61
6 353 68
6 354 36
6 355 35
6 356 5556
6 357 42
6 358 64
6 359 27616
6 360 79
6 361 59
6 362 80
6 363 63
6 364 40
6 365 46
6 366 35
6 367 55
6 368 43
6 369 50
6 370 45
6 371 31
6 372 31
6 373 73
6 374 84
6 375 34
6 376 89
6 377 59
6 378 69
6 379 67
6 380 38
6 381 37
6 382 64
6 383 71
6 384 27
6 385 61
6 386 42
6 387 65
6 388 50
6 389 64
6 390 54
6 391 39
6 392 109
6 393 79
6 394 72
6 395 77
6 396 74
6 397 42
6 398 65
6 399 70
6 400 57
6 401 50
6 402 38
6 403 9465
6 404 67
6 405 50
6 406 46
6 407 47
6 408 84
6 409 67
6 410 43
6 411 1861
6 412 64
6 413 63
6 414 42
6 415 126
6 416 32
6 417 40
6 418 52
6 419 62
6 420 4004
6 421 28
6 422 43
6 423 36
6 424 51
6 425 49
6 426 72
6 427 55
6 428 10972
6 429 76
6 430 51
6 431 46
6 432 55
6 433 55
6 434 41
6 435 51
6 436 69
6 437 47
6 438 29
6 439 26
6 440 68
6 441 42
6 442 113
6 443 60
6 444 53
6 445 69
6 446 140
6 447 75
6 448 2265
6 449 67
6 450 7500
6 451 52
6 452 76
6 453 98
6 454 53
6 455 62
6 456 70
6 457 29
6 458 47
6 459 13401
6 460 75
6 461 60
6 462 54
6 463 53
6 464 43
6 465 69
6 466 73
6 467 39
6 468 52
6 469 4799
6 470 98
6 471 41
6 472 56
6 473 67
6 474 66
6 475 68
6 476 46
6 477 43
6 478 4837
6 479 39
6 480 55
6 481 58
6 482 63
6 483 65
6 484 60
6 485 2793
6 486 74
6 487 44
6 488 185
6 489 73
6 490 71
6 491 37
6 492 33
6 493 38
6 494 47
6 495 31
6 496 35
6 497 60
6 498 21
6 499 60
6 500 55
6 501 63
6 502 50
6 503 44
6 504 19
6 505 36
6 506 60
6 507 46
6 508 106
6 509 44
6 510 57
6 511 1089
6 512 39
6 513 8109
6 514 47
6 515 79
6 516 65
6 517 78
6 518 57
6 519 43
6 520 45
6 521 29
6 522 9482
6 523 35
6 524 60
6 525 3017
6 526 55
6 527 70
6 528 46
6 529 47
6 530 43
6 531 98
6 532 34
6 533 75
6 534 57
6 535 78
6 536 52
6 537 78
6 538 24
6 539 81
6 540 31
6 541 2279
6 542 46
6 543 91
6 544 65
6 545 102
6 546 43
6 547 71
6 548 61
6 549 54
6 550 25
6 551 48
6 552 125
6 553 68
6 554 76
6 555 29
6 556 35
6 557 34
6 558 6956
6 559 40
6 560 58
6 561 2321
6 562 47
6 563 55
6 564 33
6 565 57
6 566 43
6 567 57
6 568 32
6 569 71
6 570 68
6 571 39
6 572 52
6 573 4289
6 574 65
6 575 76
6 576 55
6 577 93
6 578 122
6 579 37
6 580 95
6 581 35
6 582 28
6 583 56
6 584 33
6 585 72
6 586 37
6 587 25
6 588 60
6 589 5742
6 590 51
6 591 59
6 592 38
6 593 3313
6 594 31
6 595 43
6 596 58
6 597 3293
6 598 26
6 599 79
6 600 36
6 601 34
6 602 49
6 603 38
6 604 61
6 605 42
6 606 66
6 607 36
6 608 20
6 609 5770
6 610 67
6 611 82
6 612 93
6 613 20
6 614 78
6 615 70
6 616 34
6 617 42
6 618 73
6 619 74
6 620 33
6 621 52
6 622 70
6 623 78
6 624 79
6 625 27467
6 626 72
6 627 104
6 628 3662
6 629 53
6 630 53
6 631 43
6 632 75
6 633 67
6 634 45
6 635 61
6 636 2873
6 637 2429
6 638 29
6 639 26
6 640 43
6 641 51
6 642 58
6 643 80
6 644 85
6 645 65
6 646 83
6 647 52
6 648 37
6 649 26
6 650 70
6 651 58
6 652 116
6 653 37
6 654 66
6 655 34
6 656 30
6 657 44
6 658 5545
6 659 143
6 660 16
6 661 66
6 662 43
6 663 78
6 664 37
6 665 24
6 666 54
6 667 67
6 668 7180
6 669 61
6 670 42
6 671 72
6 672 77
6 673 56
6 674 27
6 675 41
6 676 81
6 677 43
6 678 55
6 679 64
6 680 62
6 681 28
6 682 59
6 683 48
6 684 55
6 685 89
6 686 39
6 687 80
6 688 58
6 689 45
6 690 28
6 691 40
6 692 35
6 693 73
6 694 97
6 695 49
6 696 43
6 697 48
6 698 33
6 699 83
6 700 65
6 701 89
6 702 39
6 703 75
6 704 59
6 705 35
6 706 30
6 707 47
6 708 53
6 709 68
6 710 42
6 711 102
6 712 2975
6 713 60
6 714 88
6 715 72
6 716 69
6 717 28
6 718 31
6 719 58
6 720 53
6 721 48
6 722 66
6 723 41
6 724 73
6 725 66
6 726 70
6 727 68
6 728 70
6 729 41
6 730 31
6 731 54
6 732 21
6 733 78
6 734 42
6 735 77
6 736 55
6 737 62
6 738 33
6 739 54
6 740 64
6 741 81
6 742 31
6 743 41
6 744 69
6 745 41
6 746 29
6 747 16775
6 748 68
6 749 29
6 750 3467
6 751 46
6 752 46
6 753 32
6 754 57
6 755 37
6 756 57
6 757 65
6 758 5336
6 759 2826
6 760 37
6 761 7
6 762 75
6 763 63
6 764 37
6 765 11
6 766 4279
6 767 32
6 768 8240
6 769 36
6 770 51
6 771 45
6 772 34
6 773 50
6 774 76
6 775 67
6 776 67
6 777 49
6 778 49
6 779 65
6 780 57
6 781 35
6 782 12597
6 783 51
6 784 62
6 785 34
6 786 55
6 787 50
6 788 73
6 789 90
6 790 3299
6 791 87
6 792 88
6 793 57
6 794 60
6 795 63
6 796 60
6 797 31
6 798 70
6 799 81
6 800 21
6 801 134
6 802 56
6 803 41
6 804 64
6 805 35
6 806 60
6 807 37
6 808 52
6 809 45
6 810 56
6 811 49
6 812 54
6 813 43
6 814 23
6 815 3010
6 816 47
6 817 68
6 818 80
6 819 61
6 820 54
6 821 169
6 822 30
6 823 38
6 824 54
6 825 59
6 826 57
6 827 32
6 828 63
6 829 37
6 830 6349
6 831 88
6 832 50
6 833 48
6 834 69
6 835 42
6 836 57
6 837 17720
6 838 41
6 839 101
6 840 45
6 841 66
6 842 39
6 843 65
6 844 60
6 845 36
6 846 34
6 847 53
6 848 85
6 849 89
6 850 53
6 851 73
6 852 55
6 853 31
6 854 38
6 855 60
6 856 78
6 857 50
6 858 56
6 859 47
6 860 62
6 861 43
6 862 30
6 863 52
6 864 53
6 865 50
6 866 923
6 867 33
6 868 43
6 869 61
6 870 7318
6 871 37
6 872 61
6 873 17
6 874 52
6 875 57
6 876 48
6 877 37
6 878 58
6 879 57
6 880 57
6 881 58
6 882 42
6 883 40
6 884 1851
6 885 55
6 886 86
6 887 55
6 888 68
6 889 1061
6 890 59
6 891 43
6 892 58
6 893 42
6 894 49
6 895 47
6 896 43
6 897 50
6 898 56
6 899 69
6 900 58
6 901 55
6 902 100
6 903 261
6 904 24
6 905 53
6 906 13583
6 907 42
6 908 84
6 909 54
6 910 54
6 911 57
6 912 50
6 913 30
6 914 68
6 915 59
6 916 10939
6 917 55
6 918 41
6 919 72
6 920 85
6 921 84
6 922 44
6 923 75
6 924 83
6 925 32
6 926 52
6 927 47
6 928 65
6 929 43
6 930 41
6 931 71
6 932 56
6 933 51
6 934 60
6 935 77
6 936 142
6 937 64
6 938 42
6 939 44
6 940 58
6 941 74
6 942 94
6 943 48
6 944 10475
6 945 57
6 946 26
6 947 82
6 948 70
6 949 26
6 950 32
6 951 75
6 952 364
6 953 39
6 954 30
6 955 91
6 956 49
6 957 49
6 958 40
6 959 64
6 960 38
6 961 4900
6 962 70
6 963 65
6 964 41
6 965 42
6 966 86
6 967 40
6 968 62
6 969 57
6 970 48007
6 971 58
6 972 10140
6 973 74
6 974 69
6 975 73
6 976 43
6 977 23
6 978 36
6 979 41
6 980 70
6 981 5929
6 982 46
6 983 74
6 984 25
6 985 52
6 986 81
6 987 58
6 988 38
6 989 74
6 990 28
6 991 54
6 992 6643
6 993 54
6 994 10533
6 995 44
6 996 47
6 997 27
6 998 58
6 999 28
6 1000 62
6 1001 33
6 1002 84
6 1003 56
6 1004 13
6 1005 28
6 1006 28
6 1007 69
6 1008 5718
6 1009 70
6 1010 38
6 1011 58
6 1012 67
6 1013 53
6 1014 106
6 1015 60
6 1016 26
6 1017 54
6 1018 25
6 1019 72
6 1020 60
6 1021 38
6 1022 73
6 1023 5354
6 1024 67
6 1025 41
6 1026 63
6 1027 40
6 1028 42
6 1029 70
6 1030 7598
6 1031 59
6 1032 27
6 1033 35
6 1034 98
6 1035 60
6 1036 32
6 1037 72
6 1038 63
6 1039 3491
6 1040 29
6 1041 122
6 1042 62
6 1043 64
6 1044 78
6 1045 107
6 1046 49
6 1047 47
6 1048 39
6 1049 66
6 1050 4888
6 1051 1912
6 1052 5234
6 1053 44
6 1054 102
6 1055 29
6 1056 62
6 1057 31
6 1058 47
6 1059 3593
6 1060 34
6 1061 64
6 1062 46
6 1063 55
6 1064 35
6 1065 55
6 1066 59
6 1067 53
6 1068 175
6 1069 79
6 1070 4602
6 1071 26
6 1072 32
6 1073 55
6 1074 4007
6 1075 63
6 1076 40
6 1077 96
6 1078 50
6 1079 57
6 1080 84
6 1081 54
6 1082 66
6 1083 55
6 1084 26
6 1085 50
6 1086 72
6 1087 46
6 1088 39
6 1089 56
6 1090 21
6 1091 59
6 1092 45
6 1093 69
6 1094 45
6 1095 50
6 1096 50
6 1097 43
6 1098 22
6 1099 72
6 1100 35
6 1101 54
6 1102 48
6 1103 70
6 1104 77
6 1105 61
6 1106 51
6 1107 54
6 1108 67
6 1109 72
6 1110 69
6 1111 61
6 1112 73
6 1113 52
6 1114 66
6 1115 69
6 1116 65
6 1117 61
6 1118 43
6 1119 43
6 1120 52
6 1121 49
6 1122 59
6 1123 100
6 1124 46
6 1125 73
6 1126 47
6 1127 51
6 1128 60
6 1129 64
6 1130 8002
6 1131 71
6 1132 20344
6 1133 59
6 1134 61
6 1135 3366
6 1136 42
6 1137 84
6 1138 81
6 1139 56
6 1140 47
6 1141 49
6 1142 51
6 1143 39
6 1144 51
6 1145 66
6 1146 47
6 1147 60
6 1148 38
6 1149 57
6 1150 58
6 1151 33
6 1152 63
6 1153 41
6 1154 35
6 1155 31
6 1156 48
6 1157 41
6 1158 63
6 1159 35
6 1160 5495
6 1161 62
6 1162 23
6 1163 52
6 1164 66
6 1165 77
6 1166 53
6 1167 47
6 1168 64
6 1169 44
6 1170 47
6 1171 78
6 1172 58
6 1173 54
6 1174 2562
6 1175 2511
6 1176 39
6 1177 71
6 1178 69
6 1179 38
6 1180 50
6 1181 53
6 1182 71
6 1183 58
6 1184 48
6 1185 38
6 1186 46
6 1187 63
6 1188 42
6 1189 3919
6 1190 64
6 1191 42
6 1192 54
6 1193 36
6 1194 24
6 1195 41
6 1196 48
6 1197 46
6 1198 94
6 1199 49
6 1200 42
6 1201 49
6 1202 49
6 1203 65
6 1204 54
6 1205 46
6 1206 39
6 1207 42
6 1208 26
6 1209 30
6 1210 45
6 1211 65
6 1212 76
6 1213 52
6 1214 38
6 1215 79
6 1216 53
6 1217 5758
6 1218 57
6 1219 4399
6 1220 79
6 1221 49
6 1222 81
6 1223 32
6 1224 63
6 1225 57
6 1226 25
6 1227 53
6 1228 63
6 1229 36
6 1230 61
6 1231 70
6 1232 42
6 1233 48
6 1234 54
6 1235 52
6 1236 58
6 1237 1439
6 1238 55
6 1239 88
6 1240 36
6 1241 55
6 1242 60
6 1243 52
6 1244 46
6 1245 61
6 1246 74
6 1247 51
6 1248 32
6 1249 61
6 1250 46
6 1251 68
6 1252 38
6 1253 53
6 1254 93
6 1255 40
6 1256 31
6 1257 40
6 1258 110
6 1259 64
6 1260 105
6 1261 52
6 1262 37
6 1263 59
6 1264 37
6 1265 772
6 1266 37
6 1267 44
6 1268 158
6 1269 69
6 1270 55
6 1271 15
6 1272 65
6 1273 65
6 1274 68
6 1275 1824
6 1276 37
6 1277 42
6 1278 46
6 1279 31
6 1280 5378
6 1281 8
6 1282 54
6 1283 38
6 1284 48
6 1285 69
6 1286 84
6 1287 73
6 1288 84
6 1289 56
6 1290 61
6 1291 65
6 1292 27
6 1293 82
6 1294 27
6 1295 35
6 1296 21
6 1297 34
6 1298 69
6 1299 95
6 1300 118
6 1301 4817
6 1302 83
6 1303 30
6 1304 33
6 1305 7556
6 1306 75
6 1307 116
6 1308 51
6 1309 65
6 1310 48
6 1311 26
6 1312 56
6 1313 38
6 1314 45
6 1315 40
6 1316 43
6 1317 8582
6 1318 49
6 1319 46
6 1320 52
6 1321 48
6 1322 2140
6 1323 64
6 1324 48
6 1325 52
6 1326 57
6 1327 43
6 1328 54
6 1329 37
6 1330 43
6 1331 18554
6 1332 34
6 1333 78
6 1334 55
6 1335 83
6 1336 41
6 1337 73
6 1338 3809
6 1339 32
6 1340 61
6 1341 84
6 1342 53
6 1343 111
6 1344 77
6 1345 34
6 1346 57
6 1347 69
6 1348 14
6 1349 49
6 1350 48
6 1351 53
6 1352 32
6 1353 64
6 1354 59
6 1355 76
6 1356 46
6 1357 39
6 1358 70
6 1359 50
6 1360 38
6 1361 30
6 1362 57
6 1363 53
6 1364 51
6 1365 41
6 1366 41
6 1367 76
6 1368 57
6 1369 49
6 1370 41
6 1371 63
6 1372 38
6 1373 25
6 1374 94
6 1375 93
6 1376 50
6 1377 73
6 1378 32
6 1379 50
6 1380 60
6 1381 86
6 1382 72
6 1383 11160
6 1384 49
6 1385 51
6 1386 34
6 1387 46
6 1388 230
6 1389 52
6 1390 26
6 1391 32
6 1392 81
6 1393 39
6 1394 43
6 1395 59
6 1396 63
6 1397 25
6 1398 23
6 1399 42
6 1400 45
6 1401 73
6 1402 29
6 1403 54
6 1404 44
6 1405 57
6 1406 53
6 1407 39
6 1408 59
6 1409 47
6 1410 46
6 1411 60
6 1412 41
6 1413 52
6 1414 67
6 1415 38
6 1416 65
6 1417 81
6 1418 17
6 1419 56
6 1420 51
6 1421 28
6 1422 47
6 1423 47
6 1424 47
6 1425 77
6 1426 55
6 1427 4142
6 1428 41
6 1429 57
6 1430 47
6 1431 57
6 1432 7489
6 1433 55
6 1434 41
6 1435 54
6 1436 55
6 1437 32
6 1438 52
6 1439 30
6 1440 53
6 1441 40
6 1442 12003
6 1443 38
6 1444 43
6 1445 69
6 1446 31
6 1447 88
6 1448 33
6 1449 44
6 1450 54
6 1451 40
6 1452 63
6 1453 81
6 1454 55
6 1455 48
6 1456 1095
6 1457 98
6 1458 49
6 1459 69
6 1460 39
6 1461 1557
6 1462 47
6 1463 52
6 1464 53
6 1465 73
6 1466 46
6 1467 58
6 1468 84
6 1469 7
6 1470 2820
6 1471 35
6 1472 52
6 1473 54
6 1474 40
6 1475 77
6 1476 67
6 1477 36
6 1478 34
6 1479 64
6 1480 4580
6 1481 43
6 1482 53
6 1483 39
6 1484 35
6 1485 63
6 1486 66
6 1487 57
6 1488 76
6 1489 58
6 1490 2838
6 1491 41
6 1492 84
6 1493 48
6 1494 3820
6 1495 32
6 1496 66
6 1497 56
6 1498 47
6 1499 59
6 1500 37
6 1501 41
6 1502 34
6 1503 88
6 1504 59
6 1505 4102
6 1506 28
6 1507 43
6 1508 54
6 1509 56
6 1510 61
6 1511 61
6 1512 1962
6 1513 54
6 1514 54
6 1515 71
6 1516 68
6 1517 37
6 1518 78
6 1519 1190
6 1520 74
6 1521 55
6 1522 57
6 1523 74
6 1524 5687
6 1525 165
6 1526 65
6 1527 39
6 1528 43
6 1529 69
6 1530 16473
6 1531 87
6 1532 57
6 1533 63
6 1534 62
6 1535 5239
6 1536 38
6 1537 32
6 1538 42
6 1539 16
6 1540 46
6 1541 287
6 1542 4423
6 1543 57
6 1544 42
6 1545 58
6 1546 41
6 1547 54
6 1548 56
6 1549 27
6 1550 53
6 1551 74
6 1552 29
6 1553 31
6 1554 50
6 1555 48
6 1556 29
6 1557 11398
6 1558 60
6 1559 58
6 1560 21
6 1561 60
6 1562 45
6 1563 61
6 1564 9017
6 1565 156
6 1566 49
6 1567 52
6 1568 63
6 1569 45
6 1570 49
6 1571 12672
6 1572 76
6 1573 4956
6 1574 56
6 1575 58
6 1576 44
6 1577 5045
6 1578 75
6 1579 69
6 1580 40
6 1581 45
6 1582 50
6 1583 55
6 1584 35
6 1585 44
6 1586 41
6 1587 60
6 1588 50
6 1589 642
6 1590 52
6 1591 61
6 1592 537
6 1593 6553
6 1594 40
6 1595 57
6 1596 72
6 1597 45
6 1598 19
6 1599 105
6 1600 70
6 1601 30
6 1602 40
6 1603 50
6 1604 38
6 1605 40
6 1606 59
6 1607 51
6 1608 78
6 1609 45
6 1610 33
6 1611 69
6 1612 80
6 1613 7130
6 1614 51
6 1615 36
6 1616 55
6 1617 65
6 1618 56
6 1619 50
6 1620 54
6 1621 50
6 1622 3733
6 1623 47
6 1624 61
6 1625 35
6 1626 55
6 1627 80
6 1628 99
6 1629 6148
6 1630 43
6 1631 45
6 1632 64
6 1633 36
6 1634 46
6 1635 5635
6 1636 45
6 1637 64
6 1638 55
6 1639 55
6 1640 58
6 1641 32
6 1642 64
6 1643 47
6 1644 17
6 1645 37
6 1646 68
6 1647 51
6 1648 4690
6 1649 44
6 1650 50
6 1651 25
6 1652 77
6 1653 55
6 1654 60
6 1655 128
6 1656 32
6 1657 33
6 1658 41
6 1659 102
6 1660 44
6 1661 51
6 1662 49
6 1663 6626
6 1664 65
6 1665 94
6 1666 55
6 1667 77
6 1668 119
6 1669 16
6 1670 36
6 1671 3650
6 1672 71
6 1673 34
6 1674 1076
6 1675 61
6 1676 32
6 1677 33
6 1678 26
6 1679 52
6 1680 40
6 1681 64
6 1682 46
6 1683 38
6 1684 45
6 1685 73
6 1686 49
6 1687 42
6 1688 69
6 1689 56
6 1690 31
6 1691 35
6 1692 35
6 1693 56
6 1694 55
6 1695 4421
6 1696 26
6 1697 4832
6 1698 38
6 1699 33
6 1700 62
6 1701 48
6 1702 34
6 1703 25
6 1704 1295
6 1705 25
6 1706 68
6 1707 26
6 1708 47
6 1709 3127
6 1710 57
6 1711 14
6 1712 77
6 1713 46
6 1714 41
6 1715 1616
6 1716 1706
6 1717 23
6 1718 38
6 1719 50
6 1720 62
6 1721 44
6 1722 28
6 1723 29
6 1724 81
6 1725 44
6 1726 34
6 1727 38
6 1728 1227
6 1729 57
6 1730 64
6 1731 36
6 1732 53
6 1733 56
6 1734 34
6 1735 4732
6 1736 59
6 1737 83
6 1738 3436
6 1739 54
6 1740 63
6 1741 2502
6 1742 61
6 1743 35
6 1744 32
6 1745 40
6 1746 32
6 1747 31
6 1748 33
6 1749 99
6 1750 80
6 1751 44
6 1752 61
6 1753 37
6 1754 97
6 1755 58
6 1756 46
6 1757 83
6 1758 44
6 1759 21
6 1760 74
6 1761 205
6 1762 55
6 1763 3945
6 1764 1499
6 1765 37
6 1766 23
6 1767 38
6 1768 78
6 1769 37
6 1770 68
6 1771 53
6 1772 57
6 1773 29
6 1774 34
6 1775 58
6 1776 50
6 1777 44
6 1778 83
6 1779 75
6 1780 21
6 1781 63
6 1782 50
6 1783 59
6 1784 29
6 1785 33
6 1786 4478
6 1787 54
6 1788 27
6 1789 137
6 1790 63
6 1791 52
6 1792 62
6 1793 54
6 1794 51
6 1795 60
6 1796 28
6 1797 28
6 1798 45
6 1799 2876
6 1800 48
6 1801 48
6 1802 27
6 1803 50
6 1804 55
6 1805 26
6 1806 62
6 1807 55
6 1808 34
6 1809 53
6 1810 32
6 1811 29
6 1812 29
6 1813 57
6 1814 47
6 1815 51
6 1816 60
6 1817 31
6 1818 23
6 1819 52
6 1820 59
6 1821 32
6 1822 56
6 1823 61
6 1824 26
6 1825 61
6 1826 26
6 1827 37
6 1828 42
6 1829 63
6 1830 98
6 1831 48
6 1832 48
6 1833 62
6 1834 45
6 1835 36
6 1836 28
6 1837 58
6 1838 39
6 1839 69
6 1840 33
6 1841 61
6 1842 61
6 1843 4545
6 1844 103
6 1845 100
6 1846 66
6 1847 42
6 1848 78
6 1849 35
6 1850 46
6 1851 54
6 1852 58
6 1853 202
6 1854 3966
6 1855 34
6 1856 70
6 1857 73
6 1858 46
6 1859 49
6 1860 68
6 1861 32
6 1862 61
6 1863 42
6 1864 33
6 1865 27
6 1866 62
6 1867 42
6 1868 31
6 1869 58
6 1870 40
6 1871 51
6 1872 49
6 1873 43
6 1874 56
6 1875 82
6 1876 31
6 1877 87
6 1878 14
6 1879 35
6 1880 27
6 1881 58
6 1882 20
6 1883 60
6 1884 61
6 1885 53
6 1886 39
6 1887 46
6 1888 40
6 1889 42
6 1890 51
6 1891 86
6 1892 54
6 1893 51
6 1894 28
6 1895 22
6 1896 56
6 1897 78
6 1898 56
6 1899 35
6 1900 5753
6 1901 76
6 1902 58
6 1903 56
6 1904 72
6 1905 35
6 1906 56
6 1907 65
6 1908 41
6 1909 71
6 1910 89
6 1911 35
6 1912 30
6 1913 52
6 1914 35
6 1915 72
6 1916 35
6 1917 47
6 1918 31
6 1919 35
6 1920 69
6 1921 46
6 1922 31
6 1923 2012
6 1924 41
6 1925 8477
6 1926 37
6 1927 38
6 1928 54
6 1929 27
6 1930 56
6 1931 44
6 1932 42
6 1933 66
6 1934 74
6 1935 43
6 1936 52
6 1937 78
6 1938 53
6 1939 104
6 1940 61
6 1941 51
6 1942 74
6 1943 32
6 1944 33
6 1945 98
6 1946 52
6 1947 9359
6 1948 69
6 1949 84
6 1950 713
6 1951 3506
6 1952 59
6 1953 53
6 1954 76
6 1955 34
6 1956 55
6 1957 33
6 1958 49
6 1959 58
6 1960 4330
6 1961 31
6 1962 30
6 1963 37
6 1964 49
6 1965 4544
6 1966 32
6 1967 2223
6 1968 56
6 1969 55
6 1970 49
6 1971 62
6 1972 44
6 1973 24
6 1974 41
6 1975 50
6 1976 25
6 1977 51
6 1978 69
6 1979 55
6 1980 341
6 1981 64
6 1982 57
6 1983 48
6 1984 32
6 1985 27
6 1986 48
6 1987 38
6 1988 46
6 1989 50
6 1990 49
6 1991 62
6 1992 68
6 1993 59
6 1994 35
6 1995 49
6 1996 38
6 1997 63
6 1998 57
6 1999 36
6 2000 105
6 2001 54
6 2002 6607
6 2003 4460
6 2004 29
6 2005 41
6 2006 60
6 2007 2078
6 2008 38
6 2009 59
6 2010 34
6 2011 68
6 2012 37
6 2013 39
6 2014 34
6 2015 7413
6 2016 28
6 2017 47
6 2018 40
6 2019 4003
6 2020 37
6 2021 35
6 2022 47
6 2023 53
6 2024 14
6 2025 70
6 2026 65
6 2027 58
6 2028 39
6 2029 1447
6 2030 67
6 2031 30
6 2032 53
6 2033 32
6 2034 35
6 2035 49
6 2036 57
6 2037 33
6 2038 59
6 2039 619
6 2040 71
6 2041 40
6 2042 55
6 2043 39
6 2044 12408
6 2045 49
6 2046 51
6 2047 30
6 2048 41
6 2049 4588
6 2050 49
6 2051 85
6 2052 529
6 2053 49
6 2054 66
6 2055 12
6 2056 52
6 2057 11561
6 2058 25
6 2059 20
6 2060 52
6 2061 31
6 2062 59
6 2063 87
6 2064 32
6 2065 54
6 2066 58
6 2067 54
6 2068 74
6 2069 49
6 2070 54
6 2071 70
6 2072 28
6 2073 49
6 2074 42
6 2075 39
6 2076 544
6 2077 61
6 2078 45
6 2079 22
6 2080 57
6 2081 31
6 2082 50
6 2083 30
6 2084 57
6 2085 48
6 2086 82
6 2087 52
6 2088 41
6 2089 30
6 2090 31
6 2091 22
6 2092 55
6 2093 53
6 2094 62
6 2095 6
6 2096 65
6 2097 60
6 2098 53
6 2099 56
6 2100 28561
6 2101 1187
6 2102 58
6 2103 78
6 2104 84
6 2105 31
6 2106 44
6 2107 40
6 2108 54
6 2109 20
6 2110 34
6 2111 42
6 2112 10430
6 2113 57
6 2114 56
6 2115 39
6 2116 40
6 2117 52
6 2118 37
6 2119 4607
6 2120 2918
6 2121 47
6 2122 26
6 2123 49
6 2124 13947
6 2125 47
6 2126 42
6 2127 54
6 2128 31
6 2129 46
6 2130 45
6 2131 40
6 2132 56
6 2133 70
6 2134 36
6 2135 59
6 2136 68
6 2137 35
6 2138 63
6 2139 88
6 2140 661
6 2141 44
6 2142 40
6 2143 63
6 2144 102
6 2145 3223
6 2146 41
6 2147 48
6 2148 60
6 2149 70
6 2150 55
6 2151 32
6 2152 756
6 2153 69
6 2154 26
6 2155 36
6 2156 63
6 2157 63
6 2158 54
6 2159 52
6 2160 30
6 2161 10
6 2162 51
6 2163 46
6 2164 28
6 2165 52
6 2166 95
6 2167 63
6 2168 39
6 2169 102
6 2170 33
6 2171 67
6 2172 54
6 2173 51
6 2174 60
6 2175 39
6 2176 50
6 2177 49
6 2178 33
6 2179 98
6 2180 40
6 2181 5780
6 2182 11
6 2183 64
6 2184 26
6 2185 71
6 2186 55
6 2187 48
6 2188 53
6 2189 82
6 2190 68
6 2191 66
6 2192 43
6 2193 74
6 2194 4425
6 2195 73
6 2196 53
6 2197 34
6 2198 32
6 2199 56
6 2200 51
6 2201 51
6 2202 55
6 2203 40
6 2204 54
6 2205 82
6 2206 46
6 2207 72
6 2208 32
6 2209 35
6 2210 57
6 2211 44
6 2212 53
6 2213 40
6 2214 63
6 2215 53
6 2216 54
6 2217 35
6 2218 49
6 2219 60
6 2220 97
6 2221 43
6 2222 42
6 2223 42
6 2224 43
6 2225 54
6 2226 50
6 2227 45
6 2228 5017
6 2229 30
6 2230 83
6 2231 744
6 2232 62
6 2233 60
6 2234 27
6 2235 63
6 2236 53
6 2237 77
6 2238 32
6 2239 64
6 2240 60
6 2241 39
6 2242 76
6 2243 3124
6 2244 60
6 2245 62
6 2246 46
6 2247 41
6 2248 82
6 2249 3302
6 2250 175
6 2251 18
6 2252 58
6 2253 55
6 2254 22
6 2255 60
6 2256 76
6 2257 24
6 2258 30
6 2259 43
6 2260 30
6 2261 36
6 2262 52
6 2263 72
6 2264 37
6 2265 64
6 2266 1244
6 2267 6749
6 2268 90
6 2269 65
6 2270 25
6 2271 70
6 2272 48
6 2273 55
6 2274 25
6 2275 57
6 2276 35
6 2277 25
6 2278 81
6 2279 45
6 2280 52
6 2281 35
6 2282 43
6 2283 55
6 2284 73
6 2285 273
6 2286 37
6 2287 57
6 2288 29
6 2289 63
6 2290 71
6 2291 25
6 2292 52
6 2293 40
6 2294 12
6 2295 59
6 2296 62
6 2297 84
6 2298 53
6 2299 44
6 2300 52
6 2301 31
6 2302 38
6 2303 33
6 2304 64
6 2305 71
6 2306 34
6 2307 59
6 2308 28
6 2309 54
6 2310 29
6 2311 59
6 2312 61
6 2313 37
6 2314 38
6 2315 67
6 2316 50
6 2317 54
6 2318 29
6 2319 78
6 2320 72
6 2321 53
6 2322 102
6 2323 74
6 2324 101
6 2325 46
6 2326 63
6 2327 99
6 2328 57
6 2329 79
6 2330 39
6 2331 75
6 2332 57
6 2333 34
6 2334 480
6 2335 11
6 2336 56
6 2337 38
6 2338 37
6 2339 44
6 2340 387
6 2341 49
6 2342 69
6 2343 25
6 2344 13905
6 2345 3381
6 2346 58
6 2347 58
6 2348 55
6 2349 47
6 2350 46
6 2351 46
6 2352 43
6 2353 29
6 2354 125
6 2355 65
6 2356 21
6 2357 4348
6 2358 56
6 2359 48
6 2360 30
6 2361 27
6 2362 261
6 2363 68
6 2364 25
6 2365 74
6 2366 37
6 2367 28
6 2368 27
6 2369 405
6 2370 25
6 2371 60
6 2372 52
6 2373 38
6 2374 66
6 2375 48
6 2376 55
6 2377 53
6 2378 75
6 2379 55
6 2380 62
6 2381 75
6 2382 61
6 2383 33
6 2384 35
6 2385 38
6 2386 66
6 2387 25
6 2388 44
6 2389 29
6 2390 68
6 2391 72
6 2392 42
6 2393 48
6 2394 60
6 2395 54
6 2396 95
6 2397 54
6 2398 50
6 2399 3904
6 2400 60
6 2401 65
6 2402 39
6 2403 36
6 2404 41
6 2405 36
6 2406 57
6 2407 53
6 2408 51
6 2409 31
6 2410 44
6 2411 65
6 2412 42
6 2413 69
6 2414 51
6 2415 50
6 2416 52
6 2417 13
6 2418 5
6 2419 52
6 2420 47
6 2421 3506
6 2422 37
6 2423 40
6 2424 4983
6 2425 73
6 2426 100
6 2427 5363
6 2428 56
6 2429 46
6 2430 44
6 2431 7052
6 2432 31
6 2433 64
6 2434 44
6 2435 49
6 2436 1906
6 2437 28
6 2438 76
6 2439 45
6 2440 75
6 2441 64
6 2442 36
6 2443 39
6 2444 44
6 2445 27
6 2446 45
6 2447 43
6 2448 56
6 2449 53
6 2450 4920
6 2451 79
6 2452 35
6 2453 20
6 2454 28
6 2455 129
6 2456 2899
6 2457 31
6 2458 32
6 2459 36
6 2460 42
6 2461 26
6 2462 30
6 2463 34
6 2464 69
6 2465 72
6 2466 57
6 2467 65
6 2468 59
6 2469 38
6 2470 58
6 2471 40
6 2472 20
6 2473 64
6 2474 43
6 2475 69
6 2476 22
6 2477 71
6 2478 38
6 2479 71
6 2480 83
6 2481 31
6 2482 41
6 2483 44
6 2484 74
6 2485 37
6 2486 34
6 2487 40
6 2488 42
6 2489 61
6 2490 35
6 2491 21
6 2492 31
6 2493 42
6 2494 65
6 2495 84
6 2496 53
6 2497 10229
6 2498 36
6 2499 37
6 2500 40
6 2501 80
6 2502 67
6 2503 16
6 2504 52
6 2505 77
6 2506 50
6 2507 44
6 2508 63
6 2509 62
6 2510 62
6 2511 21
6 2512 37
6 2513 1827
6 2514 58
6 2515 47
6 2516 43
6 2517 29
6 2518 58
6 2519 102
6 2520 45
6 2521 51
6 2522 34
6 2523 30
6 2524 48
6 2525 62
6 2526 18
6 2527 30
6 2528 31
6 2529 54
6 2530 34
6 2531 31
6 2532 50
6 2533 30
6 2534 32
6 2535 64
6 2536 59
6 2537 2799
6 2538 23
6 2539 40
6 2540 28
6 2541 64
6 2542 34
6 2543 23
6 2544 55
6 2545 28
6 2546 41
6 2547 4531
6 2548 48
6 2549 36
6 2550 33
6 2551 43
6 2552 52
6 2553 45
6 2554 46
6 2555 35
6 2556 34
6 2557 73
6 2558 31
6 2559 39
6 2560 258
6 2561 34
6 2562 42
6 2563 59
6 2564 53
6 2565 33
6 2566 21
6 2567 55
6 2568 64
6 2569 58
6 2570 64
6 2571 42
6 2572 29
6 2573 57
6 2574 29
6 2575 1578
6 2576 34
6 2577 1438
6 2578 34
6 2579 63
6 2580 3292
6 2581 63
6 2582 39
6 2583 204
6 2584 33
6 2585 34
6 2586 67
6 2587 59
6 2588 4113
6 2589 46
6 2590 49
6 2591 18
6 2592 42
6 2593 45
6 2594 30
6 2595 138
6 2596 4725
6 2597 72
6 2598 28
6 2599 83
6 2600 47
6 2601 82
6 2602 45
6 2603 32
6 2604 25
6 2605 39
6 2606 96
6 2607 35
6 2608 16
6 2609 14
6 2610 28
6 2611 55
6 2612 48
6 2613 2475
6 2614 48
6 2615 50
6 2616 40
6 2617 16
6 2618 25
6 2619 46
6 2620 56
6 2621 24
6 2622 47
6 2623 30
6 2624 29
6 2625 62
6 2626 45
6 2627 50
6 2628 32
6 2629 31
6 2630 47
6 2631 3037
6 2632 24
6 2633 2565
6 2634 46
6 2635 59
6 2636 42
6 2637 55
6 2638 293
6 2639 34
6 2640 23
6 2641 52
6 2642 39
6 2643 9201
6 2644 58
6 2645 62
6 2646 51
6 2647 58
6 2648 29
6 2649 48
6 2650 27
6 2651 73
6 2652 22
6 2653 28
6 2654 41
6 2655 71
6 2656 25
6 2657 52
6 2658 48
6 2659 46
6 2660 42
6 2661 32
6 2662 75
6 2663 52
6 2664 32
6 2665 8
6 2666 58
6 2667 60
6 2668 4
6 2669 37
6 2670 52
6 2671 84
6 2672 36
6 2673 51
6 2674 43
6 2675 40
6 2676 65
6 2677 44
6 2678 47
6 2679 44
6 2680 30
6 2681 12235
6 2682 8480
6 2683 55
6 2684 49
6 2685 31
6 2686 64
6 2687 59
6 2688 39
6 2689 21
6 2690 43
6 2691 57
6 2692 56
6 2693 44
6 2694 26
6 2695 28
6 2696 37
6 2697 441
6 2698 44
6 2699 3856
6 2700 45
6 2701 51
6 2702 63
6 2703 59
6 2704 58
6 2705 3441
6 2706 24
6 2707 4740
6 2708 23
6 2709 59
6 2710 44
6 2711 3220
6 2712 57
6 2713 5065
6 2714 38
6 2715 50
6 2716 47
6 2717 48
6 2718 32
6 2719 107
6 2720 58
6 2721 50
6 2722 60
6 2723 46
6 2724 47
6 2725 37
6 2726 50
6 2727 47
6 2728 46
6 2729 33
6 2730 48
6 2731 490
6 2732 36
6 2733 63
6 2734 44
6 2735 58
6 2736 38
6 2737 60
6 2738 26
6 2739 42
6 2740 43
6 2741 66
6 2742 54
6 2743 21
6 2744 63
6 2745 43
6 2746 23
6 2747 35
6 2748 57
6 2749 41
6 2750 98
6 2751 36
6 2752 25
6 2753 41
6 2754 35
6 2755 25
6 2756 20
6 2757 40
6 2758 42
6 2759 59
6 2760 77
6 2761 55
6 2762 49
6 2763 30
6 2764 58
6 2765 2776
6 2766 5101
6 2767 62
6 2768 3346
6 2769 42
6 2770 31
6 2771 60
6 2772 37
6 2773 52
6 2774 30
6 2775 37
6 2776 212
6 2777 37
6 2778 56
6 2779 39
6 2780 1873
6 2781 51
6 2782 30
6 2783 47
6 2784 70
6 2785 47
6 2786 20
6 2787 65
6 2788 53
6 2789 35
6 2790 23
6 2791 88
6 2792 37
6 2793 59
6 2794 44
6 2795 47
6 2796 6011
6 2797 49
6 2798 111
6 2799 44
6 2800 43
6 2801 72
6 2802 51
6 2803 29
6 2804 13
6 2805 58
6 2806 60
6 2807 33
6 2808 48
6 2809 57
6 2810 1446
6 2811 55
6 2812 2471
6 2813 39
6 2814 62
6 2815 70
6 2816 42
6 2817 30
6 2818 8
6 2819 71
6 2820 212
6 2821 46
6 2822 52
6 2823 49
6 2824 36
6 2825 21
6 2826 37
6 2827 715
6 2828 58
6 2829 66
6 2830 42
6 2831 35
6 2832 48
6 2833 30
6 2834 34
6 2835 74
6 2836 29
6 2837 57
6 2838 41
6 2839 85
6 2840 19
6 2841 52
6 2842 56
6 2843 23
6 2844 30
6 2845 54
6 2846 62
6 2847 31
6 2848 37
6 2849 42
6 2850 50
6 2851 46
6 2852 2895
6 2853 5261
6 2854 47
6 2855 55
6 2856 63
6 2857 21
6 2858 53
6 2859 31
6 2860 480
6 2861 70
6 2862 43
6 2863 50
6 2864 54
6 2865 48
6 2866 70
6 2867 43
6 2868 35
6 2869 26
6 2870 72
6 2871 43
6 2872 31
6 2873 20
6 2874 56
6 2875 53
6 2876 31
6 2877 77
6 2878 33
6 2879 7041
6 2880 85
6 2881 47
6 2882 48
6 2883 54
6 2884 43
6 2885 1095
6 2886 41
6 2887 62
6 2888 46
6 2889 15
6 2890 56
6 2891 27
6 2892 55
6 2893 29
6 2894 62
6 2895 981
6 2896 649
6 2897 5568
6 2898 55
6 2899 79
6 2900 43
6 2901 36
6 2902 67
6 2903 5082
6 2904 58
6 2905 47
6 2906 61
6 2907 47
6 2908 64
6 2909 43
6 2910 46
6 2911 47
6 2912 48
6 2913 39
6 2914 66
6 2915 41
6 2916 73
6 2917 61
6 2918 48
6 2919 32
6 2920 62
6 2921 512
6 2922 81
6 2923 35
6 2924 54
6 2925 37
6 2926 47
6 2927 43
6 2928 49
6 2929 57
6 2930 35
6 2931 52
6 2932 46
6 2933 72
6 2934 49
6 2935 60
6 2936 26
6 2937 46
6 2938 34
6 2939 37
6 2940 66
6 2941 58
6 2942 1427
6 2943 29
6 2944 22
6 2945 26
6 2946 57
6 2947 55
6 2948 4182
6 2949 43
6 2950 44
6 2951 39
6 2952 22
6 2953 19
6 2954 45
6 2955 53
6 2956 10
6 2957 12
6 2958 7256
6 2959 51
6 2960 51
6 2961 62
6 2962 47
6 2963 18
6 2964 43
6 2965 23
6 2966 28
6 2967 51
6 2968 20
6 2969 50
6 2970 71
6 2971 36
6 2972 39
6 2973 25
6 2974 40
6 2975 29
6 2976 30
6 2977 23
6 2978 60
6 2979 49
6 2980 45
6 2981 45
6 2982 47
6 2983 39
6 2984 30
6 2985 33
6 2986 20
6 2987 5
6 2988 36
6 2989 28
6 2990 65
6 2991 34
6 2992 59
6 2993 29
6 2994 52
6 2995 31
6 2996 53
6 2997 53
6 2998 65
6 2999 37
6 3000 70
6 3001 54
6 3002 54
6 3003 62
6 3004 46
6 3005 40
6 3006 38
6 3007 52
6 3008 63
6 3009 41
6 3010 34
6 3011 17
6 3012 68
6 3013 236
6 3014 52
6 3015 61
6 3016 23
6 3017 120
6 3018 38
6 3019 52
6 3020 26
6 3021 41
6 3022 42
6 3023 43
6 3024 54
6 3025 29
6 3026 77
6 3027 71
6 3028 31
6 3029 8
6 3030 44
6 3031 33
6 3032 56
6 3033 95
6 3034 33
6 3035 56
6 3036 34
6 3037 57
6 3038 60
6 3039 37
6 3040 34
6 3041 25
6 3042 75
6 3043 53
6 3044 84
6 3045 58
6 3046 27
6 3047 77
6 3048 238
6 3049 55
6 3050 29
6 3051 53
6 3052 58
6 3053 54
6 3054 29
6 3055 50
6 3056 86
6 3057 32
6 3058 77
6 3059 55
6 3060 44
6 3061 34
6 3062 42
6 3063 86
6 3064 68
6 3065 50
6 3066 36
6 3067 64
6 3068 27
6 3069 31
6 3070 58
6 3071 1086
6 3072 5497
6 3073 37
6 3074 3222
6 3075 28
6 3076 62
6 3077 44
6 3078 49
6 3079 33
6 3080 73
6 3081 50
6 3082 29
6 3083 44
6 3084 66
6 3085 31
6 3086 65
6 3087 3559
6 3088 26
6 3089 39
6 3090 66
6 3091 49
6 3092 51
6 3093 58
6 3094 36
6 3095 36
6 3096 36
6 3097 56
6 3098 34
6 3099 1092
6 3100 59
6 3101 39
6 3102 39
6 3103 50
6 3104 34
6 3105 60
6 3106 3198
6 3107 33
6 3108 35
6 3109 45
6 3110 62
6 3111 36
6 3112 39
6 3113 79
6 3114 40
6 3115 99
6 3116 59
6 3117 46
6 3118 35
6 3119 72
6 3120 68
6 3121 24
6 3122 53
6 3123 29
6 3124 87
6 3125 58
6 3126 62
6 3127 56
6 3128 62
6 3129 32
6 3130 34
6 3131 73
6 3132 52
6 3133 69
6 3134 66
6 3135 44
6 3136 5811
6 3137 70
6 3138 32
6 3139 42
6 3140 41
6 3141 52
6 3142 64
6 3143 97
6 3144 38
6 3145 54
6 3146 68
6 3147 31
6 3148 20
6 3149 32
6 3150 44
6 3151 22
6 3152 52
6 3153 68
6 3154 24
6 3155 5843
6 3156 8
6 3157 45
6 3158 60
6 3159 57
6 3160 51
6 3161 66
6 3162 44
6 3163 63
6 3164 71
6 3165 41
6 3166 96
6 3167 36
6 3168 60
6 3169 49
6 3170 45
6 3171 56
6 3172 28
6 3173 58
6 3174 80
6 3175 163
6 3176 29
6 3177 38
6 3178 30
6 3179 39
6 3180 163
6 3181 53
6 3182 3953
6 3183 26
6 3184 46
6 3185 55
6 3186 20
6 3187 63
6 3188 38
6 3189 62
6 3190 33
6 3191 43
6 3192 2574
6 3193 70
6 3194 31
6 3195 31
6 3196 57
6 3197 48
6 3198 35
6 3199 35
6 3200 203
6 3201 46
6 3202 77
6 3203 21
6 3204 33
6 3205 40
6 3206 67
6 3207 60
6 3208 64
6 3209 22
6 3210 63
6 3211 61
6 3212 32
6 3213 41
6 3214 29
6 3215 30
6 3216 57
6 3217 5986
6 3218 34
6 3219 56
6 3220 60
6 3221 42
6 3222 5084
6 3223 35
6 3224 378
6 3225 222
6 3226 25
6 3227 58
6 3228 176
6 3229 34
6 3230 22
6 3231 52
6 3232 22
6 3233 58
6 3234 1778
6 3235 62
6 3236 57
6 3237 36
6 3238 18
6 3239 37
6 3240 40
6 3241 68
6 3242 3336
6 3243 56
6 3244 62
6 3245 63
6 3246 50
6 3247 58
6 3248 32
6 3249 37
6 3250 55
6 3251 65
6 3252 44
6 3253 1538
6 3254 1210
6 3255 64
6 3256 27
6 3257 40
6 3258 62
6 3259 42
6 3260 57
6 3261 42
6 3262 21
6 3263 791
6 3264 40
6 3265 66
6 3266 626
6 3267 78
6 3268 51
6 3269 65
6 3270 56
6 3271 35
6 3272 61
6 3273 34
6 3274 50
6 3275 38
6 3276 48
6 3277 35
6 3278 57
6 3279 31
6 3280 27
6 3281 72
6 3282 37
6 3283 26
6 3284 47
6 3285 15
6 3286 920
6 3287 64
6 3288 51
6 3289 31
6 3290 5276
6 3291 20
6 3292 51
6 3293 33
6 3294 60
6 3295 59
6 3296 53
6 3297 59
6 3298 45
6 3299 39
6 3300 59
6 3301 38
6 3302 62
6 3303 74
6 3304 31
6 3305 28
6 3306 58
6 3307 28
6 3308 46
6 3309 44
6 3310 32
6 3311 29
6 3312 106
6 3313 23
6 3314 46
6 3315 55
6 3316 66
6 3317 3451
6 3318 67
6 3319 1767
6 3320 60
6 3321 67
6 3322 112
6 3323 51
6 3324 54
6 3325 62
6 3326 26
6 3327 20
6 3328 36
6 3329 38
6 3330 45
6 3331 51
6 3332 29
6 3333 72
6 3334 60
6 3335 51
6 3336 71
6 3337 30
6 3338 32
6 3339 61
6 3340 42
6 3341 33
6 3342 42
6 3343 40
6 3344 29
6 3345 62
6 3346 55
6 3347 70
6 3348 66
6 3349 64
6 3350 31
6 3351 49
6 3352 35
6 3353 41
6 3354 22
6 3355 743
6 3356 801
6 3357 31
6 3358 31
6 3359 1870
6 3360 65
6 3361 63
6 3362 45
6 3363 42
6 3364 45
6 3365 64
6 3366 44
6 3367 34
6 3368 29
6 3369 5
6 3370 61
6 3371 35
6 3372 53
6 3373 47
6 3374 235
6 3375 57
6 3376 40
6 3377 19
6 3378 25
6 3379 26
6 3380 45
6 3381 37
6 3382 40
6 3383 65
6 3384 32
6 3385 56
6 3386 49
6 3387 70
6 3388 65
6 3389 28
6 3390 53
6 3391 290
6 3392 122
6 3393 26
6 3394 25
6 3395 32
6 3396 241
6 3397 30
6 3398 92
6 3399 18
6 3400 51
6 3401 61
6 3402 28
6 3403 57
6 3404 18
6 3405 57
6 3406 56
6 3407 48
6 3408 31
6 3409 43
6 3410 32
6 3411 16
6 3412 61
6 3413 40
6 3414 70
6 3415 39
6 3416 49
6 3417 16
6 3418 73
6 3419 13
6 3420 45
6 3421 1968
6 3422 109
6 3423 36
6 3424 47
6 3425 50
6 3426 35
6 3427 22
6 3428 24
6 3429 47
6 3430 43
6 3431 59
6 3432 33
6 3433 63
6 3434 26
6 3435 22
6 3436 42
6 3437 57
6 3438 44
6 3439 60
6 3440 50
6 3441 52
6 3442 270
6 3443 58
6 3444 43
6 3445 33
6 3446 70
6 3447 76
6 3448 13
6 3449 24
6 3450 57
6 3451 27
6 3452 12
6 3453 68
6 3454 28
6 3455 28
6 3456 38
6 3457 44
6 3458 48
6 3459 33
6 3460 40
6 3461 34
6 3462 38
6 3463 28
6 3464 38
6 3465 26
6 3466 18
6 3467 64
6 3468 29
6 3469 50
6 3470 987
6 3471 36
6 3472 35
6 3473 19
6 3474 53
6 3475 40
6 3476 34
6 3477 1421
6 3478 29
6 3479 35
6 3480 50
6 3481 32
6 3482 61
6 3483 69
6 3484 31
6 3485 47
6 3486 45
6 3487 57
6 3488 49
6 3489 34
6 3490 45
6 3491 45
6 3492 40
6 3493 66
6 3494 20
6 3495 32
6 3496 24
6 3497 49
6 3498 1558
6 3499 122
6 3500 57
6 3501 30
6 3502 52
6 3503 37
6 3504 30
6 3505 46
6 3506 35
6 3507 47
6 3508 63
6 3509 37
6 3510 42
6 3511 23
6 3512 876
6 3513 1175
6 3514 58
6 3515 93
6 3516 66
6 3517 5657
6 3518 24
6 3519 63
6 3520 36
6 3521 46
6 3522 45
6 3523 11
6 3524 47
6 3525 36
6 3526 4648
6 3527 54
6 3528 27
6 3529 44
6 3530 36
6 3531 144
6 3532 45
6 3533 54
6 3534 83
6 3535 35
6 3536 59
6 3537 1075
6 3538 64
6 3539 46
6 3540 34
6 3541 60
6 3542 20
6 3543 16
6 3544 56
6 3545 43
6 3546 29
6 3547 28
6 3548 30
6 3549 27
6 3550 47
6 3551 56
6 3552 33
6 3553 144
6 3554 26
6 3555 62
6 3556 1030
6 3557 44
6 3558 38
6 3559 64
6 3560 34
6 3561 27
6 3562 51
6 3563 49
6 3564 53
6 3565 71
6 3566 60
6 3567 5173
6 3568 34
6 3569 45
6 3570 34
6 3571 74
6 3572 22
6 3573 52
6 3574 62
6 3575 34
6 3576 664
6 3577 63
6 3578 27
6 3579 36
6 3580 59
6 3581 77
6 3582 2360
6 3583 58
6 3584 151
6 3585 35
6 3586 35
6 3587 11
6 3588 25
6 3589 17
6 3590 55
6 3591 43
6 3592 69
6 3593 64
6 3594 30
6 3595 34
6 3596 43
6 3597 58
6 3598 935
6 3599 69
6 3600 62
6 3601 26
6 3602 36
6 3603 40
6 3604 76
6 3605 59
6 3606 50
6 3607 59
6 3608 42
6 3609 37
6 3610 36
6 3611 25
6 3612 75
6 3613 46
6 3614 75
6 3615 39
6 3616 30
6 3617 61
6 3618 49
6 3619 43
6 3620 1578
6 3621 35
6 3622 61
6 3623 33
6 3624 2898
6 3625 43
6 3626 64
6 3627 131
6 3628 46
6 3629 54
6 3630 28
6 3631 41
6 3632 44
6 3633 63
6 3634 50
6 3635 69
6 3636 23
6 3637 59
6 3638 31
6 3639 43
6 3640 58
6 3641 41
6 3642 26
6 3643 37
6 3644 46
6 3645 63
6 3646 31
6 3647 44
6 3648 62
6 3649 36
6 3650 53
6 3651 66
6 3652 60
6 3653 43
6 3654 740
6 3655 24
6 3656 49
6 3657 37
6 3658 30
6 3659 52
6 3660 34
6 3661 60
6 3662 51
6 3663 41
6 3664 29
6 3665 30
6 3666 32
6 3667 21
6 3668 49
6 3669 43
6 3670 45
6 3671 31
6 3672 1379
6 3673 50
6 3674 60
6 3675 24
6 3676 34
6 3677 39
6 3678 42
6 3679 44
6 3680 25
6 3681 64
6 3682 44
6 3683 40
6 3684 32
6 3685 58
6 3686 32
6 3687 32
6 3688 33
6 3689 109
6 3690 52
6 3691 41
6 3692 35
6 3693 2497
6 3694 64
6 3695 40
6 3696 70
6 3697 48
6 3698 3
6 3699 43
6 3700 54
6 3701 50
6 3702 84
6 3703 75
6 3704 46
6 3705 39
6 3706 37
6 3707 57
6 3708 41
6 3709 48
6 3710 52
6 3711 71
6 3712 18
6 3713 59
6 3714 35
6 3715 38
6 3716 54
6 3717 51
6 3718 61
6 3719 2026
6 3720 66
6 3721 36
6 3722 89
6 3723 69
6 3724 34
6 3725 39
6 3726 43
6 3727 42
6 3728 66
6 3729 238
6 3730 32
6 3731 55
6 3732 49
6 3733 55
6 3734 50
6 3735 37
6 3736 35
6 3737 26
6 3738 67
6 3739 51
6 3740 58
6 3741 43
6 3742 76
6 3743 33
6 3744 60
6 3745 49
6 3746 23
6 3747 67
6 3748 25
6 3749 41
6 3750 4534
6 3751 47
6 3752 19
6 3753 38
6 3754 38
6 3755 152
6 3756 60
6 3757 1583
6 3758 28
6 3759 25
6 3760 49
6 3761 68
6 3762 66
6 3763 51
6 3764 51
6 3765 34
6 3766 32
6 3767 32
6 3768 48
6 3769 53
6 3770 40
6 3771 23
6 3772 25
6 3773 23
6 3774 24
6 3775 54
6 3776 41
6 3777 25
6 3778 297
6 3779 26
6 3780 45
6 3781 28
6 3782 31
6 3783 64
6 3784 33
6 3785 56
6 3786 33
6 3787 28
6 3788 47
6 3789 48
6 3790 66
6 3791 41
6 3792 52
6 3793 48
6 3794 19
6 3795 59
6 3796 51
6 3797 48
6 3798 24
6 3799 45
6 3800 62
6 3801 60
6 3802 36
6 3803 28
6 3804 27
6 3805 66
6 3806 52
6 3807 33
6 3808 36
6 3809 55
6 3810 46
6 3811 54
6 3812 29
6 3813 28
6 3814 57
6 3815 44
6 3816 55
6 3817 49
6 3818 68
6 3819 40
6 3820 63
6 3821 26
6 3822 55
6 3823 43
6 3824 50
6 3825 68
6 3826 1532
6 3827 58
6 3828 43
6 3829 1984
6 3830 47
6 3831 44
6 3832 25
6 3833 43
6 3834 78
6 3835 20
6 3836 55
6 3837 54
6 3838 55
6 3839 54
6 3840 37
6 3841 38
6 3842 19
6 3843 79
6 3844 80
6 3845 70
6 3846 6443
6 3847 69
6 3848 42
6 3849 31
6 3850 32
6 3851 54
6 3852 25
6 3853 20
6 3854 38
6 3855 618
6 3856 63
6 3857 44
6 3858 63
6 3859 24
6 3860 44
6 3861 54
6 3862 32
6 3863 47
6 3864 16
6 3865 21
6 3866 61
6 3867 34
6 3868 58
6 3869 63
6 3870 538
6 3871 1325
6 3872 15
6 3873 56
6 3874 13
6 3875 27
6 3876 470
6 3877 54
6 3878 33
6 3879 28
6 3880 1
6 3881 41
6 3882 39
6 3883 36
6 3884 3830
6 3885 78
6 3886 4
6 3887 50
6 3888 44
6 3889 55
6 3890 67
6 3891 52
6 3892 63
6 3893 48
6 3894 25
6 3895 30
6 3896 37
6 3897 78
6 3898 31
6 3899 99
6 3900 76
6 3901 26
6 3902 91
6 3903 45
6 3904 80
6 3905 44
6 3906 60
6 3907 74
6 3908 34
6 3909 22
6 3910 58
6 3911 24
6 3912 26
6 3913 34
6 3914 32
6 3915 65
6 3916 7
6 3917 77
6 3918 61
6 3919 45
6 3920 36
6 3921 19
6 3922 31
6 3923 35
6 3924 43
6 3925 21
6 3926 50
6 3927 27
6 3928 28
6 3929 39
6 3930 21
6 3931 56
6 3932 32
6 3933 25
6 3934 7
6 3935 88
6 3936 66
6 3937 13
6 3938 56
6 3939 21
6 3940 55
6 3941 49
6 3942 36
6 3943 20
6 3944 93
6 3945 39
6 3946 71
6 3947 34
6 3948 28
6 3949 54
6 3950 25
6 3951 44
6 3952 56
6 3953 77
6 3954 45
6 3955 13
6 3956 72
6 3957 64
6 3958 67
6 3959 35
6 3960 16
6 3961 54
6 3962 31
6 3963 25
6 3964 30
6 3965 30
6 3966 50
6 3967 53
6 3968 35
6 3969 38
6 3970 36
6 3971 21
6 3972 180
6 3973 33
6 3974 40
6 3975 37
6 3976 49
6 3977 64
6 3978 56
6 3979 52
6 3980 41
6 3981 32
6 3982 45
6 3983 62
6 3984 61
6 3985 30
6 3986 54
6 3987 27
6 3988 36
6 3989 108
6 3990 31
6 3991 29
6 3992 104
6 3993 88
6 3994 49
6 3995 30
6 3996 42
6 3997 53
6 3998 16
6 3999 57
6 4000 41
6 4001 47
6 4002 46
6 4003 58
6 4004 36
6 4005 52
6 4006 54
6 4007 41
6 4008 44
6 4009 39
6 4010 16
6 4011 24
6 4012 30
6 4013 75
6 4014 46
6 4015 103
6 4016 63
6 4017 25
6 4018 97
6 4019 162
6 4020 42
6 4021 34
6 4022 2358
6 4023 64
6 4024 64
6 4025 39
6 4026 38
6 4027 38
6 4028 25
6 4029 26
6 4030 51
6 4031 21
6 4032 40
6 4033 23
6 4034 44
6 4035 8
6 4036 47
6 4037 23
6 4038 74
6 4039 64
6 4040 40
6 4041 56
6 4042 38
6 4043 47
6 4044 374
6 4045 35
6 4046 29
6 4047 35
6 4048 60
6 4049 59
6 4050 42
6 4051 25
6 4052 48
6 4053 33
6 4054 39
6 4055 39
6 4056 51
6 4057 28
6 4058 49
6 4059 30
6 4060 4374
6 4061 35
6 4062 49
6 4063 56
6 4064 56
6 4065 53
6 4066 55
6 4067 53
6 4068 43
6 4069 61
6 4070 1117
6 4071 42
6 4072 43
6 4073 1647
6 4074 58
6 4075 39
6 4076 33
6 4077 49
6 4078 35
6 4079 1840
6 4080 38
6 4081 32
6 4082 38
6 4083 40
6 4084 46
6 4085 28
6 4086 27
6 4087 26
6 4088 42
6 4089 42
6 4090 108
6 4091 27
6 4092 65
6 4093 34
6 4094 45
6 4095 67
6 4096 75
6 4097 40
6 4098 38
6 4099 53
6 4100 47
6 4101 18
6 4102 46
6 4103 33
6 4104 31
6 4105 5
6 4106 28
6 4107 33
6 4108 58
6 4109 27
6 4110 62
6 4111 33
6 4112 47
6 4113 37
6 4114 24
6 4115 28
6 4116 33
6 4117 44
6 4118 55
6 4119 52
6 4120 25
6 4121 63
6 4122 20
6 4123 66
6 4124 33
6 4125 34
6 4126 40
6 4127 56
6 4128 1432
6 4129 55
6 4130 46
6 4131 413
6 4132 62
6 4133 23
6 4134 656
6 4135 31
6 4136 84
6 4137 23
6 4138 26
6 4139 74
6 4140 34
6 4141 49
6 4142 33
6 4143 51
6 4144 33
6 4145 43
6 4146 37
6 4147 50
6 4148 45
6 4149 15
6 4150 62
6 4151 673
6 4152 77
6 4153 25
6 4154 559
6 4155 24
6 4156 17
6 4157 47
6 4158 38
6 4159 45
6 4160 61
6 4161 40
6 4162 16
6 4163 114
6 4164 46
6 4165 1225
6 4166 44
6 4167 41
6 4168 61
6 4169 2109
6 4170 14
6 4171 23
6 4172 34
6 4173 1251
6 4174 60
6 4175 31
6 4176 26
6 4177 50
6 4178 41
6 4179 30
6 4180 35
6 4181 40
6 4182 21
6 4183 21
6 4184 502
6 4185 41
6 4186 107
6 4187 63
6 4188 43
6 4189 61
6 4190 49
6 4191 31
6 4192 25
6 4193 45
6 4194 41
6 4195 78
6 4196 28
6 4197 95
6 4198 82
6 4199 39
6 4200 76
6 4201 31
6 4202 37
6 4203 27
6 4204 73
6 4205 60
6 4206 51
6 4207 62
6 4208 35
6 4209 58
6 4210 51
6 4211 38
6 4212 13
6 4213 49
6 4214 56
6 4215 25
6 4216 24
6 4217 42
6 4218 1703
6 4219 53
6 4220 35
6 4221 34
6 4222 44
6 4223 44
6 4224 546
6 4225 60
6 4226 55
6 4227 61
6 4228 60
6 4229 38
6 4230 54
6 4231 62
6 4232 25
6 4233 60
6 4234 26
6 4235 61
6 4236 62
6 4237 60
6 4238 4520
6 4239 91
6 4240 33
6 4241 23
6 4242 44
6 4243 19
6 4244 23
6 4245 33
6 4246 47
6 4247 52
6 4248 27
6 4249 26
6 4250 14
6 4251 51
6 4252 44
6 4253 52
6 4254 61
6 4255 78
6 4256 31
6 4257 54
6 4258 63
6 4259 49
6 4260 53
6 4261 31
6 4262 58
6 4263 30
6 4264 60
6 4265 13
6 4266 855
6 4267 30
6 4268 32
6 4269 46
6 4270 24
6 4271 30
6 4272 55
6 4273 47
6 4274 67
6 4275 5
6 4276 38
6 4277 14
6 4278 65
6 4279 57
6 4280 38
6 4281 327
6 4282 46
6 4283 62
6 4284 28
6 4285 56
6 4286 46
6 4287 44
6 4288 33
6 4289 51
6 4290 2125
6 4291 46
6 4292 59
6 4293 14
6 4294 69
6 4295 75
6 4296 20
6 4297 60
6 4298 47
6 4299 30
6 4300 27
6 4301 102
6 4302 2
6 4303 25
6 4304 22
6 4305 49
6 4306 44
6 4307 101
6 4308 20
6 4309 25
6 4310 48
6 4311 36
6 4312 26
6 4313 45
6 4314 82
6 4315 28
6 4316 67
6 4317 33
6 4318 37
6 4319 32
6 4320 42
6 4321 60
6 4322 45
6 4323 30
6 4324 46
6 4325 21
6 4326 29
6 4327 65
6 4328 38
6 4329 71
6 4330 26
6 4331 98
6 4332 519
6 4333 47
6 4334 28
6 4335 68
6 4336 31
6 4337 26
6 4338 64
6 4339 32
6 4340 56
6 4341 42
6 4342 59
6 4343 36
6 4344 21
6 4345 52
6 4346 50
6 4347 51
6 4348 56
6 4349 65
6 4350 57
6 4351 23
6 4352 49
6 4353 62
6 4354 32
6 4355 33
6 4356 24
6 4357 31
6 4358 30
6 4359 33
6 4360 22
6 4361 33
6 4362 40
6 4363 1556
6 4364 64
6 4365 61
6 4366 46
6 4367 42
6 4368 38
6 4369 28
6 4370 56
6 4371 35
6 4372 27
6 4373 88
6 4374 25
6 4375 65
6 4376 33
6 4377 38
6 4378 32
6 4379 57
6 4380 40
6 4381 79
6 4382 41
6 4383 60
6 4384 44
6 4385 71
6 4386 31
6 4387 46
6 4388 31
6 4389 51
6 4390 31
6 4391 72
6 4392 58
6 4393 34
6 4394 53
6 4395 25
6 4396 24
6 4397 28
6 4398 46
6 4399 61
6 4400 55
6 4401 61
6 4402 62
6 4403 72
6 4404 26
6 4405 97
6 4406 18
6 4407 41
6 4408 59
6 4409 52
6 4410 58
6 4411 57
6 4412 39
6 4413 20
6 4414 60
6 4415 33
6 4416 57
6 4417 32
6 4418 40
6 4419 49
6 4420 48
6 4421 56
6 4422 31
6 4423 24
6 4424 36
6 4425 40
6 4426 41
6 4427 77
6 4428 30
6 4429 844
6 4430 20
6 4431 51
6 4432 37
6 4433 48
6 4434 59
6 4435 34
6 4436 61
6 4437 21
6 4438 47
6 4439 56
6 4440 33
6 4441 39
6 4442 30
6 4443 58
6 4444 11
6 4445 1140
6 4446 56
6 4447 47
6 4448 26
6 4449 76
6 4450 26
6 4451 25
6 4452 50
6 4453 9
6 4454 27
6 4455 79
6 4456 131
6 4457 24
6 4458 29
6 4459 49
6 4460 41
6 4461 221
6 4462 50
6 4463 56
6 4464 65
6 4465 33
6 4466 41
6 4467 30
6 4468 51
6 4469 36
6 4470 29
6 4471 59
6 4472 26
6 4473 446
6 4474 4
6 4475 23
6 4476 3508
6 4477 30
6 4478 37
6 4479 21
6 4480 26
6 4481 56
6 4482 30
6 4483 39
6 4484 57
6 4485 60
6 4486 38
6 4487 66
6 4488 9
6 4489 25
6 4490 348
6 4491 198
6 4492 60
6 4493 29
6 4494 52
6 4495 37
6 4496 46
6 4497 47
6 4498 50
6 4499 63
6 4500 52
6 4501 34
6 4502 39
6 4503 51
6 4504 58
6 4505 57
6 4506 50
6 4507 50
6 4508 27
6 4509 508
6 4510 36
6 4511 38
6 4512 66
6 4513 547
6 4514 39
6 4515 44
6 4516 52
6 4517 39
6 4518 47
6 4519 91
6 4520 60
6 4521 63
6 4522 372
6 4523 63
6 4524 561
6 4525 31
6 4526 44
6 4527 28
6 4528 56
6 4529 853
6 4530 35
6 4531 56
6 4532 27
6 4533 25
6 4534 42
6 4535 34
6 4536 28
6 4537 36
6 4538 70
6 4539 59
6 4540 53
6 4541 55
6 4542 34
6 4543 56
6 4544 15
6 4545 25
6 4546 58
6 4547 69
6 4548 48
6 4549 55
6 4550 44
6 4551 28
6 4552 2
6 4553 44
6 4554 65
6 4555 51
6 4556 46
6 4557 37
6 4558 71
6 4559 59
6 4560 68
6 4561 1328
6 4562 32
6 4563 37
6 4564 45
6 4565 38
6 4566 31
6 4567 17
6 4568 29
6 4569 15
6 4570 49
6 4571 70
6 4572 53
6 4573 63
6 4574 773
6 4575 41
6 4576 14
6 4577 55
6 4578 24
6 4579 55
6 4580 29
6 4581 11
6 4582 14
6 4583 44
6 4584 81
6 4585 30
6 4586 42
6 4587 51
6 4588 44
6 4589 46
6 4590 35
6 4591 30
6 4592 54
6 4593 80
6 4594 33
6 4595 42
6 4596 48
6 4597 72
6 4598 51
6 4599 74
6 4600 29
6 4601 1
6 4602 50
6 4603 44
6 4604 61
6 4605 18
6 4606 67
6 4607 16
6 4608 42
6 4609 51
6 4610 90
6 4611 45
6 4612 40
6 4613 67
6 4614 62
6 4615 55
6 4616 41
6 4617 49
6 4618 53
6 4619 42
6 4620 26
6 4621 32
6 4622 71
6 4623 46
6 4624 47
6 4625 44
6 4626 56
6 4627 46
6 4628 29
6 4629 42
6 4630 18
6 4631 22
6 4632 54
6 4633 70
6 4634 47
6 4635 61
6 4636 27
6 4637 65
6 4638 54
6 4639 40
6 4640 28
6 4641 74
6 4642 34
6 4643 47
6 4644 31
6 4645 96
6 4646 22
6 4647 51
6 4648 43
6 4649 35
6 4650 24
6 4651 47
6 4652 35
6 4653 36
6 4654 34
6 4655 42
6 4656 58
6 4657 32
6 4658 62
6 4659 24
6 4660 13
6 4661 37
6 4662 39
6 4663 39
6 4664 65
6 4665 44
6 4666 9
6 4667 632
6 4668 25
6 4669 32
6 4670 65
6 4671 31
6 4672 25
6 4673 46
6 4674 34
6 4675 58
6 4676 27
6 4677 34
6 4678 64
6 4679 57
6 4680 50
6 4681 63
6 4682 23
6 4683 28
6 4684 44
6 4685 54
6 4686 36
6 4687 53
6 4688 48
6 4689 83
6 4690 52
6 4691 2
6 4692 44
6 4693 25
6 4694 36
6 4695 9
6 4696 76
6 4697 39
6 4698 35
6 4699 26
6 4700 31
6 4701 25
6 4702 43
6 4703 21
6 4704 31
6 4705 25
6 4706 60
6 4707 34
6 4708 27
6 4709 25
6 4710 47
6 4711 74
6 4712 61
6 4713 65
6 4714 53
6 4715 60
6 4716 24
6 4717 53
6 4718 39
6 4719 36
6 4720 49
6 4721 28
6 4722 42
6 4723 22
6 4724 33
6 4725 35
6 4726 218
6 4727 61
6 4728 61
6 4729 56
6 4730 37
6 4731 60
6 4732 22
6 4733 49
6 4734 30
6 4735 34
6 4736 31
6 4737 53
6 4738 44
6 4739 249
6 4740 51
6 4741 60
6 4742 48
6 4743 42
6 4744 63
6 4745 50
6 4746 25
6 4747 33
6 4748 42
6 4749 32
6 4750 793
6 4751 36
6 4752 31
6 4753 45
6 4754 32
6 4755 35
6 4756 30
6 4757 34
6 4758 44
6 4759 56
6 4760 26
6 4761 57
6 4762 49
6 4763 39
6 4764 23
6 4765 49
6 4766 24
6 4767 35
6 4768 15
6 4769 27
6 4770 34
6 4771 58
6 4772 46
6 4773 24
6 4774 534
6 4775 27
6 4776 38
6 4777 38
6 4778 41
6 4779 2418
6 4780 61
6 4781 63
6 4782 34
6 4783 38
6 4784 27
6 4785 23
6 4786 81
6 4787 28
6 4788 39
6 4789 51
6 4790 37
6 4791 30
6 4792 38
6 4793 62
6 4794 33
6 4795 46
6 4796 18
6 4797 24
6 4798 34
6 4799 47
6 4800 29
6 4801 42
6 4802 53
6 4803 7
6 4804 20
6 4805 41
6 4806 45
6 4807 34
6 4808 34
6 4809 61
6 4810 51
6 4811 42
6 4812 53
6 4813 27
6 4814 17
6 4815 38
6 4816 29
6 4817 44
6 4818 36
6 4819 30
6 4820 60
6 4821 68
6 4822 34
6 4823 40
6 4824 71
6 4825 49
6 4826 30
6 4827 47
6 4828 30
6 4829 32
6 4830 50
6 4831 35
6 4832 42
6 4833 23
6 4834 31
6 4835 13
6 4836 99
6 4837 30
6 4838 79
6 4839 2252
6 4840 19
6 4841 62
6 4842 3
6 4843 61
6 4844 46
6 4845 59
6 4846 32
6 4847 42
6 4848 28
6 4849 11
6 4850 15
6 4851 54
6 4852 46
6 4853 64
6 4854 29
6 4855 123
6 4856 91
6 4857 51
6 4858 42
6 4859 169
6 4860 46
6 4861 57
6 4862 23
6 4863 66
6 4864 54
6 4865 49
6 4866 50
6 4867 26
6 4868 49
6 4869 50
6 4870 76
6 4871 31
6 4872 27
6 4873 69
6 4874 50
6 4875 99
6 4876 57
6 4877 50
6 4878 32
6 4879 4
6 4880 58
6 4881 34
6 4882 47
6 4883 15
6 4884 54
6 4885 24
6 4886 53
6 4887 75
6 4888 52
6 4889 39
6 4890 50
6 4891 22
6 4892 49
6 4893 50
6 4894 31
6 4895 53
6 4896 23
6 4897 58
6 4898 35
6 4899 63
6 4900 57
6 4901 88
6 4902 39
6 4903 24
6 4904 47
6 4905 43
6 4906 56
6 4907 64
6 4908 16
6 4909 39
6 4910 27
6 4911 129
6 4912 28
6 4913 45
6 4914 42
6 4915 32
6 4916 410
6 4917 53
6 4918 35
6 4919 82
6 4920 64
6 4921 28
6 4922 51
6 4923 32
6 4924 24
6 4925 76
6 4926 50
6 4927 9
6 4928 45
6 4929 33
6 4930 40
6 4931 50
6 4932 35
6 4933 60
6 4934 1
6 4935 40
6 4936 32
6 4937 42
6 4938 35
6 4939 34
6 4940 65
6 4941 496
6 4942 30
6 4943 62
6 4944 47
6 4945 37
6 4946 39
6 4947 86
6 4948 53
6 4949 22
6 4950 34
6 4951 48
6 4952 111
6 4953 49
6 4954 37
6 4955 28
6 4956 56
6 4957 20
6 4958 27
6 4959 45
6 4960 20
6 4961 56
6 4962 57
6 4963 38
6 4964 26
6 4965 25
6 4966 56
6 4967 29
6 4968 64
6 4969 1576
6 4970 762
6 4971 33
6 4972 381
6 4973 13
6 4974 41
6 4975 44
6 4976 28
6 4977 31
6 4978 28
6 4979 30
6 4980 70
6 4981 47
6 4982 33
6 4983 28
6 4984 56
6 4985 21
6 4986 27
6 4987 42
6 4988 39
6 4989 172
6 4990 35
6 4991 33
6 4992 56
6 4993 30
6 4994 28
6 4995 224
6 4996 32
6 4997 17
6 4998 56
6 4999 40
6 5000 93
6 5001 59
6 5002 31
6 5003 61
6 5004 37
6 5005 3
6 5006 22
6 5007 71
6 5008 17
6 5009 24
6 5010 172
6 5011 50
6 5012 44
6 5013 29
6 5014 61
6 5015 40
6 5016 25
6 5017 35
6 5018 26
6 5019 36
6 5020 48
6 5021 33
6 5022 50
6 5023 45
6 5024 25
6 5025 29
6 5026 34
6 5027 3
6 5028 28
6 5029 126
6 5030 15
6 5031 47
6 5032 39
6 5033 27
6 5034 24
6 5035 45
6 5036 365
6 5037 55
6 5038 40
6 5039 33
6 5040 31
6 5041 41
6 5042 65
6 5043 36
6 5044 26
6 5045 41
6 5046 45
6 5047 34
6 5048 39
6 5049 34
6 5050 48
6 5051 73
6 5052 24
6 5053 57
6 5054 35
6 5055 43
6 5056 18
6 5057 35
6 5058 784
6 5059 45
6 5060 16
6 5061 7
6 5062 49
6 5063 29
6 5064 76
6 5065 75
6 5066 50
6 5067 82
6 5068 27
6 5069 46
6 5070 2
6 5071 30
6 5072 66
6 5073 43
6 5074 38
6 5075 43
6 5076 31
6 5077 31
6 5078 18
6 5079 34
6 5080 40
6 5081 54
6 5082 4
6 5083 23
6 5084 56
6 5085 56
6 5086 61
6 5087 18
6 5088 124
6 5089 50
6 5090 46
6 5091 72
6 5092 46
6 5093 29
6 5094 11
6 5095 56
6 5096 11
6 5097 26
6 5098 41
6 5099 37
6 5100 30
6 5101 27
6 5102 43
6 5103 40
6 5104 36
6 5105 37
6 5106 27
6 5107 45
6 5108 46
6 5109 46
6 5110 30
6 5111 55
6 5112 40
6 5113 58
6 5114 37
6 5115 23
6 5116 62
6 5117 54
6 5118 28
6 5119 61
6 5120 11
6 5121 41
6 5122 54
6 5123 41
6 5124 70
6 5125 68
6 5126 19
6 5127 35
6 5128 26
6 5129 37
6 5130 38
6 5131 29
6 5132 26
6 5133 26
6 5134 45
6 5135 43
6 5136 37
6 5137 21
6 5138 11
6 5139 32
6 5140 39
6 5141 43
6 5142 16
6 5143 24
6 5144 50
6 5145 61
6 5146 41
6 5147 56
6 5148 40
6 5149 60
6 5150 25
6 5151 34
6 5152 26
6 5153 39
6 5154 43
6 5155 55
6 5156 42
6 5157 40
6 5158 602
6 5159 46
6 5160 25
6 5161 36
6 5162 33
6 5163 54
6 5164 27
6 5165 57
6 5166 46
6 5167 35
6 5168 53
6 5169 32
6 5170 32
6 5171 48
6 5172 327
6 5173 7
6 5174 24
6 5175 53
6 5176 33
6 5177 18
6 5178 2121
6 5180 14
6 5181 73
6 5182 932
6 5183 22
6 5184 30
6 5185 39
6 5186 46
6 5187 44
6 5188 19
6 5189 3
6 5190 11
6 5191 36
6 5192 24
6 5193 37
6 5194 28
6 5195 49
6 5196 43
6 5197 27
6 5198 55
6 5199 32
6 5200 20
6 5201 54
6 5202 37
6 5203 53
6 5204 49
6 5205 17
6 5206 50
6 5207 18
6 5208 27
6 5210 33
6 5211 24
6 5212 36
6 5213 40
6 5214 50
6 5215 36
6 5216 39
6 5217 23
6 5218 60
6 5219 13
6 5220 51
6 5221 74
6 5222 4
6 5223 1
6 5224 26
6 5225 50
6 5226 51
6 5227 26
6 5228 39
6 5229 915
6 5230 31
6 5231 31
6 5232 52
6 5233 21
6 5234 54
6 5235 59
6 5236 38
6 5237 294
6 5238 30
6 5239 63
6 5240 23
6 5241 32
6 5242 35
6 5243 67
6 5244 56
6 5245 46
6 5246 54
6 5247 42
6 5248 43
6 5249 43
6 5250 72
6 5251 3
6 5252 42
6 5253 43
6 5254 59
6 5255 27
6 5256 67
6 5257 39
6 5258 43
6 5259 32
6 5260 30
6 5261 2
6 5262 57
6 5263 18
6 5264 21
6 5265 32
6 5266 50
6 5267 604
6 5268 28
6 5269 39
6 5270 52
6 5271 21
6 5272 66
6 5273 43
6 5274 28
6 5275 65
6 5276 90
6 5277 46
6 5278 42
6 5279 44
6 5280 35
6 5281 57
6 5282 64
6 5283 72
6 5284 44
6 5285 68
6 5286 39
6 5287 26
6 5288 46
6 5289 171
6 5290 68
6 5291 37
6 5292 34
6 5293 146
6 5294 24
6 5295 51
6 5296 68
6 5297 27
6 5298 51
6 5299 39
6 5300 53
6 5301 12
6 5302 9
6 5303 34
6 5304 25
6 5305 26
6 5306 42
6 5307 41
6 5308 53
6 5309 48
6 5310 26
6 5311 40
6 5312 21
6 5313 43
6 5314 46
6 5315 25
6 5316 57
6 5317 32
6 5318 57
6 5319 73
6 5320 10
6 5321 25
6 5322 1449
6 5323 43
6 5324 7
6 5325 22
6 5326 52
6 5327 31
6 5328 59
6 5329 57
6 5330 28
6 5331 47
6 5332 30
6 5333 60
6 5334 28
6 5335 31
6 5336 27
6 5337 56
6 5338 63
6 5339 57
6 5340 17
6 5341 62
6 5342 29
6 5343 64
6 5344 59
6 5345 22
6 5346 54
6 5347 37
6 5348 75
6 5349 46
6 5350 30
6 5351 21
6 5352 41
6 5353 25
6 5354 77
6 5355 25
6 5356 28
6 5357 70
6 5358 58
6 5359 41
6 5360 35
6 5361 41
6 5362 35
6 5363 30
6 5364 37
6 5365 46
6 5366 30
6 5367 74
6 5368 58
6 5369 28
6 5370 17
6 5371 49
6 5372 28
6 5373 31
6 5374 43
6 5375 53
6 5376 41
6 5377 30
6 5378 48
6 5379 54
6 5380 61
6 5381 61
6 5382 6
6 5383 39
6 5384 29
6 5385 63
6 5386 24
6 5387 6
6 5388 29
6 5389 41
6 5390 53
6 5391 66
6 5392 32
6 5393 24
6 5394 74
6 5395 42
6 5396 57
6 5397 28
6 5398 35
6 5399 76
6 5400 25
6 5401 43
6 5402 51
6 5403 34
6 5404 33
6 5405 69
6 5406 31
6 5407 54
6 5408 31
6 5409 35
6 5410 18
6 5411 25
6 5412 38
6 5413 32
6 5414 42
6 5415 3
6 5416 19
6 5417 43
6 5418 12
6 5420 48
6 5421 46
6 5422 43
6 5423 42
6 5424 3
6 5425 41
6 5426 29
6 5427 38
6 5428 36
6 5429 22
6 5430 58
6 5431 36
6 5432 49
6 5433 40
6 5434 54
6 5435 31
6 5436 29
6 5437 50
6 5438 22
6 5439 27
6 5440 145
6 5441 32
6 5442 44
6 5443 70
6 5444 25
6 5445 28
6 5446 27
6 5447 27
6 5448 42
6 5449 29
6 5450 34
6 5451 194
6 5452 41
6 5453 45
6 5454 6
6 5455 64
6 5456 27
6 5457 39
6 5458 39
6 5459 30
6 5460 37
6 5461 36
6 5462 68
6 5463 26
6 5464 28
6 5465 61
6 5466 53
6 5467 1071
6 5468 38
6 5469 29
6 5470 40
6 5471 41
6 5472 66
6 5473 30
6 5474 50
6 5475 50
6 5476 38
6 5477 78
6 5478 56
6 5479 57
6 5480 24
6 5481 40
6 5482 32
6 5483 21
6 5484 32
6 5485 51
6 5486 43
6 5487 25
6 5488 64
6 5489 32
6 5490 65
6 5491 43
6 5492 26
6 5493 39
6 5494 26
6 5495 47
6 5496 50
6 5497 40
6 5498 41
6 5499 44
6 5500 28
6 5501 30
6 5502 37
6 5503 20
6 5504 22
6 5505 13
6 5506 32
6 5507 37
6 5508 29
6 5509 76
6 5510 29
6 5511 26
6 5512 13
6 5513 29
6 5514 37
6 5515 38
6 5516 7
6 5517 25
6 5518 22
6 5519 67
6 5520 49
6 5521 12
6 5522 38
6 5523 44
6 5524 20
6 5525 44
6 5526 34
6 5527 20
6 5528 27
6 5529 48
6 5530 45
6 5531 19
6 5532 36
6 5533 60
6 5534 36
6 5535 31
6 5536 21
6 5537 27
6 5538 34
6 5539 31
6 5540 55
6 5541 22
6 5542 43
6 5543 34
6 5544 79
6 5545 52
6 5546 21
6 5547 22
6 5548 23
6 5549 10
6 5550 52
6 5551 5
6 5552 24
6 5553 52
6 5554 39
6 5555 44
6 5556 1
6 5557 56
6 5558 33
6 5559 56
6 5560 23
6 5561 43
6 5562 38
6 5563 32
6 5564 27
6 5565 49
6 5566 76
6 5567 35
6 5568 63
6 5569 17
6 5570 21
6 5571 22
6 5572 77
6 5573 4
6 5574 44
6 5575 56
6 5576 29
6 5577 30
6 5578 39
6 5579 38
6 5580 46
6 5581 31
6 5582 24
6 5583 55
6 5584 47
6 5585 53
6 5586 20
6 5587 23
6 5588 31
6 5589 42
6 5590 26
6 5591 36
6 5592 33
6 5593 35
6 5594 35
6 5595 78
6 5596 16
6 5597 31
6 5598 20
6 5599 33
6 5600 23
6 5601 47
6 5602 20
6 5603 42
6 5604 35
6 5605 34
6 5606 48
6 5607 24
6 5608 13
6 5609 10
6 5610 21
6 5611 36
6 5612 31
6 5613 53
6 5614 29
6 5615 62
6 5616 8
6 5617 59
6 5618 9
6 5619 32
6 5620 21
6 5621 52
6 5622 25
6 5623 29
6 5624 30
6 5625 18
6 5626 36
6 5627 33
6 5628 51
6 5629 50
6 5630 44
6 5631 35
6 5632 55
6 5633 37
6 5634 63
6 5635 26
6 5636 38
6 5637 36
6 5638 47
6 5639 45
6 5640 9
6 5641 31
6 5642 46
6 5643 44
6 5644 25
6 5645 59
6 5646 44
6 5647 60
6 5648 43
6 5649 42
6 5650 33
6 5651 41
6 5652 32
6 5653 15
6 5654 2
6 5655 13
6 5656 24
6 5657 23
6 5658 7
6 5659 21
6 5660 9
6 5661 27
6 5662 23
6 5663 41
6 5664 31
6 5665 51
6 5666 6
6 5667 9
6 5668 36
6 5669 10
6 5670 8
6 5671 27
6 5672 6
6 5673 39
6 5674 26
6 5675 22
6 5676 21
6 5677 25
6 5678 13
6 5679 2
6 5680 31
6 5681 7
6 5682 15
6 5683 26
6 5684 16
6 5685 4
6 5686 12
6 5687 26
6 5688 32
6 5689 29
6 5690 14
6 5691 7
6 5692 54
6 5693 12
6 5694 1
6 5695 4
6 5696 26
6 5697 30
6 5698 26
6 5699 17
6 5700 1
6 5701 46
6 5702 25
6 5703 1
6 5704 3
6 5705 10
6 5706 4
6 5707 7
6 5708 1
6 5709 5
6 5710 8
6 5711 1
6 5714 2
6 5715 2
6 5716 1
7 1 167
7 2 425
7 3 255
7 4 116
7 5 77
7 6 307
7 7 16080
7 8 121
7 9 106
7 10 144
7 11 166
7 12 9457
7 13 148
7 14 129
7 15 91
7 16 2740
7 17 94
7 18 126
7 19 54
7 20 206
7 21 87
7 22 184
7 23 117
7 24 84
7 25 14433
7 26 132
7 27 107
7 28 81
7 29 85
7 30 56
7 31 190
7 32 71
7 33 131
7 34 187
7 35 34
7 36 121
7 37 141
7 38 95
7 39 98
7 40 76
7 41 25021
7 42 72891
7 43 92
7 44 147
7 45 25
7 46 174
7 47 90
7 48 118
7 49 150
7 50 57
7 51 124
7 52 137
7 53 68
7 54 50
7 55 136245
7 56 185
7 57 114
7 58 134
7 59 154
7 60 134
7 61 132
7 62 30108
7 63 170
7 64 89
7 65 81
7 66 132
7 67 77
7 68 13374
7 69 124
7 70 150
7 71 252
7 72 14519
7 73 97
7 74 144
7 75 105
7 76 89
7 77 153
7 78 78
7 79 341
7 80 74
7 81 218
7 82 93
7 83 119
7 84 101
7 85 305
7 86 67
7 87 114
7 88 121
7 89 110
7 90 165
7 91 96
7 92 21741
7 93 146
7 94 82
7 95 12002
7 96 83
7 97 138
7 98 150
7 99 119
7 100 67
7 101 144
7 102 54
7 103 112
7 104 81
7 105 148
7 106 99
7 107 102
7 108 157
7 109 104
7 110 61
7 111 72
7 112 153
7 113 40314
7 114 81
7 115 145
7 116 55
7 117 66
7 118 19307
7 119 164
7 120 186
7 121 125
7 122 129
7 123 60
7 124 154
7 125 155
7 126 28
7 127 84
7 128 126
7 129 85
7 130 167
7 131 84
7 132 105
7 133 157
7 134 56
7 135 295
7 136 87
7 137 122
7 138 165
7 139 178
7 140 385
7 141 112
7 142 95
7 143 154
7 144 139
7 145 72
7 146 10776
7 147 164
7 148 125
7 149 117
7 150 18849
7 151 49
7 152 177
7 153 124
7 154 112
7 155 130
7 156 40045
7 157 55
7 158 126
7 159 156
7 160 162
7 161 35224
7 162 86
7 163 101
7 164 110
7 165 155
7 166 151
7 167 154
7 168 7329
7 169 101
7 170 111
7 171 129
7 172 212
7 173 103
7 174 135
7 175 125
7 176 179
7 177 153
7 178 123
7 179 19349
7 180 27774
7 181 95
7 182 131
7 183 52413
7 184 115
7 185 92
7 186 103
7 187 112
7 188 161
7 189 126
7 190 115
7 191 35018
7 192 91
7 193 74
7 194 159
7 195 173
7 196 669
7 197 46
7 198 107
7 199 47
7 200 210
7 201 118
7 202 134
7 203 107
7 204 105
7 205 150
7 206 85
7 207 127
7 208 22
7 209 150
7 210 77
7 211 22163
7 212 107
7 213 264
7 214 84
7 215 219
7 216 157
7 217 135
7 218 80
7 219 36481
7 220 71
7 221 75
7 222 141
7 223 139
7 224 80
7 225 128
7 226 110
7 227 75
7 228 9192
7 229 99
7 230 94
7 231 4592
7 232 163
7 233 106
7 234 111
7 235 38
7 236 99
7 237 10333
7 238 99
7 239 131
7 240 121
7 241 57
7 242 126
7 243 226
7 244 121
7 245 61
7 246 122
7 247 101
7 248 31168
7 249 118
7 250 190
7 251 6043
7 252 106
7 253 270
7 254 63
7 255 84
7 256 121
7 257 171
7 258 54
7 259 121
7 260 123
7 261 51
7 262 141
7 263 79
7 264 143
7 265 162
7 266 54
7 267 774
7 268 159
7 269 213
7 270 68
7 271 169
7 272 19674
7 273 10855
7 274 97
7 275 57
7 276 178
7 277 162
7 278 112
7 279 125
7 280 72
7 281 241
7 282 80
7 283 128
7 284 34231
7 285 75486
7 286 14392
7 287 132
7 288 111
7 289 21
7 290 97
7 291 103
7 292 111
7 293 193
7 294 126
7 295 83
7 296 155
7 297 178
7 298 117
7 299 113
7 300 29752
7 301 156
7 302 46
7 303 143
7 304 137
7 305 8
7 306 29238
7 307 167
7 308 76
7 309 192
7 310 150
7 311 155
7 312 27
7 313 111
7 314 83
7 315 161
7 316 83
7 317 112
7 318 100
7 319 102
7 320 86
7 321 9972
7 322 114
7 323 2301
7 324 134
7 325 129
7 326 132
7 327 131
7 328 97
7 329 144
7 330 157
7 331 158
7 332 29
7 333 168
7 334 21
7 335 92
7 336 8210
7 337 104
7 338 4837
7 339 91
7 340 85
7 341 73
7 342 80
7 343 69
7 344 64
7 345 120
7 346 82
7 347 52
7 348 74
7 349 40153
7 350 130
7 351 91
7 352 140
7 353 123
7 354 56
7 355 59
7 356 126
7 357 82
7 358 111
7 359 153
7 360 121
7 361 105
7 362 211
7 363 116
7 364 53
7 365 87
7 366 77
7 367 108
7 368 58
7 369 133
7 370 70
7 371 72
7 372 48
7 373 132
7 374 125
7 375 107
7 376 145
7 377 20091
7 378 186
7 379 144
7 380 61
7 381 70
7 382 223
7 383 100
7 384 68
7 385 128
7 386 64
7 387 121
7 388 12501
7 389 87
7 390 90
7 391 55
7 392 117
7 393 116
7 394 136
7 395 28653
7 396 185
7 397 74
7 398 17017
7 399 116
7 400 283
7 401 104
7 402 55
7 403 170
7 404 105
7 405 80
7 406 103
7 407 113
7 408 147
7 409 7684
7 410 43
7 411 92
7 412 100
7 413 82
7 414 81
7 415 154
7 416 56
7 417 69
7 418 101
7 419 73
7 420 54
7 421 51
7 422 101
7 423 131
7 424 97
7 425 96
7 426 500
7 427 134
7 428 147
7 429 123
7 430 108
7 431 91
7 432 171
7 433 134
7 434 97
7 435 254
7 436 127
7 437 59
7 438 82
7 439 64
7 440 130
7 441 75
7 442 197
7 443 106
7 444 97
7 445 88
7 446 131
7 447 153
7 448 120
7 449 117
7 450 120
7 451 21421
7 452 158
7 453 158
7 454 150
7 455 111
7 456 127
7 457 68
7 458 111
7 459 61
7 460 154
7 461 151
7 462 97
7 463 118
7 464 67
7 465 104
7 466 116
7 467 106
7 468 163
7 469 106
7 470 172
7 471 77
7 472 119
7 473 110
7 474 80
7 475 121
7 476 98
7 477 57
7 478 95
7 479 74
7 480 182
7 481 143
7 482 119
7 483 150
7 484 59379
7 485 102
7 486 140
7 487 100
7 488 98
7 489 147
7 490 96
7 491 151
7 492 969
7 493 56
7 494 81
7 495 68
7 496 74
7 497 132
7 498 40
7 499 96
7 500 83
7 501 145
7 502 81
7 503 84
7 504 51
7 505 54
7 506 61165
7 507 59
7 508 195
7 509 70
7 510 25741
7 511 47
7 512 60
7 513 148
7 514 114
7 515 164
7 516 128
7 517 139
7 518 187
7 519 86
7 520 142
7 521 53
7 522 142
7 523 79
7 524 104
7 525 129
7 526 136
7 527 198
7 528 117
7 529 97
7 530 10175
7 531 133
7 532 53
7 533 138
7 534 122
7 535 130
7 536 65
7 537 145
7 538 60
7 539 90
7 540 11670
7 541 94
7 542 83
7 543 149
7 544 89
7 545 28601
7 546 165
7 547 99
7 548 101
7 549 81
7 550 97
7 551 95
7 552 167
7 553 153
7 554 144
7 555 63
7 556 21982
7 557 67
7 558 198
7 559 8256
7 560 134
7 561 119
7 562 76
7 563 131
7 564 77
7 565 131
7 566 100
7 567 100
7 568 133
7 569 110
7 570 140
7 571 90
7 572 82
7 573 110
7 574 128
7 575 129
7 576 92
7 577 199
7 578 147
7 579 121
7 580 151
7 581 104
7 582 15443
7 583 93
7 584 87
7 585 129
7 586 369
7 587 69
7 588 126
7 589 94
7 590 5718
7 591 99
7 592 86
7 593 53
7 594 74
7 595 92
7 596 88
7 597 102
7 598 74
7 599 120
7 600 69
7 601 78
7 602 101
7 603 78
7 604 107
7 605 88
7 606 142
7 607 56
7 608 44
7 609 110
7 610 32584
7 611 150
7 612 171
7 613 51
7 614 133
7 615 108
7 616 54
7 617 128
7 618 112
7 619 148
7 620 66
7 621 96
7 622 115
7 623 120
7 624 26298
7 625 124
7 626 121
7 627 143
7 628 146
7 629 100
7 630 97
7 631 126
7 632 170
7 633 119
7 634 117
7 635 118
7 636 129
7 637 89
7 638 80
7 639 57
7 640 13362
7 641 118
7 642 116
7 643 139
7 644 135
7 645 79
7 646 83
7 647 124
7 648 72
7 649 44
7 650 12828
7 651 31271
7 652 244
7 653 137
7 654 162
7 655 77
7 656 49
7 657 99
7 658 128
7 659 256
7 660 5032
7 661 103
7 662 92
7 663 135
7 664 57
7 665 90
7 666 124
7 667 113
7 668 152
7 669 105
7 670 85
7 671 142
7 672 136
7 673 532
7 674 51
7 675 157
7 676 80
7 677 93
7 678 17321
7 679 114
7 680 33181
7 681 56
7 682 96
7 683 102
7 684 112
7 685 128
7 686 80
7 687 140
7 688 19433
7 689 98
7 690 43
7 691 79
7 692 23017
7 693 102
7 694 277
7 695 30876
7 696 103
7 697 1073
7 698 60
7 699 100
7 700 109
7 701 114
7 702 61
7 703 119
7 704 83
7 705 59
7 706 79
7 707 97
7 708 99
7 709 138
7 710 68
7 711 169
7 712 105
7 713 3140
7 714 145
7 715 147
7 716 94
7 717 66
7 718 70
7 719 128
7 720 75
7 721 65
7 722 177
7 723 101
7 724 161
7 725 131
7 726 109
7 727 141
7 728 123
7 729 79
7 730 43
7 731 85
7 732 63
7 733 125
7 734 82
7 735 162
7 736 5856
7 737 201
7 738 284
7 739 1882
7 740 122
7 741 185
7 742 57
7 743 82
7 744 121
7 745 140
7 746 84
7 747 142
7 748 5005
7 749 52
7 750 118
7 751 15578
7 752 118
7 753 95
7 754 8073
7 755 89
7 756 80
7 757 154
7 758 125
7 759 120
7 760 77
7 761 33
7 762 126
7 763 1037
7 764 107
7 765 19
7 766 135
7 767 67
7 768 271
7 769 120
7 770 165
7 771 69
7 772 182
7 773 82
7 774 156
7 775 77
7 776 153
7 777 117
7 778 77
7 779 153
7 780 96
7 781 59
7 782 171
7 783 114
7 784 109
7 785 63
7 786 80
7 787 31612
7 788 156
7 789 188
7 790 81
7 791 112
7 792 143
7 793 100
7 794 132
7 795 103
7 796 82
7 797 66
7 798 118
7 799 121
7 800 54
7 801 92
7 802 137
7 803 13522
7 804 107
7 805 51
7 806 168
7 807 71
7 808 131
7 809 80
7 810 97
7 811 79
7 812 132
7 813 97
7 814 53
7 815 61
7 816 75
7 817 139
7 818 125
7 819 28837
7 820 121
7 821 137
7 822 75
7 823 426
7 824 123
7 825 91
7 826 135
7 827 65
7 828 116
7 829 94
7 830 114
7 831 137
7 832 82
7 833 72
7 834 118
7 835 97
7 836 98
7 837 79
7 838 15703
7 839 162
7 840 49
7 841 124
7 842 52
7 843 43818
7 844 114
7 845 64
7 846 66
7 847 97
7 848 141
7 849 109
7 850 30611
7 851 429
7 852 8280
7 853 53
7 854 62
7 855 109
7 856 150
7 857 78
7 858 5792
7 859 93
7 860 89
7 861 82
7 862 42
7 863 98
7 864 109
7 865 86
7 866 53
7 867 71
7 868 84
7 869 552
7 870 147
7 871 91
7 872 124
7 873 22
7 874 110
7 875 88
7 876 111
7 877 82
7 878 22397
7 879 69
7 880 116
7 881 50
7 882 104
7 883 70
7 884 114
7 885 108
7 886 126
7 887 108
7 888 131
7 889 92
7 890 97
7 891 66
7 892 125
7 893 108
7 894 136
7 895 79
7 896 96
7 897 598
7 898 498
7 899 113
7 900 158
7 901 158
7 902 16141
7 903 115
7 904 84
7 905 107
7 906 83
7 907 89
7 908 196
7 909 105
7 910 136
7 911 159
7 912 34860
7 913 67
7 914 154
7 915 90
7 916 128
7 917 85
7 918 81
7 919 29449
7 920 99
7 921 32612
7 922 69
7 923 134
7 924 18588
7 925 51
7 926 74
7 927 88
7 928 207
7 929 65
7 930 88
7 931 129
7 932 114
7 933 92
7 934 131
7 935 162
7 936 108
7 937 94
7 938 77
7 939 106
7 940 9741
7 941 71
7 942 165
7 943 77
7 944 154
7 945 52
7 946 60
7 947 112
7 948 93
7 949 28
7 950 71
7 951 123
7 952 69
7 953 6444
7 954 64
7 955 150
7 956 116
7 957 89
7 958 89
7 959 105
7 960 48
7 961 120
7 962 59
7 963 166
7 964 72
7 965 92
7 966 160
7 967 75
7 968 124
7 969 2393
7 970 125
7 971 114
7 972 98
7 973 155
7 974 140
7 975 160
7 976 90
7 977 60
7 978 123
7 979 43
7 980 90
7 981 94
7 982 39
7 983 121
7 984 2686
7 985 12990
7 986 125
7 987 74
7 988 61
7 989 88
7 990 1202
7 991 153
7 992 402
7 993 88
7 994 137
7 995 18316
7 996 103
7 997 67
7 998 163
7 999 72
7 1000 128
7 1001 61
7 1002 142
7 1003 93
7 1004 55
7 1005 65
7 1006 67
7 1007 259
7 1008 112
7 1009 113
7 1010 189
7 1011 1308
7 1012 108
7 1013 99
7 1014 16346
7 1015 100
7 1016 55
7 1017 110
7 1018 58
7 1019 110
7 1020 114
7 1021 51
7 1022 127
7 1023 129
7 1024 142
7 1025 97
7 1026 121
7 1027 85
7 1028 89
7 1029 89
7 1030 147
7 1031 118
7 1032 70
7 1033 121
7 1034 156
7 1035 19933
7 1036 74
7 1037 122
7 1038 104
7 1039 112
7 1040 61
7 1041 217
7 1042 142
7 1043 132
7 1044 136
7 1045 130
7 1046 95
7 1047 23577
7 1048 60
7 1049 86
7 1050 140
7 1051 633
7 1052 106
7 1053 85
7 1054 193
7 1055 71
7 1056 91
7 1057 73
7 1058 84
7 1059 129
7 1060 13742
7 1061 143
7 1062 111
7 1063 88
7 1064 228
7 1065 87
7 1066 127
7 1067 8980
7 1068 77
7 1069 143
7 1070 69
7 1071 43
7 1072 52
7 1073 52
7 1074 94
7 1075 143
7 1076 1204
7 1077 171
7 1078 88
7 1079 133
7 1080 101
7 1081 124
7 1082 117
7 1083 72
7 1084 69
7 1085 92
7 1086 125
7 1087 105
7 1088 30278
7 1089 106
7 1090 87
7 1091 271
7 1092 79
7 1093 142
7 1094 67
7 1095 6275
7 1096 112
7 1097 31993
7 1098 51
7 1099 122
7 1100 79
7 1101 240
7 1102 63
7 1103 369
7 1104 220
7 1105 115
7 1106 112
7 1107 144
7 1108 95
7 1109 116
7 1110 74
7 1111 78
7 1112 111
7 1113 66
7 1114 29672
7 1115 114
7 1116 101
7 1117 125
7 1118 111
7 1119 78
7 1120 87
7 1121 125
7 1122 1719
7 1123 46575
7 1124 104
7 1125 223
7 1126 53
7 1127 118
7 1128 104
7 1129 96
7 1130 134
7 1131 149
7 1132 60
7 1133 113
7 1134 110
7 1135 130
7 1136 111
7 1137 61
7 1138 198
7 1139 111
7 1140 85
7 1141 94
7 1142 5730
7 1143 125
7 1144 142
7 1145 139
7 1146 107
7 1147 120
7 1148 85
7 1149 51
7 1150 121
7 1151 75
7 1152 109
7 1153 7526
7 1154 97
7 1155 51
7 1156 70
7 1157 85
7 1158 159
7 1159 50
7 1160 220
7 1161 5301
7 1162 59
7 1163 89
7 1164 141
7 1165 120
7 1166 96
7 1167 50
7 1168 107
7 1169 135
7 1170 102
7 1171 144
7 1172 64
7 1173 104
7 1174 75
7 1175 152
7 1176 63
7 1177 120
7 1178 96
7 1179 94
7 1180 125
7 1181 1968
7 1182 120
7 1183 547
7 1184 113
7 1185 61
7 1186 1155
7 1187 101
7 1188 55
7 1189 71
7 1190 98
7 1191 84
7 1192 80
7 1193 64
7 1194 39
7 1195 72
7 1196 87
7 1197 4949
7 1198 126
7 1199 82
7 1200 107
7 1201 60
7 1202 1935
7 1203 111
7 1204 6413
7 1205 106
7 1206 104
7 1207 72
7 1208 74
7 1209 109
7 1210 46
7 1211 146
7 1212 305
7 1213 171
7 1214 4613
7 1215 87
7 1216 113
7 1217 112
7 1218 107
7 1219 89
7 1220 174
7 1221 74
7 1222 135
7 1223 43
7 1224 104
7 1225 77
7 1226 3676
7 1227 2557
7 1228 113
7 1229 68
7 1230 97
7 1231 161
7 1232 19946
7 1233 105
7 1234 102
7 1235 100
7 1236 96
7 1237 73
7 1238 147
7 1239 489
7 1240 70
7 1241 89
7 1242 97
7 1243 58
7 1244 131
7 1245 78
7 1246 128
7 1247 79
7 1248 49
7 1249 1395
7 1250 85
7 1251 127
7 1252 66
7 1253 97
7 1254 163
7 1255 89
7 1256 2523
7 1257 75
7 1258 108
7 1259 87
7 1260 137
7 1261 83
7 1262 100
7 1263 134
7 1264 68
7 1265 64
7 1266 1048
7 1267 61
7 1268 122
7 1269 90
7 1270 98
7 1271 58
7 1272 95
7 1273 86
7 1274 135
7 1275 73
7 1276 205
7 1277 79
7 1278 82
7 1279 56
7 1280 181
7 1281 18
7 1282 104
7 1283 68
7 1284 74
7 1285 110
7 1286 28483
7 1287 115
7 1288 120
7 1289 135
7 1290 91
7 1291 110
7 1292 54
7 1293 138
7 1294 4868
7 1295 62
7 1296 47
7 1297 5846
7 1298 104
7 1299 146
7 1300 217
7 1301 95
7 1302 164
7 1303 91
7 1304 66
7 1305 134
7 1306 92
7 1307 125
7 1308 98
7 1309 109
7 1310 123
7 1311 59
7 1312 85
7 1313 7519
7 1314 97
7 1315 76
7 1316 54
7 1317 146
7 1318 92
7 1319 71
7 1320 78
7 1321 67
7 1322 97
7 1323 113
7 1324 117
7 1325 115
7 1326 138
7 1327 94
7 1328 78
7 1329 74
7 1330 58
7 1331 132
7 1332 82
7 1333 107
7 1334 90
7 1335 132
7 1336 118
7 1337 1183
7 1338 129
7 1339 59
7 1340 107
7 1341 107
7 1342 105
7 1343 218
7 1344 131
7 1345 53
7 1346 111
7 1347 109
7 1348 1989
7 1349 66
7 1350 1527
7 1351 122
7 1352 72
7 1353 6711
7 1354 89
7 1355 116
7 1356 114
7 1357 104
7 1358 134
7 1359 97
7 1360 57
7 1361 64
7 1362 110
7 1363 170
7 1364 42
7 1365 105
7 1366 53
7 1367 157
7 1368 85
7 1369 110
7 1370 13047
7 1371 103
7 1372 64
7 1373 63
7 1374 159
7 1375 116
7 1376 50
7 1377 83
7 1378 4313
7 1379 906
7 1380 123
7 1381 152
7 1382 165
7 1383 127
7 1384 64
7 1385 87
7 1386 96
7 1387 102
7 1388 109
7 1389 112
7 1390 56
7 1391 70
7 1392 115
7 1393 323
7 1394 86
7 1395 99
7 1396 102
7 1397 69
7 1398 61
7 1399 66
7 1400 100
7 1401 143
7 1402 53
7 1403 135
7 1404 5840
7 1405 92
7 1406 120
7 1407 90
7 1408 117
7 1409 79
7 1410 83
7 1411 467
7 1412 59
7 1413 87
7 1414 88
7 1415 127
7 1416 128
7 1417 105
7 1418 52
7 1419 126
7 1420 76
7 1421 1112
7 1422 122
7 1423 16963
7 1424 104
7 1425 138
7 1426 93
7 1427 150
7 1428 85
7 1429 93
7 1430 107
7 1431 124
7 1432 82
7 1433 104
7 1434 84
7 1435 149
7 1436 101
7 1437 45
7 1438 75
7 1439 2795
7 1440 12317
7 1441 5768
7 1442 121
7 1443 52
7 1444 60
7 1445 134
7 1446 33
7 1447 127
7 1448 74
7 1449 94
7 1450 127
7 1451 745
7 1452 82
7 1453 102
7 1454 95
7 1455 2082
7 1456 68
7 1457 155
7 1458 88
7 1459 83
7 1460 52
7 1461 46
7 1462 130
7 1463 118
7 1464 106
7 1465 193
7 1466 88
7 1467 96
7 1468 101
7 1469 7
7 1470 133
7 1471 87
7 1472 97
7 1473 661
7 1474 88
7 1475 143
7 1476 116
7 1477 6730
7 1478 57
7 1479 142
7 1480 129
7 1481 67
7 1482 107
7 1483 72
7 1484 84
7 1485 8696
7 1486 134
7 1487 158
7 1488 107
7 1489 120
7 1490 115
7 1491 82
7 1492 123
7 1493 113
7 1494 182
7 1495 69
7 1496 111
7 1497 107
7 1498 62
7 1499 115
7 1500 10831
7 1501 4765
7 1502 57
7 1503 141
7 1504 23927
7 1505 131
7 1506 1502
7 1507 51
7 1508 84
7 1509 73
7 1510 62
7 1511 104
7 1512 116
7 1513 93
7 1514 87
7 1515 102
7 1516 93
7 1517 66
7 1518 103
7 1519 104
7 1520 119
7 1521 93
7 1522 126
7 1523 113
7 1524 132
7 1525 118
7 1526 91
7 1527 89
7 1528 99
7 1529 112
7 1530 93
7 1531 80
7 1532 97
7 1533 116
7 1534 120
7 1535 106
7 1536 69
7 1537 46
7 1538 88
7 1539 25
7 1540 106
7 1541 111
7 1542 148
7 1543 151
7 1544 81
7 1545 182
7 1546 95
7 1547 90
7 1548 61
7 1549 63
7 1550 3275
7 1551 395
7 1552 69
7 1553 36
7 1554 47
7 1555 87
7 1556 66
7 1557 73
7 1558 136
7 1559 111
7 1560 53
7 1561 85
7 1562 84
7 1563 87
7 1564 72
7 1565 135
7 1566 122
7 1567 100
7 1568 75
7 1569 102
7 1570 100
7 1571 123
7 1572 100
7 1573 122
7 1574 81
7 1575 126
7 1576 134
7 1577 147
7 1578 108
7 1579 100
7 1580 56
7 1581 340
7 1582 103
7 1583 101
7 1584 94
7 1585 95
7 1586 73
7 1587 140
7 1588 96
7 1589 25589
7 1590 69
7 1591 105
7 1592 98
7 1593 102
7 1594 76
7 1595 70
7 1596 2473
7 1597 55
7 1598 28
7 1599 133
7 1600 112
7 1601 51
7 1602 101
7 1603 108
7 1604 77
7 1605 57
7 1606 100
7 1607 128
7 1608 131
7 1609 97
7 1610 104
7 1611 120
7 1612 140
7 1613 96
7 1614 91
7 1615 602
7 1616 104
7 1617 15833
7 1618 106
7 1619 95
7 1620 124
7 1621 134
7 1622 70
7 1623 103
7 1624 116
7 1625 66
7 1626 476
7 1627 133
7 1628 170
7 1629 99
7 1630 94
7 1631 110
7 1632 8541
7 1633 1863
7 1634 70
7 1635 90
7 1636 105
7 1637 77
7 1638 109
7 1639 125
7 1640 141
7 1641 50
7 1642 18295
7 1643 714
7 1644 53
7 1645 94
7 1646 131
7 1647 222
7 1648 70
7 1649 82
7 1650 65
7 1651 148
7 1652 106
7 1653 119
7 1654 112
7 1655 196
7 1656 69
7 1657 62
7 1658 69
7 1659 225
7 1660 138
7 1661 116
7 1662 117
7 1663 100
7 1664 229
7 1665 145
7 1666 3708
7 1667 90
7 1668 168
7 1669 54
7 1670 78
7 1671 64
7 1672 143
7 1673 75
7 1674 97
7 1675 338
7 1676 82
7 1677 53
7 1678 52
7 1679 123
7 1680 70
7 1681 98
7 1682 112
7 1683 53
7 1684 74
7 1685 69
7 1686 120
7 1687 87
7 1688 114
7 1689 91
7 1690 37
7 1691 52
7 1692 81
7 1693 125
7 1694 69
7 1695 122
7 1696 54
7 1697 137
7 1698 94
7 1699 6188
7 1700 116
7 1701 75
7 1702 87
7 1703 34
7 1704 73
7 1705 74
7 1706 10264
7 1707 55
7 1708 82
7 1709 70
7 1710 79
7 1711 31
7 1712 139
7 1713 65
7 1714 107
7 1715 74
7 1716 74
7 1717 71
7 1718 86
7 1719 89
7 1720 98
7 1721 138
7 1722 48
7 1723 31
7 1724 229
7 1725 81
7 1726 62
7 1727 74
7 1728 143
7 1729 102
7 1730 132
7 1731 82
7 1732 84
7 1733 458
7 1734 7059
7 1735 1266
7 1736 94
7 1737 258
7 1738 101
7 1739 98
7 1740 123
7 1741 61
7 1742 2044
7 1743 107
7 1744 49
7 1745 77
7 1746 56
7 1747 60
7 1748 47
7 1749 8118
7 1750 117
7 1751 34
7 1752 103
7 1753 105
7 1754 161
7 1755 112
7 1756 92
7 1757 120
7 1758 76
7 1759 984
7 1760 99
7 1761 154
7 1762 106
7 1763 85
7 1764 63
7 1765 46
7 1766 41
7 1767 63
7 1768 128
7 1769 77
7 1770 111
7 1771 68
7 1772 74
7 1773 63
7 1774 85
7 1775 63
7 1776 91
7 1777 101
7 1778 142
7 1779 111
7 1780 41
7 1781 107
7 1782 84
7 1783 116
7 1784 60
7 1785 30
7 1786 134
7 1787 102
7 1788 50
7 1789 213
7 1790 114
7 1791 88
7 1792 101
7 1793 6143
7 1794 117
7 1795 84
7 1796 30
7 1797 64
7 1798 73
7 1799 149
7 1800 104
7 1801 4483
7 1802 64
7 1803 88
7 1804 103
7 1805 63
7 1806 118
7 1807 79
7 1808 62
7 1809 10580
7 1810 51
7 1811 84
7 1812 54
7 1813 3249
7 1814 109
7 1815 199
7 1816 88
7 1817 44
7 1818 44
7 1819 88
7 1820 107
7 1821 78
7 1822 98
7 1823 88
7 1824 90
7 1825 304
7 1826 274
7 1827 111
7 1828 51
7 1829 143
7 1830 210
7 1831 127
7 1832 269
7 1833 391
7 1834 62
7 1835 74
7 1836 62
7 1837 118
7 1838 44
7 1839 85
7 1840 48
7 1841 106
7 1842 66
7 1843 134
7 1844 498
7 1845 128
7 1846 126
7 1847 98
7 1848 469
7 1849 76
7 1850 3769
7 1851 119
7 1852 59
7 1853 257
7 1854 119
7 1855 46
7 1856 221
7 1857 13891
7 1858 62
7 1859 121
7 1860 119
7 1861 70
7 1862 88
7 1863 88
7 1864 64
7 1865 56
7 1866 116
7 1867 87
7 1868 59
7 1869 472
7 1870 88
7 1871 99
7 1872 80
7 1873 780
7 1874 122
7 1875 125
7 1876 77
7 1877 148
7 1878 39
7 1879 60
7 1880 74
7 1881 101
7 1882 26
7 1883 96
7 1884 98
7 1885 100
7 1886 157
7 1887 61
7 1888 81
7 1889 91
7 1890 100
7 1891 2628
7 1892 86
7 1893 7040
7 1894 48
7 1895 61
7 1896 84
7 1897 133
7 1898 86
7 1899 62
7 1900 80
7 1901 16196
7 1902 618
7 1903 90
7 1904 139
7 1905 35
7 1906 103
7 1907 105
7 1908 89
7 1909 94
7 1910 158
7 1911 73
7 1912 87
7 1913 85
7 1914 51
7 1915 71
7 1916 73
7 1917 3342
7 1918 74
7 1919 119
7 1920 111
7 1921 73
7 1922 68
7 1923 43
7 1924 47
7 1925 90
7 1926 78
7 1927 80
7 1928 161
7 1929 460
7 1930 130
7 1931 83
7 1932 105
7 1933 88
7 1934 121
7 1935 128
7 1936 10061
7 1937 165
7 1938 572
7 1939 100
7 1940 135
7 1941 92
7 1942 106
7 1943 53
7 1944 60
7 1945 172
7 1946 118
7 1947 135
7 1948 71
7 1949 1004
7 1950 60
7 1951 311
7 1952 83
7 1953 2748
7 1954 123
7 1955 92
7 1956 117
7 1957 7757
7 1958 71
7 1959 62
7 1960 66
7 1961 58
7 1962 66
7 1963 79
7 1964 66
7 1965 193
7 1966 85
7 1967 78
7 1968 110
7 1969 109
7 1970 94
7 1971 110
7 1972 62
7 1973 2171
7 1974 72
7 1975 94
7 1976 49
7 1977 104
7 1978 142
7 1979 81
7 1980 81
7 1981 203
7 1982 93
7 1983 72
7 1984 46
7 1985 55
7 1986 15470
7 1987 71
7 1988 97
7 1989 68
7 1990 91
7 1991 94
7 1992 129
7 1993 118
7 1994 128
7 1995 103
7 1996 187
7 1997 94
7 1998 111
7 1999 63
7 2000 2316
7 2001 109
7 2002 124
7 2003 119
7 2004 59
7 2005 84
7 2006 109
7 2007 62
7 2008 60
7 2009 91
7 2010 38
7 2011 207
7 2012 53
7 2013 79
7 2014 51
7 2015 127
7 2016 58
7 2017 1028
7 2018 100
7 2019 125
7 2020 80
7 2021 61
7 2022 102
7 2023 103
7 2024 52
7 2025 714
7 2026 149
7 2027 112
7 2028 56
7 2029 70
7 2030 113
7 2031 165
7 2032 106
7 2033 73
7 2034 26
7 2035 93
7 2036 85
7 2037 58
7 2038 100
7 2039 99
7 2040 114
7 2041 84
7 2042 89
7 2043 66
7 2044 107
7 2045 86
7 2046 91
7 2047 18233
7 2048 66
7 2049 138
7 2050 100
7 2051 109
7 2052 92
7 2053 97
7 2054 113
7 2055 31
7 2056 95
7 2057 92
7 2058 66
7 2059 54
7 2060 3499
7 2061 67
7 2062 73
7 2063 130
7 2064 4158
7 2065 85
7 2066 72
7 2067 70
7 2068 118
7 2069 12730
7 2070 145
7 2071 107
7 2072 93
7 2073 8870
7 2074 73
7 2075 99
7 2076 52
7 2077 105
7 2078 80
7 2079 289
7 2080 95
7 2081 74
7 2082 95
7 2083 50
7 2084 141
7 2085 66
7 2086 116
7 2087 398
7 2088 79
7 2089 71
7 2090 51
7 2091 45
7 2092 58
7 2093 111
7 2094 115
7 2095 3
7 2096 131
7 2097 90
7 2098 116
7 2099 116
7 2100 165
7 2101 52
7 2102 90
7 2103 127
7 2104 65
7 2105 59
7 2106 151
7 2107 903
7 2108 113
7 2109 69
7 2110 77
7 2111 57
7 2112 94
7 2113 85
7 2114 110
7 2115 52
7 2116 71
7 2117 78
7 2118 73
7 2119 133
7 2120 138
7 2121 77
7 2122 7577
7 2123 75
7 2124 149
7 2125 57
7 2126 90
7 2127 108
7 2128 59
7 2129 101
7 2130 92
7 2131 83
7 2132 114
7 2133 121
7 2134 68
7 2135 108
7 2136 100
7 2137 96
7 2138 104
7 2139 147
7 2140 124
7 2141 95
7 2142 95
7 2143 120
7 2144 222
7 2145 106
7 2146 75
7 2147 92
7 2148 134
7 2149 18559
7 2150 111
7 2151 68
7 2152 91
7 2153 100
7 2154 9567
7 2155 68
7 2156 135
7 2157 114
7 2158 94
7 2159 654
7 2160 76
7 2161 15
7 2162 668
7 2163 2034
7 2164 89
7 2165 90
7 2166 138
7 2167 125
7 2168 62
7 2169 191
7 2170 59
7 2171 104
7 2172 120
7 2173 117
7 2174 107
7 2175 439
7 2176 89
7 2177 73
7 2178 100
7 2179 103
7 2180 71
7 2181 104
7 2182 29
7 2183 131
7 2184 49
7 2185 3463
7 2186 132
7 2187 112
7 2188 84
7 2189 117
7 2190 7363
7 2191 113
7 2192 115
7 2193 118
7 2194 163
7 2195 147
7 2196 86
7 2197 75
7 2198 60
7 2199 103
7 2200 125
7 2201 110
7 2202 98
7 2203 55
7 2204 71
7 2205 136
7 2206 103
7 2207 95
7 2208 58
7 2209 71
7 2210 120
7 2211 99
7 2212 107
7 2213 35
7 2214 83
7 2215 111
7 2216 92
7 2217 19856
7 2218 101
7 2219 148
7 2220 211
7 2221 77
7 2222 88
7 2223 959
7 2224 38
7 2225 54
7 2226 67
7 2227 97
7 2228 86
7 2229 36
7 2230 142
7 2231 63
7 2232 96
7 2233 147
7 2234 50
7 2235 93
7 2236 99
7 2237 123
7 2238 79
7 2239 127
7 2240 111
7 2241 408
7 2242 93
7 2243 68
7 2244 114
7 2245 111
7 2246 89
7 2247 73
7 2248 124
7 2249 140
7 2250 90
7 2251 56
7 2252 138
7 2253 115
7 2254 77
7 2255 122
7 2256 109
7 2257 44
7 2258 56
7 2259 62
7 2260 82
7 2261 54
7 2262 137
7 2263 123
7 2264 52
7 2265 129
7 2266 64
7 2267 170
7 2268 138
7 2269 146
7 2270 54
7 2271 118
7 2272 77
7 2273 235
7 2274 54
7 2275 489
7 2276 65
7 2277 41
7 2278 95
7 2279 76
7 2280 426
7 2281 441
7 2282 115
7 2283 116
7 2284 80
7 2285 73
7 2286 63
7 2287 110
7 2288 62
7 2289 99
7 2290 115
7 2291 55
7 2292 62
7 2293 79
7 2294 46
7 2295 136
7 2296 102
7 2297 18187
7 2298 90
7 2299 86
7 2300 6472
7 2301 64
7 2302 64
7 2303 78
7 2304 112
7 2305 114
7 2306 68
7 2307 90
7 2308 13106
7 2309 105
7 2310 10197
7 2311 98
7 2312 95
7 2313 89
7 2314 55
7 2315 117
7 2316 115
7 2317 11778
7 2318 65
7 2319 94
7 2320 122
7 2321 114
7 2322 113
7 2323 119
7 2324 180
7 2325 91
7 2326 113
7 2327 154
7 2328 476
7 2329 134
7 2330 40
7 2331 113
7 2332 130
7 2333 169
7 2334 227
7 2335 17
7 2336 107
7 2337 7213
7 2338 231
7 2339 88
7 2340 75
7 2341 95
7 2342 99
7 2343 67
7 2344 156
7 2345 101
7 2346 89
7 2347 8327
7 2348 85
7 2349 201
7 2350 77
7 2351 68
7 2352 70
7 2353 54
7 2354 78
7 2355 108
7 2356 41
7 2357 699
7 2358 130
7 2359 107
7 2360 46
7 2361 61
7 2362 84
7 2363 92
7 2364 48
7 2365 409
7 2366 75
7 2367 67
7 2368 69
7 2369 55
7 2370 69
7 2371 113
7 2372 129
7 2373 65
7 2374 129
7 2375 84
7 2376 100
7 2377 704
7 2378 169
7 2379 104
7 2380 121
7 2381 144
7 2382 83
7 2383 1049
7 2384 68
7 2385 82
7 2386 103
7 2387 54
7 2388 1642
7 2389 1567
7 2390 76
7 2391 88
7 2392 229
7 2393 50
7 2394 595
7 2395 123
7 2396 121
7 2397 64
7 2398 81
7 2399 107
7 2400 106
7 2401 123
7 2402 93
7 2403 64
7 2404 660
7 2405 2270
7 2406 122
7 2407 62
7 2408 1485
7 2409 66
7 2410 86
7 2411 94
7 2412 67
7 2413 1309
7 2414 79
7 2415 101
7 2416 98
7 2417 33
7 2418 15
7 2419 98
7 2420 106
7 2421 136
7 2422 89
7 2423 54
7 2424 130
7 2425 134
7 2426 125
7 2427 158
7 2428 101
7 2429 93
7 2430 82
7 2431 85
7 2432 110
7 2433 116
7 2434 74
7 2435 93
7 2436 79
7 2437 46
7 2438 126
7 2439 114
7 2440 222
7 2441 187
7 2442 70
7 2443 103
7 2444 86
7 2445 56
7 2446 106
7 2447 70
7 2448 156
7 2449 105
7 2450 91
7 2451 119
7 2452 55
7 2453 50
7 2454 75
7 2455 196
7 2456 65
7 2457 78
7 2458 47
7 2459 51
7 2460 281
7 2461 34
7 2462 59
7 2463 69
7 2464 110
7 2465 144
7 2466 76
7 2467 105
7 2468 380
7 2469 50
7 2470 5788
7 2471 4010
7 2472 40
7 2473 70
7 2474 63
7 2475 117
7 2476 73
7 2477 123
7 2478 98
7 2479 99
7 2480 135
7 2481 53
7 2482 80
7 2483 91
7 2484 114
7 2485 64
7 2486 46
7 2487 133
7 2488 127
7 2489 153
7 2490 104
7 2491 4516
7 2492 55
7 2493 100
7 2494 121
7 2495 958
7 2496 70
7 2497 162
7 2498 82
7 2499 1997
7 2500 2555
7 2501 101
7 2502 85
7 2503 34
7 2504 143
7 2505 166
7 2506 3708
7 2507 73
7 2508 140
7 2509 107
7 2510 109
7 2511 49
7 2512 52
7 2513 75
7 2514 124
7 2515 123
7 2516 83
7 2517 57
7 2518 120
7 2519 170
7 2520 349
7 2521 86
7 2522 70
7 2523 57
7 2524 109
7 2525 78
7 2526 31
7 2527 2754
7 2528 47
7 2529 85
7 2530 43
7 2531 44
7 2532 96
7 2533 11569
7 2534 49
7 2535 124
7 2536 111
7 2537 75
7 2538 39
7 2539 97
7 2540 379
7 2541 199
7 2542 85
7 2543 10523
7 2544 113
7 2545 4332
7 2546 68
7 2547 113
7 2548 80
7 2549 63
7 2550 82
7 2551 88
7 2552 75
7 2553 94
7 2554 93
7 2555 1440
7 2556 59
7 2557 225
7 2558 80
7 2559 64
7 2560 60
7 2561 67
7 2562 54
7 2563 158
7 2564 86
7 2565 53
7 2566 64
7 2567 100
7 2568 66
7 2569 95
7 2570 3658
7 2571 68
7 2572 67
7 2573 91
7 2574 55
7 2575 111
7 2576 60
7 2577 55
7 2578 115
7 2579 106
7 2580 101
7 2581 117
7 2582 5338
7 2583 2388
7 2584 65
7 2585 43
7 2586 144
7 2587 95
7 2588 124
7 2589 97
7 2590 103
7 2591 52
7 2592 325
7 2593 87
7 2594 55
7 2595 67
7 2596 137
7 2597 172
7 2598 74
7 2599 99
7 2600 97
7 2601 107
7 2602 76
7 2603 72
7 2604 49
7 2605 122
7 2606 222
7 2607 54
7 2608 35
7 2609 47
7 2610 57
7 2611 129
7 2612 88
7 2613 62
7 2614 95
7 2615 119
7 2616 90
7 2617 40
7 2618 59
7 2619 93
7 2620 96
7 2621 39
7 2622 148
7 2623 43
7 2624 73
7 2625 146
7 2626 477
7 2627 2081
7 2628 75
7 2629 103
7 2630 99
7 2631 56
7 2632 57
7 2633 115
7 2634 3847
7 2635 106
7 2636 90
7 2637 100
7 2638 235
7 2639 62
7 2640 81
7 2641 96
7 2642 74
7 2643 260
7 2644 97
7 2645 94
7 2646 46
7 2647 603
7 2648 83
7 2649 103
7 2650 52
7 2651 623
7 2652 78
7 2653 48
7 2654 3111
7 2655 395
7 2656 68
7 2657 92
7 2658 107
7 2659 93
7 2660 116
7 2661 69
7 2662 108
7 2663 79
7 2664 62
7 2665 2990
7 2666 92
7 2667 102
7 2668 1
7 2669 49
7 2670 93
7 2671 131
7 2672 75
7 2673 85
7 2674 40
7 2675 59
7 2676 125
7 2677 58
7 2678 80
7 2679 69
7 2680 62
7 2681 159
7 2682 173
7 2683 137
7 2684 758
7 2685 140
7 2686 152
7 2687 125
7 2688 54
7 2689 36
7 2690 88
7 2691 105
7 2692 125
7 2693 84
7 2694 55
7 2695 50
7 2696 80
7 2697 77
7 2698 83
7 2699 127
7 2700 113
7 2701 59
7 2702 117
7 2703 104
7 2704 130
7 2705 81
7 2706 50
7 2707 81
7 2708 70
7 2709 116
7 2710 53
7 2711 113
7 2712 76
7 2713 92
7 2714 45
7 2715 114
7 2716 3904
7 2717 7064
7 2718 51
7 2719 205
7 2720 347
7 2721 100
7 2722 120
7 2723 66
7 2724 83
7 2725 53
7 2726 3084
7 2727 1293
7 2728 7027
7 2729 74
7 2730 103
7 2731 97
7 2732 71
7 2733 115
7 2734 96
7 2735 117
7 2736 74
7 2737 89
7 2738 1152
7 2739 101
7 2740 67
7 2741 112
7 2742 127
7 2743 58
7 2744 121
7 2745 103
7 2746 58
7 2747 1447
7 2748 2604
7 2749 85
7 2750 57
7 2751 73
7 2752 55
7 2753 53
7 2754 93
7 2755 176
7 2756 50
7 2757 104
7 2758 313
7 2759 581
7 2760 135
7 2761 98
7 2762 84
7 2763 54
7 2764 84
7 2765 115
7 2766 79
7 2767 862
7 2768 110
7 2769 80
7 2770 54
7 2771 132
7 2772 57
7 2773 84
7 2774 59
7 2775 55
7 2776 132
7 2777 75
7 2778 115
7 2779 46
7 2780 222
7 2781 77
7 2782 57
7 2783 104
7 2784 117
7 2785 107
7 2786 45
7 2787 78
7 2788 67
7 2789 57
7 2790 40
7 2791 110
7 2792 2209
7 2793 87
7 2794 64
7 2795 218
7 2796 148
7 2797 72
7 2798 187
7 2799 2548
7 2800 108
7 2801 128
7 2802 231
7 2803 61
7 2804 16
7 2805 46
7 2806 399
7 2807 165
7 2808 142
7 2809 110
7 2810 83
7 2811 57
7 2812 85
7 2813 276
7 2814 116
7 2815 169
7 2816 83
7 2817 1335
7 2818 6
7 2819 119
7 2820 62
7 2821 84
7 2822 122
7 2823 116
7 2824 82
7 2825 65
7 2826 52
7 2827 98
7 2828 93
7 2829 179
7 2830 104
7 2831 82
7 2832 65
7 2833 4008
7 2834 109
7 2835 89
7 2836 73
7 2837 107
7 2838 84
7 2839 157
7 2840 53
7 2841 78
7 2842 105
7 2843 68
7 2844 69
7 2845 86
7 2846 115
7 2847 52
7 2848 153
7 2849 102
7 2850 107
7 2851 3099
7 2852 61
7 2853 128
7 2854 63
7 2855 98
7 2856 116
7 2857 49
7 2858 381
7 2859 53
7 2860 147
7 2861 103
7 2862 59
7 2863 4173
7 2864 102
7 2865 69
7 2866 130
7 2867 87
7 2868 52
7 2869 62
7 2870 125
7 2871 135
7 2872 59
7 2873 23
7 2874 113
7 2875 82
7 2876 62
7 2877 128
7 2878 84
7 2879 133
7 2880 144
7 2881 65
7 2882 144
7 2883 2517
7 2884 66
7 2885 63
7 2886 115
7 2887 255
7 2888 124
7 2889 51
7 2890 109
7 2891 70
7 2892 90
7 2893 53
7 2894 125
7 2895 105
7 2896 86
7 2897 103
7 2898 97
7 2899 120
7 2900 84
7 2901 113
7 2902 96
7 2903 158
7 2904 121
7 2905 92
7 2906 86
7 2907 85
7 2908 111
7 2909 58
7 2910 111
7 2911 112
7 2912 107
7 2913 70
7 2914 146
7 2915 89
7 2916 86
7 2917 106
7 2918 113
7 2919 57
7 2920 1565
7 2921 178
7 2922 157
7 2923 65
7 2924 3326
7 2925 52
7 2926 102
7 2927 319
7 2928 100
7 2929 110
7 2930 164
7 2931 653
7 2932 49
7 2933 91
7 2934 81
7 2935 111
7 2936 62
7 2937 71
7 2938 76
7 2939 68
7 2940 86
7 2941 1143
7 2942 72
7 2943 221
7 2944 58
7 2945 45
7 2946 116
7 2947 93
7 2948 85
7 2949 6651
7 2950 109
7 2951 3997
7 2952 55
7 2953 54
7 2954 85
7 2955 5583
7 2956 16
7 2957 50
7 2958 72
7 2959 183
7 2960 127
7 2961 97
7 2962 97
7 2963 1012
7 2964 61
7 2965 290
7 2966 44
7 2967 68
7 2968 52
7 2969 1091
7 2970 177
7 2971 40
7 2972 70
7 2973 67
7 2974 98
7 2975 83
7 2976 57
7 2977 47
7 2978 123
7 2979 85
7 2980 60
7 2981 100
7 2982 113
7 2983 63
7 2984 44
7 2985 34
7 2986 50
7 2987 10
7 2988 115
7 2989 72
7 2990 83
7 2991 79
7 2992 107
7 2993 73
7 2994 1742
7 2995 68
7 2996 116
7 2997 93
7 2998 84
7 2999 55
7 3000 88
7 3001 85
7 3002 107
7 3003 92
7 3004 128
7 3005 69
7 3006 60
7 3007 90
7 3008 140
7 3009 34
7 3010 54
7 3011 37
7 3012 106
7 3013 115
7 3014 102
7 3015 2982
7 3016 61
7 3017 97
7 3018 1530
7 3019 125
7 3020 3507
7 3021 4315
7 3022 76
7 3023 86
7 3024 119
7 3025 39
7 3026 72
7 3027 120
7 3028 41
7 3029 32
7 3030 97
7 3031 63
7 3032 110
7 3033 131
7 3034 74
7 3035 96
7 3036 101
7 3037 90
7 3038 99
7 3039 70
7 3040 1274
7 3041 128
7 3042 99
7 3043 87
7 3044 71
7 3045 88
7 3046 74
7 3047 100
7 3048 238
7 3049 90
7 3050 47
7 3051 86
7 3052 147
7 3053 81
7 3054 41
7 3055 85
7 3056 129
7 3057 4961
7 3058 150
7 3059 93
7 3060 1148
7 3061 196
7 3062 87
7 3063 388
7 3064 156
7 3065 103
7 3066 4346
7 3067 110
7 3068 62
7 3069 60
7 3070 198
7 3071 118
7 3072 120
7 3073 38
7 3074 109
7 3075 67
7 3076 105
7 3077 95
7 3078 82
7 3079 326
7 3080 104
7 3081 106
7 3082 75
7 3083 94
7 3084 67
7 3085 80
7 3086 80
7 3087 68
7 3088 16
7 3089 48
7 3090 81
7 3091 80
7 3092 106
7 3093 87
7 3094 63
7 3095 65
7 3096 64
7 3097 100
7 3098 50
7 3099 60
7 3100 121
7 3101 57
7 3102 144
7 3103 85
7 3104 70
7 3105 104
7 3106 69
7 3107 61
7 3108 71
7 3109 74
7 3110 109
7 3111 92
7 3112 109
7 3113 156
7 3114 464
7 3115 503
7 3116 145
7 3117 105
7 3118 49
7 3119 192
7 3120 128
7 3121 47
7 3122 101
7 3123 78
7 3124 122
7 3125 94
7 3126 95
7 3127 65
7 3128 95
7 3129 57
7 3130 94
7 3131 109
7 3132 112
7 3133 88
7 3134 142
7 3135 76
7 3136 158
7 3137 120
7 3138 44
7 3139 69
7 3140 8404
7 3141 124
7 3142 99
7 3143 185
7 3144 57
7 3145 86
7 3146 465
7 3147 67
7 3148 52
7 3149 113
7 3150 282
7 3151 38
7 3152 87
7 3153 122
7 3154 64
7 3155 143
7 3156 18
7 3157 171
7 3158 111
7 3159 266
7 3160 73
7 3161 434
7 3162 850
7 3163 123
7 3164 158
7 3165 61
7 3166 114
7 3167 90
7 3168 68
7 3169 107
7 3170 55
7 3171 75
7 3172 73
7 3173 101
7 3174 118
7 3175 178
7 3176 54
7 3177 68
7 3178 53
7 3179 1313
7 3180 33
7 3181 93
7 3182 134
7 3183 67
7 3184 107
7 3185 90
7 3186 32
7 3187 95
7 3188 60
7 3189 81
7 3190 311
7 3191 86
7 3192 75
7 3193 81
7 3194 99
7 3195 130
7 3196 110
7 3197 100
7 3198 65
7 3199 44
7 3200 146
7 3201 115
7 3202 3534
7 3203 36
7 3204 39
7 3205 442
7 3206 132
7 3207 97
7 3208 308
7 3209 178
7 3210 68
7 3211 99
7 3212 61
7 3213 94
7 3214 78
7 3215 59
7 3216 246
7 3217 98
7 3218 92
7 3219 370
7 3220 85
7 3221 417
7 3222 144
7 3223 103
7 3224 89
7 3225 164
7 3226 42
7 3227 81
7 3228 93
7 3229 66
7 3230 63
7 3231 113
7 3232 65
7 3233 109
7 3234 893
7 3235 113
7 3236 55
7 3237 201
7 3238 52
7 3239 92
7 3240 66
7 3241 108
7 3242 156
7 3243 84
7 3244 107
7 3245 109
7 3246 115
7 3247 87
7 3248 227
7 3249 55
7 3250 104
7 3251 125
7 3252 99
7 3253 55
7 3254 65
7 3255 126
7 3256 87
7 3257 43
7 3258 59
7 3259 79
7 3260 449
7 3261 74
7 3262 57
7 3263 120
7 3264 75
7 3265 47
7 3266 106
7 3267 116
7 3268 89
7 3269 110
7 3270 104
7 3271 56
7 3272 95
7 3273 203
7 3274 57
7 3275 59
7 3276 108
7 3277 53
7 3278 139
7 3279 59
7 3280 816
7 3281 134
7 3282 103
7 3283 94
7 3284 109
7 3285 33
7 3286 93
7 3287 135
7 3288 114
7 3289 259
7 3290 117
7 3291 41
7 3292 135
7 3293 45
7 3294 138
7 3295 89
7 3296 85
7 3297 102
7 3298 120
7 3299 71
7 3300 92
7 3301 107
7 3302 117
7 3303 105
7 3304 91
7 3305 71
7 3306 114
7 3307 60
7 3308 1727
7 3309 86
7 3310 60
7 3311 55
7 3312 1477
7 3313 1281
7 3314 104
7 3315 107
7 3316 103
7 3317 94
7 3318 90
7 3319 65
7 3320 114
7 3321 85
7 3322 191
7 3323 100
7 3324 91
7 3325 132
7 3326 267
7 3327 28
7 3328 58
7 3329 88
7 3330 104
7 3331 115
7 3332 64
7 3333 91
7 3334 55
7 3335 472
7 3336 100
7 3337 52
7 3338 76
7 3339 713
7 3340 73
7 3341 217
7 3342 107
7 3343 409
7 3344 65
7 3345 70
7 3346 85
7 3347 130
7 3348 105
7 3349 70
7 3350 66
7 3351 96
7 3352 58
7 3353 88
7 3354 35
7 3355 137
7 3356 104
7 3357 54
7 3358 1346
7 3359 74
7 3360 759
7 3361 133
7 3362 62
7 3363 65
7 3364 71
7 3365 95
7 3366 104
7 3367 41
7 3368 55
7 3369 5
7 3370 130
7 3371 70
7 3372 91
7 3373 103
7 3374 93
7 3375 91
7 3376 1174
7 3377 47
7 3378 65
7 3379 66
7 3380 95
7 3381 85
7 3382 67
7 3383 119
7 3384 55
7 3385 66
7 3386 96
7 3387 118
7 3388 112
7 3389 33
7 3390 93
7 3391 73
7 3392 177
7 3393 22
7 3394 55
7 3395 46
7 3396 242
7 3397 64
7 3398 203
7 3399 60
7 3400 1082
7 3401 114
7 3402 48
7 3403 92
7 3404 57
7 3405 104
7 3406 104
7 3407 131
7 3408 59
7 3409 3783
7 3410 88
7 3411 24
7 3412 110
7 3413 44
7 3414 105
7 3415 71
7 3416 81
7 3417 93
7 3418 110
7 3419 10
7 3420 93
7 3421 89
7 3422 279
7 3423 40
7 3424 41
7 3425 1376
7 3426 58
7 3427 40
7 3428 62
7 3429 83
7 3430 96
7 3431 75
7 3432 77
7 3433 141
7 3434 136
7 3435 53
7 3436 103
7 3437 97
7 3438 90
7 3439 193
7 3440 102
7 3441 105
7 3442 86
7 3443 112
7 3444 55
7 3445 49
7 3446 127
7 3447 138
7 3448 128
7 3449 48
7 3450 86
7 3451 37
7 3452 24
7 3453 68
7 3454 56
7 3455 63
7 3456 89
7 3457 113
7 3458 72
7 3459 37
7 3460 95
7 3461 61
7 3462 56
7 3463 62
7 3464 33
7 3465 2539
7 3466 58
7 3467 113
7 3468 44
7 3469 471
7 3470 70
7 3471 74
7 3472 37
7 3473 80
7 3474 80
7 3475 69
7 3476 37
7 3477 38
7 3478 338
7 3479 41
7 3480 347
7 3481 64
7 3482 88
7 3483 98
7 3484 2425
7 3485 85
7 3486 68
7 3487 87
7 3488 479
7 3489 70
7 3490 93
7 3491 123
7 3492 49
7 3493 288
7 3494 54
7 3495 90
7 3496 4277
7 3497 95
7 3498 99
7 3499 399
7 3500 93
7 3501 46
7 3502 94
7 3503 42
7 3504 62
7 3505 68
7 3506 79
7 3507 49
7 3508 675
7 3509 49
7 3510 105
7 3511 76
7 3512 133
7 3513 66
7 3514 135
7 3515 164
7 3516 105
7 3517 73
7 3518 55
7 3519 119
7 3520 84
7 3521 96
7 3522 77
7 3523 32
7 3524 84
7 3525 42
7 3526 125
7 3527 114
7 3528 43
7 3529 58
7 3530 68
7 3531 85
7 3532 69
7 3533 113
7 3534 76
7 3535 67
7 3536 110
7 3537 73
7 3538 785
7 3539 93
7 3540 48
7 3541 108
7 3542 60
7 3543 2166
7 3544 569
7 3545 88
7 3546 68
7 3547 299
7 3548 38
7 3549 59
7 3550 94
7 3551 109
7 3552 56
7 3553 145
7 3554 66
7 3555 79
7 3556 103
7 3557 101
7 3558 102
7 3559 509
7 3560 44
7 3561 62
7 3562 121
7 3563 619
7 3564 95
7 3565 94
7 3566 100
7 3567 144
7 3568 56
7 3569 87
7 3570 49
7 3571 99
7 3572 52
7 3573 64
7 3574 180
7 3575 61
7 3576 66
7 3577 123
7 3578 53
7 3579 180
7 3580 393
7 3581 130
7 3582 67
7 3583 656
7 3584 115
7 3585 59
7 3586 74
7 3587 39
7 3588 61
7 3589 27
7 3590 103
7 3591 82
7 3592 232
7 3593 111
7 3594 50
7 3595 58
7 3596 104
7 3597 2713
7 3598 99
7 3599 248
7 3600 79
7 3601 37
7 3602 60
7 3603 585
7 3604 93
7 3605 98
7 3606 251
7 3607 79
7 3608 108
7 3609 65
7 3610 180
7 3611 60
7 3612 107
7 3613 71
7 3614 867
7 3615 125
7 3616 53
7 3617 95
7 3618 95
7 3619 89
7 3620 49
7 3621 80
7 3622 3753
7 3623 116
7 3624 77
7 3625 99
7 3626 92
7 3627 82
7 3628 69
7 3629 65
7 3630 56
7 3631 83
7 3632 102
7 3633 105
7 3634 116
7 3635 93
7 3636 52
7 3637 88
7 3638 190
7 3639 80
7 3640 78
7 3641 70
7 3642 61
7 3643 65
7 3644 102
7 3645 116
7 3646 35
7 3647 1051
7 3648 167
7 3649 39
7 3650 84
7 3651 103
7 3652 554
7 3653 48
7 3654 57
7 3655 31
7 3656 89
7 3657 115
7 3658 97
7 3659 84
7 3660 104
7 3661 188
7 3662 118
7 3663 82
7 3664 62
7 3665 57
7 3666 78
7 3667 3805
7 3668 466
7 3669 86
7 3670 97
7 3671 72
7 3672 159
7 3673 72
7 3674 93
7 3675 32
7 3676 746
7 3677 98
7 3678 64
7 3679 316
7 3680 59
7 3681 136
7 3682 80
7 3683 51
7 3684 63
7 3685 110
7 3686 67
7 3687 65
7 3688 62
7 3689 125
7 3690 103
7 3691 63
7 3692 59
7 3693 85
7 3694 120
7 3695 70
7 3696 100
7 3697 144
7 3698 6
7 3699 606
7 3700 82
7 3701 100
7 3702 104
7 3703 124
7 3704 108
7 3705 69
7 3706 47
7 3707 114
7 3708 65
7 3709 85
7 3710 93
7 3711 99
7 3712 44
7 3713 225
7 3714 2250
7 3715 65
7 3716 93
7 3717 89
7 3718 77
7 3719 44
7 3720 90
7 3721 68
7 3722 157
7 3723 57
7 3724 1696
7 3725 228
7 3726 71
7 3727 111
7 3728 128
7 3729 101
7 3730 59
7 3731 84
7 3732 111
7 3733 94
7 3734 95
7 3735 51
7 3736 62
7 3737 61
7 3738 86
7 3739 80
7 3740 93
7 3741 57
7 3742 116
7 3743 66
7 3744 103
7 3745 72
7 3746 56
7 3747 102
7 3748 49
7 3749 108
7 3750 241
7 3751 104
7 3752 45
7 3753 48
7 3754 9857
7 3755 84
7 3756 92
7 3757 91
7 3758 40
7 3759 37
7 3760 114
7 3761 78
7 3762 101
7 3763 86
7 3764 113
7 3765 68
7 3766 6144
7 3767 71
7 3768 97
7 3769 467
7 3770 74
7 3771 49
7 3772 66
7 3773 35
7 3774 55
7 3775 94
7 3776 125
7 3777 49
7 3778 64
7 3779 70
7 3780 100
7 3781 59
7 3782 51
7 3783 70
7 3784 47
7 3785 572
7 3786 68
7 3787 64
7 3788 119
7 3789 102
7 3790 110
7 3791 476
7 3792 116
7 3793 188
7 3794 48
7 3795 122
7 3796 100
7 3797 79
7 3798 47
7 3799 81
7 3800 97
7 3801 131
7 3802 62
7 3803 32
7 3804 37
7 3805 121
7 3806 107
7 3807 1508
7 3808 53
7 3809 100
7 3810 74
7 3811 91
7 3812 59
7 3813 45
7 3814 86
7 3815 103
7 3816 127
7 3817 60
7 3818 44
7 3819 95
7 3820 236
7 3821 61
7 3822 106
7 3823 95
7 3824 106
7 3825 100
7 3826 74
7 3827 264
7 3828 45
7 3829 171
7 3830 93
7 3831 101
7 3832 56
7 3833 78
7 3834 43
7 3835 981
7 3836 128
7 3837 58
7 3838 98
7 3839 402
7 3840 666
7 3841 36
7 3842 61
7 3843 6718
7 3844 133
7 3845 104
7 3846 90
7 3847 110
7 3848 51
7 3849 294
7 3850 62
7 3851 111
7 3852 91
7 3853 56
7 3854 72
7 3855 74
7 3856 116
7 3857 110
7 3858 102
7 3859 51
7 3860 82
7 3861 86
7 3862 60
7 3863 47
7 3864 40
7 3865 44
7 3866 106
7 3867 50
7 3868 88
7 3869 77
7 3870 118
7 3871 148
7 3872 89
7 3873 99
7 3874 24
7 3875 62
7 3876 116
7 3877 87
7 3878 51
7 3879 59
7 3880 10
7 3881 79
7 3882 93
7 3883 41
7 3884 83
7 3885 1409
7 3887 86
7 3888 151
7 3889 112
7 3890 114
7 3891 88
7 3892 106
7 3893 82
7 3894 62
7 3895 44
7 3896 102
7 3897 119
7 3898 51
7 3899 160
7 3900 86
7 3901 43
7 3902 129
7 3903 90
7 3904 162
7 3905 365
7 3906 117
7 3907 93
7 3908 57
7 3909 53
7 3910 76
7 3911 64
7 3912 27
7 3913 62
7 3914 70
7 3915 103
7 3916 23
7 3917 111
7 3918 82
7 3919 43
7 3920 117
7 3921 46
7 3922 49
7 3923 77
7 3924 58
7 3925 28
7 3926 99
7 3927 76
7 3928 53
7 3929 59
7 3930 72
7 3931 99
7 3932 53
7 3933 60
7 3934 31
7 3935 176
7 3936 99
7 3937 34
7 3938 117
7 3939 47
7 3940 85
7 3941 660
7 3942 47
7 3943 68
7 3944 123
7 3945 60
7 3946 104
7 3947 51
7 3948 48
7 3949 92
7 3950 41
7 3951 93
7 3952 254
7 3953 110
7 3954 65
7 3955 42
7 3956 59
7 3957 91
7 3958 110
7 3959 58
7 3960 24
7 3961 801
7 3962 47
7 3963 250
7 3964 48
7 3965 60
7 3966 82
7 3967 103
7 3968 56
7 3969 65
7 3970 52
7 3971 50
7 3972 121
7 3973 42
7 3974 66
7 3975 44
7 3976 90
7 3977 131
7 3978 116
7 3979 550
7 3980 79
7 3981 60
7 3982 80
7 3983 68
7 3984 101
7 3985 57
7 3986 93
7 3987 46
7 3988 94
7 3989 182
7 3990 2457
7 3991 50
7 3992 87
7 3993 161
7 3994 59
7 3995 52
7 3996 82
7 3997 102
7 3998 48
7 3999 92
7 4000 61
7 4001 79
7 4002 111
7 4003 62
7 4004 71
7 4005 50
7 4006 101
7 4007 75
7 4008 70
7 4009 104
7 4010 65
7 4011 52
7 4012 56
7 4013 126
7 4014 153
7 4015 191
7 4016 105
7 4017 62
7 4018 134
7 4019 87
7 4020 1847
7 4021 41
7 4022 92
7 4023 59
7 4024 96
7 4025 53
7 4026 61
7 4027 59
7 4028 36
7 4029 287
7 4030 93
7 4031 63
7 4032 722
7 4033 74
7 4034 73
7 4035 17
7 4036 108
7 4037 35
7 4038 103
7 4039 103
7 4040 92
7 4041 81
7 4042 84
7 4043 71
7 4044 26
7 4045 64
7 4046 50
7 4047 70
7 4048 96
7 4049 122
7 4050 63
7 4051 64
7 4052 113
7 4053 88
7 4054 100
7 4055 89
7 4056 85
7 4057 998
7 4058 101
7 4059 46
7 4060 110
7 4061 53
7 4062 95
7 4063 125
7 4064 108
7 4065 118
7 4066 118
7 4067 76
7 4068 75
7 4069 98
7 4070 70
7 4071 80
7 4072 288
7 4073 73
7 4074 93
7 4075 64
7 4076 76
7 4077 73
7 4078 55
7 4079 135
7 4080 65
7 4081 60
7 4082 68
7 4083 103
7 4084 99
7 4085 38
7 4086 58
7 4087 1315
7 4088 99
7 4089 95
7 4090 165
7 4091 49
7 4092 100
7 4093 55
7 4094 65
7 4095 245
7 4096 117
7 4097 193
7 4098 545
7 4099 81
7 4100 66
7 4101 39
7 4102 189
7 4103 103
7 4104 56
7 4105 6
7 4106 70
7 4107 69
7 4108 112
7 4109 48
7 4110 92
7 4111 56
7 4112 74
7 4113 55
7 4114 44
7 4115 69
7 4116 58
7 4117 61
7 4118 95
7 4119 90
7 4120 52
7 4121 620
7 4122 310
7 4123 121
7 4124 38
7 4125 65
7 4126 93
7 4127 170
7 4128 62
7 4129 112
7 4130 91
7 4131 129
7 4132 84
7 4133 68
7 4134 64
7 4135 45
7 4136 139
7 4137 31
7 4138 49
7 4139 219
7 4140 69
7 4141 724
7 4142 72
7 4143 59
7 4144 38
7 4145 92
7 4146 97
7 4147 77
7 4148 104
7 4149 54
7 4150 112
7 4151 90
7 4152 120
7 4153 43
7 4154 66
7 4155 57
7 4156 34
7 4157 83
7 4158 44
7 4159 50
7 4160 94
7 4161 88
7 4162 41
7 4163 187
7 4164 134
7 4165 103
7 4166 325
7 4167 85
7 4168 95
7 4169 128
7 4170 23
7 4171 60
7 4172 54
7 4173 67
7 4174 104
7 4175 53
7 4176 434
7 4177 78
7 4178 92
7 4179 57
7 4180 47
7 4181 3857
7 4182 23
7 4183 44
7 4184 68
7 4185 421
7 4186 190
7 4187 89
7 4188 45
7 4189 93
7 4190 129
7 4191 66
7 4192 53
7 4193 88
7 4194 1764
7 4195 101
7 4196 47
7 4197 78
7 4198 152
7 4199 67
7 4200 116
7 4201 44
7 4202 54
7 4203 54
7 4204 100
7 4205 141
7 4206 99
7 4207 69
7 4208 52
7 4209 114
7 4210 109
7 4211 94
7 4212 123
7 4213 100
7 4214 95
7 4215 40
7 4216 64
7 4217 72
7 4218 66
7 4219 87
7 4220 257
7 4221 77
7 4222 93
7 4223 108
7 4224 145
7 4225 88
7 4226 225
7 4227 113
7 4228 270
7 4229 66
7 4230 70
7 4231 5071
7 4232 48
7 4233 92
7 4234 61
7 4235 104
7 4236 124
7 4237 72
7 4238 123
7 4239 176
7 4240 92
7 4241 41
7 4242 102
7 4243 42
7 4244 63
7 4245 78
7 4246 78
7 4247 96
7 4248 75
7 4249 101
7 4250 37
7 4251 97
7 4252 134
7 4253 119
7 4254 358
7 4255 87
7 4256 58
7 4257 912
7 4258 90
7 4259 85
7 4260 79
7 4261 68
7 4262 79
7 4263 52
7 4264 98
7 4265 25
7 4266 60
7 4267 76
7 4268 49
7 4269 79
7 4270 54
7 4271 100
7 4272 95
7 4273 788
7 4274 124
7 4275 14
7 4276 65
7 4277 363
7 4278 101
7 4279 88
7 4280 114
7 4281 95
7 4282 95
7 4283 84
7 4284 47
7 4285 93
7 4286 98
7 4287 92
7 4288 68
7 4289 94
7 4290 69
7 4291 196
7 4292 131
7 4293 37
7 4294 109
7 4295 107
7 4296 47
7 4297 104
7 4298 51
7 4299 486
7 4300 57
7 4301 124
7 4302 14
7 4303 55
7 4304 40
7 4305 162
7 4306 85
7 4307 142
7 4308 45
7 4309 63
7 4310 107
7 4311 36
7 4312 55
7 4313 436
7 4314 163
7 4315 72
7 4316 95
7 4317 56
7 4318 60
7 4319 52
7 4320 151
7 4321 98
7 4322 104
7 4323 2951
7 4324 103
7 4325 29
7 4326 123
7 4327 76
7 4328 63
7 4329 167
7 4330 52
7 4331 254
7 4332 75
7 4333 112
7 4334 32
7 4335 98
7 4336 41
7 4337 37
7 4338 130
7 4339 31
7 4340 70
7 4341 68
7 4342 92
7 4343 71
7 4344 46
7 4345 359
7 4346 821
7 4347 103
7 4348 123
7 4349 125
7 4350 71
7 4351 40
7 4352 56
7 4353 88
7 4354 1474
7 4355 95
7 4356 41
7 4357 103
7 4358 70
7 4359 45
7 4360 32
7 4361 95
7 4362 89
7 4363 70
7 4364 212
7 4365 95
7 4366 115
7 4367 144
7 4368 77
7 4369 62
7 4370 86
7 4371 59
7 4372 45
7 4373 149
7 4374 88
7 4375 95
7 4376 68
7 4377 109
7 4378 115
7 4379 107
7 4380 85
7 4381 779
7 4382 401
7 4383 96
7 4384 105
7 4385 131
7 4386 49
7 4387 86
7 4388 61
7 4389 98
7 4390 56
7 4391 88
7 4392 108
7 4393 39
7 4394 93
7 4395 57
7 4396 42
7 4397 45
7 4398 90
7 4399 146
7 4400 76
7 4401 117
7 4402 109
7 4403 125
7 4404 70
7 4405 160
7 4406 37
7 4407 55
7 4408 110
7 4409 84
7 4410 101
7 4411 704
7 4412 66
7 4413 914
7 4414 79
7 4415 43
7 4416 381
7 4417 230
7 4418 85
7 4419 108
7 4420 83
7 4421 208
7 4422 56
7 4423 75
7 4424 58
7 4425 47
7 4426 89
7 4427 151
7 4428 59
7 4429 76
7 4430 52
7 4431 95
7 4432 63
7 4433 92
7 4434 83
7 4435 63
7 4436 153
7 4437 114
7 4438 36
7 4439 99
7 4440 56
7 4441 56
7 4442 54
7 4443 70
7 4444 28
7 4445 84
7 4446 80
7 4447 186
7 4448 70
7 4449 112
7 4450 59
7 4451 93
7 4452 87
7 4453 84
7 4454 67
7 4455 99
7 4456 123
7 4457 52
7 4458 46
7 4459 88
7 4460 51
7 4461 98
7 4462 89
7 4463 59
7 4464 36
7 4465 54
7 4466 92
7 4467 64
7 4468 89
7 4469 48
7 4470 44
7 4471 90
7 4472 77
7 4473 73
7 4474 9
7 4475 91
7 4476 109
7 4477 67
7 4478 48
7 4479 114
7 4480 62
7 4481 101
7 4482 57
7 4483 127
7 4484 50
7 4485 114
7 4486 40
7 4487 630
7 4488 18
7 4489 60
7 4490 64
7 4491 25
7 4492 102
7 4493 61
7 4494 81
7 4495 431
7 4496 60
7 4497 544
7 4498 92
7 4499 109
7 4500 288
7 4501 80
7 4502 98
7 4503 112
7 4504 91
7 4505 99
7 4506 96
7 4507 96
7 4508 455
7 4509 37
7 4510 36
7 4511 104
7 4512 98
7 4513 102
7 4514 67
7 4515 80
7 4516 121
7 4517 58
7 4518 68
7 4519 151
7 4520 102
7 4521 179
7 4522 112
7 4523 88
7 4524 135
7 4525 43
7 4526 108
7 4527 54
7 4528 112
7 4529 39
7 4530 92
7 4531 66
7 4532 36
7 4533 67
7 4534 88
7 4535 51
7 4536 45
7 4537 57
7 4538 119
7 4539 97
7 4540 95
7 4541 88
7 4542 39
7 4543 96
7 4544 53
7 4545 59
7 4546 461
7 4547 87
7 4548 99
7 4549 92
7 4550 73
7 4551 27
7 4552 16
7 4553 80
7 4554 103
7 4555 142
7 4556 103
7 4557 57
7 4558 85
7 4559 81
7 4560 106
7 4561 79
7 4562 43
7 4563 39
7 4564 104
7 4565 571
7 4566 58
7 4567 38
7 4568 78
7 4569 56
7 4570 103
7 4571 117
7 4572 124
7 4573 106
7 4574 72
7 4575 71
7 4576 2064
7 4577 89
7 4578 56
7 4579 78
7 4580 50
7 4581 1613
7 4582 89
7 4583 526
7 4584 71
7 4585 989
7 4586 882
7 4587 83
7 4588 112
7 4589 61
7 4590 198
7 4591 50
7 4592 89
7 4593 121
7 4594 124
7 4595 97
7 4596 65
7 4597 953
7 4598 80
7 4599 99
7 4600 65
7 4601 5
7 4602 94
7 4603 85
7 4604 113
7 4605 32
7 4606 110
7 4607 32
7 4608 109
7 4609 116
7 4610 192
7 4611 193
7 4612 38
7 4613 108
7 4614 64
7 4615 89
7 4616 103
7 4617 86
7 4618 113
7 4619 98
7 4620 69
7 4621 80
7 4622 128
7 4623 76
7 4624 61
7 4625 244
7 4626 118
7 4627 130
7 4628 191
7 4629 61
7 4630 49
7 4631 37
7 4632 95
7 4633 211
7 4634 70
7 4635 102
7 4636 55
7 4637 105
7 4638 101
7 4639 54
7 4640 65
7 4641 114
7 4642 41
7 4643 92
7 4644 61
7 4645 54
7 4646 42
7 4647 93
7 4648 107
7 4649 62
7 4650 39
7 4651 116
7 4652 53
7 4653 54
7 4654 54
7 4655 750
7 4656 86
7 4657 48
7 4658 85
7 4659 269
7 4660 31
7 4661 68
7 4662 68
7 4663 76
7 4664 108
7 4665 99
7 4666 11
7 4667 72
7 4668 61
7 4669 87
7 4670 114
7 4671 99
7 4672 46
7 4673 79
7 4674 141
7 4675 82
7 4676 29
7 4677 69
7 4678 100
7 4679 112
7 4680 84
7 4681 96
7 4682 255
7 4683 63
7 4684 91
7 4685 103
7 4686 227
7 4687 85
7 4688 114
7 4689 104
7 4690 98
7 4691 7
7 4692 85
7 4693 48
7 4694 42
7 4695 89
7 4696 115
7 4697 57
7 4698 46
7 4699 41
7 4700 65
7 4701 1283
7 4702 88
7 4703 58
7 4704 54
7 4705 104
7 4706 116
7 4707 55
7 4708 74
7 4709 55
7 4710 84
7 4711 93
7 4712 97
7 4713 79
7 4714 202
7 4715 106
7 4716 62
7 4717 111
7 4718 51
7 4719 75
7 4720 90
7 4721 73
7 4722 85
7 4723 44
7 4724 54
7 4725 83
7 4726 95
7 4727 131
7 4728 108
7 4729 72
7 4730 135
7 4731 100
7 4732 38
7 4733 108
7 4734 56
7 4735 59
7 4736 60
7 4737 106
7 4738 123
7 4739 86
7 4740 76
7 4741 76
7 4742 96
7 4743 77
7 4744 117
7 4745 75
7 4746 50
7 4747 82
7 4748 266
7 4749 63
7 4750 49
7 4751 66
7 4752 59
7 4753 130
7 4754 42
7 4755 58
7 4756 47
7 4757 37
7 4758 148
7 4759 114
7 4760 54
7 4761 65
7 4762 118
7 4763 100
7 4764 48
7 4765 1132
7 4766 69
7 4767 57
7 4768 59
7 4769 46
7 4770 55
7 4771 109
7 4772 61
7 4773 721
7 4774 42
7 4775 59
7 4776 86
7 4777 64
7 4778 79
7 4779 55
7 4780 102
7 4781 217
7 4782 49
7 4783 532
7 4784 69
7 4785 56
7 4786 78
7 4787 45
7 4788 1227
7 4789 77
7 4790 92
7 4791 79
7 4792 93
7 4793 74
7 4794 51
7 4795 90
7 4796 50
7 4797 41
7 4798 83
7 4799 114
7 4800 62
7 4801 109
7 4802 144
7 4803 7
7 4804 49
7 4805 98
7 4806 113
7 4807 218
7 4808 48
7 4809 88
7 4810 90
7 4811 98
7 4812 95
7 4813 52
7 4814 17
7 4815 63
7 4816 74
7 4817 68
7 4818 127
7 4819 61
7 4820 838
7 4821 361
7 4822 49
7 4823 102
7 4824 78
7 4825 67
7 4826 1294
7 4827 109
7 4828 66
7 4829 187
7 4830 113
7 4831 81
7 4832 41
7 4833 64
7 4834 50
7 4835 30
7 4836 193
7 4837 43
7 4838 128
7 4839 83
7 4840 21
7 4841 87
7 4842 38
7 4843 113
7 4844 99
7 4845 65
7 4846 63
7 4847 95
7 4848 49
7 4849 16
7 4850 22
7 4851 75
7 4852 76
7 4853 98
7 4854 56
7 4855 15
7 4856 179
7 4857 95
7 4858 109
7 4859 94
7 4860 105
7 4861 110
7 4862 46
7 4863 78
7 4864 88
7 4865 77
7 4866 101
7 4867 44
7 4868 117
7 4869 91
7 4870 112
7 4871 262
7 4872 48
7 4873 103
7 4874 92
7 4875 95
7 4876 108
7 4877 155
7 4878 69
7 4879 52
7 4880 128
7 4881 51
7 4882 106
7 4883 35
7 4884 130
7 4885 55
7 4886 75
7 4887 130
7 4888 98
7 4889 101
7 4890 107
7 4891 58
7 4892 61
7 4893 77
7 4894 56
7 4895 73
7 4896 49
7 4897 120
7 4898 63
7 4899 91
7 4900 83
7 4901 58
7 4902 603
7 4903 62
7 4904 77
7 4905 45
7 4906 98
7 4907 98
7 4908 42
7 4909 103
7 4910 58
7 4911 61
7 4912 36
7 4913 83
7 4914 99
7 4915 60
7 4916 54
7 4917 105
7 4918 32
7 4919 143
7 4920 93
7 4921 232
7 4922 112
7 4923 50
7 4924 63
7 4925 104
7 4926 63
7 4927 10
7 4928 65
7 4929 65
7 4930 113
7 4931 96
7 4932 59
7 4933 102
7 4934 8
7 4935 74
7 4936 77
7 4937 58
7 4938 50
7 4939 51
7 4940 140
7 4941 72
7 4942 49
7 4943 85
7 4944 121
7 4945 142
7 4946 40
7 4947 121
7 4948 143
7 4949 30
7 4950 66
7 4951 110
7 4952 89
7 4953 101
7 4954 103
7 4955 45
7 4956 106
7 4957 207
7 4958 45
7 4959 58
7 4960 63
7 4961 72
7 4962 90
7 4963 57
7 4964 59
7 4965 45
7 4966 65
7 4967 53
7 4968 90
7 4969 58
7 4970 83
7 4971 50
7 4972 63
7 4973 38
7 4974 41
7 4975 103
7 4976 73
7 4977 46
7 4978 44
7 4979 125
7 4980 102
7 4981 97
7 4982 58
7 4983 50
7 4984 111
7 4985 106
7 4986 43
7 4987 78
7 4988 56
7 4989 48
7 4990 38
7 4991 56
7 4992 106
7 4993 25
7 4994 1029
7 4995 93
7 4996 38
7 4997 508
7 4998 88
7 4999 112
7 5000 161
7 5001 108
7 5002 39
7 5003 85
7 5004 80
7 5005 4
7 5006 39
7 5007 624
7 5008 12
7 5009 26
7 5010 54
7 5011 66
7 5012 103
7 5013 70
7 5014 72
7 5015 128
7 5016 48
7 5017 53
7 5018 61
7 5019 61
7 5020 96
7 5021 70
7 5022 88
7 5023 62
7 5024 66
7 5025 64
7 5026 94
7 5027 4
7 5028 55
7 5029 118
7 5030 32
7 5031 50
7 5032 80
7 5033 41
7 5034 91
7 5035 105
7 5036 46
7 5037 73
7 5038 109
7 5039 79
7 5040 57
7 5041 79
7 5042 95
7 5043 47
7 5044 47
7 5045 96
7 5046 624
7 5047 51
7 5048 77
7 5049 55
7 5050 44
7 5051 76
7 5052 42
7 5053 59
7 5054 1061
7 5055 256
7 5056 49
7 5057 68
7 5058 141
7 5059 44
7 5060 25
7 5061 12
7 5062 102
7 5063 58
7 5064 96
7 5065 110
7 5066 78
7 5067 148
7 5068 35
7 5069 80
7 5070 8
7 5071 46
7 5072 117
7 5073 64
7 5074 59
7 5075 38
7 5076 43
7 5077 58
7 5078 69
7 5079 52
7 5080 72
7 5081 93
7 5082 12
7 5083 19
7 5084 97
7 5085 120
7 5086 88
7 5087 46
7 5088 65
7 5089 103
7 5090 174
7 5091 186
7 5092 103
7 5093 57
7 5094 37
7 5095 91
7 5096 52
7 5097 57
7 5098 77
7 5099 55
7 5100 70
7 5101 66
7 5102 81
7 5103 112
7 5104 61
7 5105 60
7 5106 43
7 5107 101
7 5108 79
7 5109 120
7 5110 106
7 5111 101
7 5112 115
7 5113 210
7 5114 47
7 5115 48
7 5116 257
7 5117 85
7 5118 56
7 5119 125
7 5120 34
7 5121 83
7 5122 49
7 5123 99
7 5124 97
7 5125 121
7 5126 50
7 5127 67
7 5128 416
7 5129 1085
7 5130 144
7 5131 51
7 5132 83
7 5133 69
7 5134 48
7 5135 77
7 5136 68
7 5137 53
7 5138 31
7 5139 69
7 5140 62
7 5141 83
7 5142 36
7 5143 47
7 5144 655
7 5145 94
7 5146 84
7 5147 114
7 5148 56
7 5149 130
7 5150 81
7 5151 52
7 5152 69
7 5153 51
7 5154 117
7 5155 178
7 5156 502
7 5157 75
7 5158 66
7 5159 118
7 5160 79
7 5161 71
7 5162 117
7 5163 1978
7 5164 33
7 5165 72
7 5166 61
7 5167 56
7 5168 65
7 5169 55
7 5170 65
7 5171 74
7 5172 85
7 5173 32
7 5174 66
7 5175 92
7 5176 65
7 5177 66
7 5178 139
7 5180 49
7 5181 95
7 5182 76
7 5183 48
7 5184 91
7 5185 45
7 5186 55
7 5187 67
7 5188 34
7 5189 8
7 5190 12
7 5191 70
7 5192 61
7 5193 46
7 5194 62
7 5195 104
7 5196 42
7 5197 67
7 5198 490
7 5199 55
7 5200 37
7 5201 101
7 5202 72
7 5203 92
7 5204 79
7 5205 89
7 5206 66
7 5207 102
7 5208 38
7 5209 10
7 5210 43
7 5211 41
7 5212 66
7 5213 59
7 5214 96
7 5215 58
7 5216 91
7 5217 54
7 5218 135
7 5219 18
7 5220 58
7 5221 115
7 5222 14
7 5223 3
7 5224 67
7 5225 104
7 5226 193
7 5227 27
7 5228 91
7 5229 60
7 5230 64
7 5231 69
7 5232 75
7 5233 46
7 5234 94
7 5235 80
7 5236 307
7 5237 62
7 5238 70
7 5239 121
7 5240 44
7 5241 73
7 5242 51
7 5243 66
7 5244 125
7 5245 88
7 5246 110
7 5247 63
7 5248 55
7 5249 49
7 5250 86
7 5251 27
7 5252 46
7 5253 92
7 5254 93
7 5255 49
7 5256 211
7 5257 68
7 5258 63
7 5259 48
7 5260 51
7 5261 8
7 5262 98
7 5263 30
7 5264 42
7 5265 68
7 5266 100
7 5267 13
7 5268 62
7 5269 65
7 5270 107
7 5271 46
7 5272 116
7 5273 77
7 5274 62
7 5275 111
7 5276 105
7 5277 85
7 5278 57
7 5279 237
7 5280 56
7 5281 109
7 5282 99
7 5283 99
7 5284 51
7 5285 102
7 5286 56
7 5287 53
7 5288 312
7 5289 46
7 5290 229
7 5291 202
7 5292 489
7 5293 109
7 5294 54
7 5295 155
7 5296 90
7 5297 699
7 5298 74
7 5299 59
7 5300 87
7 5301 36
7 5302 11
7 5303 341
7 5304 55
7 5305 36
7 5306 100
7 5307 62
7 5308 100
7 5309 63
7 5310 59
7 5311 172
7 5312 57
7 5313 93
7 5314 77
7 5315 61
7 5316 96
7 5317 18
7 5318 100
7 5319 211
7 5320 39
7 5321 57
7 5322 63
7 5323 64
7 5324 17
7 5325 293
7 5326 68
7 5327 49
7 5328 70
7 5329 87
7 5330 41
7 5331 58
7 5332 50
7 5333 115
7 5334 62
7 5335 131
7 5336 53
7 5337 105
7 5338 173
7 5339 128
7 5340 25
7 5341 62
7 5342 54
7 5343 98
7 5344 73
7 5345 44
7 5346 106
7 5347 61
7 5348 92
7 5349 66
7 5350 42
7 5351 57
7 5352 633
7 5353 70
7 5354 80
7 5355 59
7 5356 49
7 5357 92
7 5358 99
7 5359 84
7 5360 43
7 5361 48
7 5362 51
7 5363 72
7 5364 47
7 5365 88
7 5366 69
7 5367 70
7 5368 104
7 5369 61
7 5370 37
7 5371 97
7 5372 37
7 5373 43
7 5374 95
7 5375 105
7 5376 1239
7 5377 48
7 5378 99
7 5379 105
7 5380 190
7 5381 96
7 5382 19
7 5383 221
7 5384 193
7 5385 107
7 5386 72
7 5387 22
7 5388 81
7 5389 107
7 5390 131
7 5391 113
7 5392 62
7 5393 62
7 5394 108
7 5395 64
7 5396 95
7 5397 37
7 5398 61
7 5399 180
7 5400 292
7 5401 247
7 5402 89
7 5403 52
7 5404 76
7 5405 112
7 5406 49
7 5407 105
7 5408 75
7 5409 60
7 5410 58
7 5411 44
7 5412 59
7 5413 44
7 5414 76
7 5415 25
7 5416 50
7 5417 238
7 5418 86
7 5419 3
7 5420 96
7 5421 62
7 5422 54
7 5423 146
7 5424 17
7 5425 69
7 5426 53
7 5427 90
7 5428 71
7 5429 22
7 5430 111
7 5431 57
7 5432 91
7 5433 42
7 5434 68
7 5435 84
7 5436 56
7 5437 97
7 5438 49
7 5439 56
7 5440 63
7 5441 70
7 5442 59
7 5443 96
7 5444 67
7 5445 50
7 5446 64
7 5447 63
7 5448 104
7 5449 55
7 5450 49
7 5451 99
7 5452 81
7 5453 60
7 5454 10
7 5455 105
7 5456 60
7 5457 92
7 5458 63
7 5459 64
7 5460 437
7 5461 170
7 5462 266
7 5463 50
7 5464 59
7 5465 95
7 5466 97
7 5467 36
7 5468 63
7 5469 63
7 5470 79
7 5471 48
7 5472 256
7 5473 54
7 5474 64
7 5475 57
7 5476 76
7 5477 91
7 5478 146
7 5479 74
7 5480 29
7 5481 59
7 5482 50
7 5483 81
7 5484 68
7 5485 78
7 5486 59
7 5487 53
7 5488 103
7 5489 48
7 5490 104
7 5491 203
7 5492 40
7 5493 91
7 5494 73
7 5495 74
7 5496 81
7 5497 106
7 5498 41
7 5499 113
7 5500 53
7 5501 40
7 5502 75
7 5503 41
7 5504 41
7 5505 35
7 5506 487
7 5507 241
7 5508 62
7 5509 117
7 5510 35
7 5511 41
7 5512 58
7 5513 89
7 5514 48
7 5515 74
7 5516 22
7 5517 72
7 5518 38
7 5519 112
7 5520 78
7 5521 42
7 5522 67
7 5523 86
7 5524 37
7 5525 73
7 5526 41
7 5527 74
7 5528 67
7 5529 96
7 5530 86
7 5531 59
7 5532 52
7 5533 80
7 5534 49
7 5535 50
7 5536 190
7 5537 55
7 5538 60
7 5539 40
7 5540 84
7 5541 136
7 5542 112
7 5543 60
7 5544 115
7 5545 38
7 5546 27
7 5547 56
7 5548 33
7 5549 42
7 5550 107
7 5551 5
7 5552 47
7 5553 47
7 5554 605
7 5555 54
7 5556 8
7 5557 114
7 5558 54
7 5559 59
7 5560 49
7 5561 69
7 5562 74
7 5563 62
7 5564 55
7 5565 65
7 5566 6
7 5567 69
7 5568 53
7 5569 36
7 5570 54
7 5571 43
7 5572 144
7 5573 29
7 5574 95
7 5575 54
7 5576 58
7 5577 57
7 5578 102
7 5579 70
7 5580 102
7 5581 50
7 5582 51
7 5583 681
7 5584 54
7 5585 90
7 5586 52
7 5587 41
7 5588 50
7 5589 253
7 5590 215
7 5591 77
7 5592 64
7 5593 30
7 5594 192
7 5595 101
7 5596 383
7 5597 66
7 5598 43
7 5599 54
7 5600 48
7 5601 94
7 5602 44
7 5603 53
7 5604 66
7 5605 59
7 5606 58
7 5607 21
7 5608 25
7 5609 43
7 5610 46
7 5611 50
7 5612 177
7 5613 101
7 5614 59
7 5615 115
7 5616 6
7 5617 78
7 5618 20
7 5619 44
7 5620 42
7 5621 121
7 5622 48
7 5623 57
7 5624 52
7 5625 43
7 5626 54
7 5627 69
7 5628 84
7 5629 103
7 5630 91
7 5631 70
7 5632 178
7 5633 66
7 5634 90
7 5635 58
7 5636 56
7 5637 48
7 5638 89
7 5639 97
7 5640 20
7 5641 42
7 5642 102
7 5643 49
7 5644 53
7 5645 71
7 5646 72
7 5647 82
7 5648 36
7 5649 62
7 5650 60
7 5651 89
7 5652 47
7 5653 22
7 5654 8
7 5655 23
7 5656 45
7 5657 51
7 5658 29
7 5659 54
7 5660 17
7 5661 46
7 5662 34
7 5663 69
7 5664 42
7 5665 174
7 5666 14
7 5667 9
7 5668 158
7 5669 6
7 5670 23
7 5671 29
7 5672 9
7 5673 47
7 5674 43
7 5675 46
7 5676 53
7 5677 75
7 5678 18
7 5679 98
7 5680 58
7 5681 53
7 5682 26
7 5683 59
7 5684 46
7 5685 7
7 5686 16
7 5687 44
7 5688 83
7 5689 153
7 5690 39
7 5691 23
7 5692 68
7 5693 18
7 5694 6
7 5695 12
7 5696 47
7 5697 46
7 5698 39
7 5699 35
7 5700 2
7 5701 94
7 5702 42
7 5703 1
7 5704 14
7 5705 14
7 5706 2
7 5707 9
7 5709 8
7 5710 9
7 5711 9
7 5712 1
7 5713 4
7 5714 19
7 5715 11
7 5716 3
8 1 124
8 2 219
8 3 127
8 4 118
8 5 69
8 6 47
8 7 63
8 8 84
8 9 48
8 10 59
8 11 83
8 12 15979
8 13 106
8 14 12000
8 15 30
8 16 23
8 17 24992
8 18 78
8 19 35
8 20 70
8 21 57
8 22 91
8 23 69
8 24 53
8 25 81
8 26 61
8 27 33
8 28 61
8 29 56
8 30 28
8 31 59
8 32 29
8 33 107
8 34 93
8 35 10233
8 36 15310
8 37 18797
8 38 73
8 39 6204
8 40 65
8 41 58
8 42 234
8 43 60
8 44 63
8 45 7
8 46 131
8 47 59
8 48 47
8 49 33279
8 50 8755
8 51 42
8 52 69
8 53 37
8 54 42
8 55 218
8 56 128
8 57 70
8 58 102
8 59 85
8 60 85
8 61 69
8 62 77
8 63 90
8 64 60
8 65 31098
8 66 79
8 67 34
8 68 68
8 69 57
8 70 93
8 71 264
8 72 55
8 73 47
8 74 132
8 75 80
8 76 74
8 77 104
8 78 19243
8 79 171
8 80 65
8 81 135
8 82 42
8 83 58
8 84 2813
8 85 160
8 86 66
8 87 62
8 88 80
8 89 133
8 90 77
8 91 18693
8 92 38
8 93 73
8 94 44
8 95 46
8 96 37
8 97 49408
8 98 69
8 99 55
8 100 42
8 101 97
8 102 26
8 103 45
8 104 38
8 105 118
8 106 21
8 107 83
8 108 83
8 109 56
8 110 42
8 111 35
8 112 33
8 113 52
8 114 41
8 115 79
8 116 28
8 117 28
8 118 413
8 119 81
8 120 151
8 121 59
8 122 68
8 123 35
8 124 26729
8 125 109310
8 126 2248
8 127 38
8 128 71
8 129 73
8 130 86
8 131 44
8 132 42
8 133 92
8 134 15
8 135 173
8 136 50
8 137 67
8 138 80
8 139 111
8 140 8457
8 141 97
8 142 47
8 143 120
8 144 103
8 145 38
8 146 56
8 147 97
8 148 48
8 149 25741
8 150 47
8 151 37
8 152 87
8 153 94
8 154 86
8 155 65
8 156 97
8 157 24
8 158 85
8 159 159
8 160 74
8 161 87
8 162 49
8 163 62
8 164 61
8 165 107
8 166 100
8 167 95
8 168 36
8 169 49
8 170 86
8 171 81
8 172 73396
8 173 71
8 174 95
8 175 31819
8 176 104
8 177 24
8 178 58
8 179 23
8 180 90
8 181 29
8 182 33313
8 183 77
8 184 41
8 185 58
8 186 38
8 187 16316
8 188 90
8 189 69
8 190 89
8 191 98
8 192 49
8 193 49
8 194 87
8 195 47
8 196 34
8 197 74
8 198 53
8 199 32
8 200 90
8 201 59
8 202 80
8 203 68
8 204 68
8 205 113
8 206 41
8 207 109
8 208 528
8 209 54
8 210 53
8 211 103
8 212 41
8 213 98
8 214 37
8 215 213
8 216 91
8 217 79
8 218 38
8 219 93
8 220 33
8 221 41
8 222 16682
8 223 81
8 224 35
8 225 67
8 226 52
8 227 57
8 228 50
8 229 60
8 230 32
8 231 33
8 232 103
8 233 54
8 234 55
8 235 19
8 236 51
8 237 50
8 238 46
8 239 100
8 240 34458
8 241 34
8 242 56
8 243 144
8 244 70
8 245 45
8 246 57
8 247 61
8 248 83
8 249 76
8 250 119
8 251 26
8 252 30
8 253 44
8 254 31
8 255 39
8 256 61
8 257 108
8 258 31
8 259 52243
8 260 55
8 261 27
8 262 41405
8 263 35
8 264 105
8 265 158
8 266 20
8 267 19
8 268 91
8 269 138
8 270 46
8 271 82
8 272 62
8 273 42
8 274 63
8 275 30
8 276 129
8 277 93
8 278 58
8 279 75
8 280 43
8 281 117
8 282 33
8 283 58
8 284 66
8 285 60
8 286 44
8 287 92
8 288 15975
8 289 2267
8 290 48
8 291 75
8 292 73
8 293 39223
8 294 59
8 295 70
8 296 23785
8 297 130
8 298 68
8 299 56
8 300 68
8 301 84
8 302 29
8 303 69
8 304 81
8 305 3334
8 306 68
8 307 94
8 308 50
8 309 28
8 310 70
8 311 65
8 312 14
8 313 52
8 314 40
8 315 81
8 316 58
8 317 59
8 318 52
8 319 61
8 320 44
8 321 73
8 322 45
8 323 48
8 324 75
8 325 59955
8 326 121
8 327 93
8 328 73
8 329 57
8 330 151
8 331 85
8 332 19
8 333 96
8 334 13
8 335 95
8 336 30
8 337 136
8 338 38
8 339 17692
8 340 60
8 341 44
8 342 48
8 343 246
8 344 23
8 345 61
8 346 29
8 347 31
8 348 41
8 349 79
8 350 43
8 351 48
8 352 89
8 353 58
8 354 77
8 355 30
8 356 62
8 357 41
8 358 3786
8 359 90
8 360 60
8 361 67
8 362 132
8 363 75
8 364 792
8 365 28623
8 366 28
8 367 58
8 368 38
8 369 39
8 370 31
8 371 43
8 372 22
8 373 95
8 374 60
8 375 39
8 376 95
8 377 98
8 378 88
8 379 96
8 380 41
8 381 2885
8 382 97
8 383 64
8 384 56
8 385 2277
8 386 16178
8 387 63
8 388 58
8 389 62
8 390 34
8 391 4768
8 392 58
8 393 83
8 394 87
8 395 68
8 396 59777
8 397 25
8 398 52
8 399 53
8 400 48
8 401 5858
8 402 32
8 403 121
8 404 67
8 405 20476
8 406 47
8 407 53
8 408 75
8 409 72
8 410 36
8 411 37
8 412 66
8 413 14361
8 414 17531
8 415 93
8 416 27
8 417 15378
8 418 40
8 419 15354
8 420 32
8 421 15
8 422 43
8 423 49
8 424 51
8 425 51
8 426 85
8 427 49
8 428 91
8 429 82
8 430 84
8 431 47
8 432 78
8 433 6103
8 434 47
8 435 80
8 436 61
8 437 27
8 438 22
8 439 30
8 440 26789
8 441 33
8 442 95
8 443 58
8 444 35
8 445 45
8 446 76
8 447 30670
8 448 72
8 449 72
8 450 43
8 451 44
8 452 85
8 453 55
8 454 62
8 455 1965
8 456 11412
8 457 16892
8 458 54
8 459 39
8 460 76
8 461 80
8 462 55
8 463 63
8 464 39
8 465 46
8 466 49
8 467 46
8 468 49
8 469 51
8 470 58
8 471 51
8 472 42
8 473 18472
8 474 44
8 475 37
8 476 43
8 477 40
8 478 61
8 479 35
8 480 19093
8 481 41
8 482 90
8 483 59
8 484 52
8 485 79
8 486 76
8 487 72
8 488 29
8 489 75
8 490 49
8 491 71
8 492 51
8 493 38
8 494 33
8 495 29
8 496 49
8 497 2289
8 498 1221
8 499 53
8 500 83
8 501 83
8 502 38
8 503 19530
8 504 34
8 505 1032
8 506 79
8 507 45
8 508 49904
8 509 37
8 510 62
8 511 35
8 512 39
8 513 98
8 514 63
8 515 99
8 516 57
8 517 98
8 518 66
8 519 48
8 520 93
8 521 26
8 522 108
8 523 25
8 524 24089
8 525 96
8 526 70
8 527 73
8 528 11174
8 529 72
8 530 38
8 531 271
8 532 27
8 533 64
8 534 88
8 535 88
8 536 29
8 537 89
8 538 36
8 539 40
8 540 36
8 541 57
8 542 40
8 543 86
8 544 76
8 545 445
8 546 52
8 547 48
8 548 55
8 549 41
8 550 31
8 551 57
8 552 43561
8 553 94
8 554 53
8 555 39
8 556 43
8 557 32
8 558 93
8 559 43
8 560 60
8 561 24
8 562 49
8 563 104
8 564 35
8 565 57
8 566 65
8 567 64
8 568 33
8 569 69
8 570 87
8 571 56
8 572 46
8 573 93
8 574 58
8 575 16904
8 576 58
8 577 71
8 578 94
8 579 67
8 580 64
8 581 69
8 582 26
8 583 73
8 584 21984
8 585 65
8 586 23
8 587 5890
8 588 25
8 589 55
8 590 55
8 591 56
8 592 43
8 593 50
8 594 34
8 595 56
8 596 61
8 597 76
8 598 45
8 599 70161
8 600 7963
8 601 26
8 602 59
8 603 74
8 604 48
8 605 52
8 606 101
8 607 28
8 608 1447
8 609 46
8 610 83
8 611 40861
8 612 103
8 613 27
8 614 52
8 615 40487
8 616 25
8 617 65
8 618 51
8 619 65
8 620 12692
8 621 41
8 622 55
8 623 54
8 624 46
8 625 90
8 626 21238
8 627 58134
8 628 75
8 629 87
8 630 22050
8 631 50
8 632 101
8 633 69
8 634 49
8 635 54835
8 636 65
8 637 42
8 638 33
8 639 22
8 640 37
8 641 63
8 642 66
8 643 75
8 644 73
8 645 93
8 646 45
8 647 76
8 648 35
8 649 32
8 650 65
8 651 57
8 652 119
8 653 47
8 654 62
8 655 42
8 656 21
8 657 38
8 658 78
8 659 131
8 660 8
8 661 47
8 662 45
8 663 73
8 664 27
8 665 22
8 666 62
8 667 70
8 668 121
8 669 35
8 670 38
8 671 62
8 672 104
8 673 48
8 674 29
8 675 29
8 676 35
8 677 46
8 678 43
8 679 67
8 680 73
8 681 42
8 682 52
8 683 75
8 684 89
8 685 80
8 686 32
8 687 69
8 688 106
8 689 57
8 690 16
8 691 46
8 692 42
8 693 64
8 694 8003
8 695 63
8 696 48
8 697 63
8 698 32
8 699 78
8 700 77
8 701 56
8 702 28
8 703 71
8 704 49
8 705 38
8 706 25
8 707 50
8 708 64
8 709 66
8 710 32
8 711 112
8 712 64
8 713 61
8 714 113
8 715 65
8 716 64
8 717 35
8 718 32
8 719 75
8 720 51
8 721 49
8 722 73
8 723 17741
8 724 90
8 725 52
8 726 62
8 727 68
8 728 66
8 729 127
8 730 23
8 731 72
8 732 29
8 733 64
8 734 12447
8 735 40777
8 736 28
8 737 65
8 738 25
8 739 65
8 740 78
8 741 121
8 742 28
8 743 34
8 744 81
8 745 72
8 746 123
8 747 71
8 748 78
8 749 14
8 750 65
8 751 56
8 752 32
8 753 46
8 754 78
8 755 35
8 756 75
8 757 246
8 758 98
8 759 52
8 760 262
8 761 14
8 762 60
8 763 40
8 764 92
8 765 14
8 766 66
8 767 10486
8 768 100
8 769 29882
8 770 60
8 771 43
8 772 37
8 773 56
8 774 80
8 775 71
8 776 65
8 777 53
8 778 47
8 779 99
8 780 47
8 781 36
8 782 111
8 783 178
8 784 80
8 785 4856
8 786 66
8 787 58
8 788 73
8 789 70
8 790 43
8 791 72
8 792 73
8 793 51
8 794 73
8 795 93
8 796 53
8 797 41
8 798 62
8 799 52
8 800 31
8 801 4260
8 802 45
8 803 41
8 804 56
8 805 31
8 806 542
8 807 4167
8 808 66
8 809 53
8 810 70
8 811 45
8 812 40
8 813 44
8 814 23
8 815 30
8 816 54
8 817 74
8 818 73
8 819 98
8 820 42358
8 821 93
8 822 22
8 823 38
8 824 84
8 825 27
8 826 90
8 827 20
8 828 86
8 829 28435
8 830 65
8 831 89
8 832 25
8 833 35
8 834 70
8 835 44
8 836 61
8 837 50
8 838 43
8 839 80
8 840 30
8 841 84
8 842 32
8 843 68
8 844 68
8 845 31
8 846 40
8 847 139
8 848 25842
8 849 79
8 850 90
8 851 52
8 852 53
8 853 21
8 854 11905
8 855 75
8 856 86
8 857 3773
8 858 45
8 859 68
8 860 69
8 861 47
8 862 28
8 863 56
8 864 56
8 865 44
8 866 42
8 867 27
8 868 31
8 869 55
8 870 86
8 871 51
8 872 54
8 873 17
8 874 53
8 875 46
8 876 48
8 877 22378
8 878 75
8 879 17889
8 880 69
8 881 36
8 882 9524
8 883 27
8 884 68
8 885 59
8 886 95
8 887 51
8 888 83
8 889 47
8 890 43
8 891 28
8 892 47
8 893 9497
8 894 56
8 895 45
8 896 3574
8 897 49
8 898 57
8 899 2402
8 900 71
8 901 53
8 902 73
8 903 94
8 904 47
8 905 60
8 906 89
8 907 84
8 908 117
8 909 43
8 910 108
8 911 62
8 912 85
8 913 31
8 914 106
8 915 63
8 916 73
8 917 51
8 918 45
8 919 61
8 920 70
8 921 99
8 922 49
8 923 75
8 924 105
8 925 36
8 926 42
8 927 43
8 928 54
8 929 39
8 930 149
8 931 57
8 932 40
8 933 47
8 934 2104
8 935 30851
8 936 19411
8 937 60
8 938 58
8 939 32
8 940 62
8 941 57
8 942 112
8 943 32
8 944 148
8 945 31
8 946 49
8 947 60
8 948 82
8 949 16
8 950 44
8 951 72
8 952 31
8 953 11213
8 954 52
8 955 150
8 956 51
8 957 35
8 958 32
8 959 618
8 960 32
8 961 46
8 962 2480
8 963 14199
8 964 46
8 965 58
8 966 53961
8 967 49
8 968 65
8 969 27
8 970 72
8 971 61
8 972 58
8 973 70
8 974 83
8 975 103
8 976 30
8 977 17
8 978 7785
8 979 31
8 980 73
8 981 94
8 982 18
8 983 50
8 984 24
8 985 67
8 986 61
8 987 46
8 988 7410
8 989 118
8 990 19
8 991 63
8 992 67
8 993 31
8 994 103
8 995 54
8 996 72
8 997 117
8 998 41
8 999 49
8 1000 57
8 1001 140
8 1002 90
8 1003 69
8 1004 37
8 1005 20
8 1006 29
8 1007 154
8 1008 56
8 1009 46
8 1010 53
8 1011 46
8 1012 74
8 1013 64
8 1014 80
8 1015 56
8 1016 28
8 1017 46
8 1018 14
8 1019 70
8 1020 41
8 1021 37
8 1022 80
8 1023 20165
8 1024 68
8 1025 42
8 1026 84
8 1027 43
8 1028 68
8 1029 61
8 1030 106
8 1031 57
8 1032 2294
8 1033 58
8 1034 137
8 1035 55
8 1036 45
8 1037 77
8 1038 94
8 1039 74
8 1040 22
8 1041 111
8 1042 20361
8 1043 16538
8 1044 95
8 1045 43
8 1046 50
8 1047 60
8 1048 44
8 1049 46
8 1050 72
8 1051 61
8 1052 68
8 1053 47
8 1054 230
8 1055 27
8 1056 34
8 1057 86
8 1058 42
8 1059 66
8 1060 30
8 1061 74
8 1062 53
8 1063 37
8 1064 27
8 1065 38
8 1066 57
8 1067 72
8 1068 56
8 1069 105
8 1070 38
8 1071 32
8 1072 20
8 1073 19
8 1074 40
8 1075 73
8 1076 90
8 1077 187
8 1078 57
8 1079 44
8 1080 55
8 1081 52
8 1082 46
8 1083 5416
8 1084 11982
8 1085 76
8 1086 45
8 1087 107
8 1088 36
8 1089 56
8 1090 61
8 1091 75
8 1092 38
8 1093 76
8 1094 41
8 1095 27
8 1096 45
8 1097 51
8 1098 21
8 1099 83
8 1100 32
8 1101 82
8 1102 61
8 1103 46
8 1104 70
8 1105 59
8 1106 62
8 1107 58
8 1108 32
8 1109 45
8 1110 44
8 1111 31
8 1112 47
8 1113 936
8 1114 81
8 1115 67
8 1116 63
8 1117 63
8 1118 56
8 1119 44
8 1120 35
8 1121 43
8 1122 26
8 1123 144
8 1124 57
8 1125 36
8 1126 20
8 1127 57
8 1128 57
8 1129 62
8 1130 76
8 1131 100
8 1132 29
8 1133 80
8 1134 67
8 1135 81
8 1136 76
8 1137 34
8 1138 90
8 1139 165
8 1140 52
8 1141 40
8 1142 46
8 1143 190
8 1144 48
8 1145 67
8 1146 12871
8 1147 75
8 1148 30
8 1149 47
8 1150 94
8 1151 73
8 1152 56
8 1153 8220
8 1154 52
8 1155 164
8 1156 50
8 1157 6659
8 1158 14791
8 1159 37
8 1160 120
8 1161 76
8 1162 29
8 1163 50
8 1164 63
8 1165 108
8 1166 7534
8 1167 22
8 1168 53
8 1169 52
8 1170 50
8 1171 80
8 1172 38
8 1173 58
8 1174 41
8 1175 56
8 1176 26
8 1177 21343
8 1178 56
8 1179 65
8 1180 16680
8 1181 46
8 1182 44
8 1183 32
8 1184 60
8 1185 26
8 1186 57
8 1187 36
8 1188 26
8 1189 36
8 1190 4608
8 1191 48
8 1192 37
8 1193 40
8 1194 1336
8 1195 83
8 1196 54
8 1197 46
8 1198 44
8 1199 45
8 1200 55
8 1201 30
8 1202 59
8 1203 60
8 1204 31
8 1205 54
8 1206 44
8 1207 43
8 1208 7083
8 1209 174
8 1210 35
8 1211 71
8 1212 93
8 1213 32
8 1214 44
8 1215 55
8 1216 58
8 1217 60
8 1218 45
8 1219 43
8 1220 80
8 1221 6216
8 1222 66
8 1223 27
8 1224 67
8 1225 34
8 1226 37
8 1227 49
8 1228 17769
8 1229 33
8 1230 45
8 1231 70
8 1232 64
8 1233 45
8 1234 59
8 1235 54
8 1236 54
8 1237 25
8 1238 132
8 1239 103
8 1240 46
8 1241 68
8 1242 53
8 1243 53
8 1244 72
8 1245 29
8 1246 77
8 1247 38
8 1248 19
8 1249 44
8 1250 46
8 1251 75
8 1252 32
8 1253 5900
8 1254 76
8 1255 52
8 1256 44
8 1257 41
8 1258 53
8 1259 58
8 1260 75
8 1261 53
8 1262 70
8 1263 72
8 1264 8593
8 1265 32
8 1266 34
8 1267 44
8 1268 49
8 1269 63
8 1270 61
8 1271 1460
8 1272 43
8 1273 44
8 1274 92
8 1275 46
8 1276 52
8 1277 49
8 1278 40
8 1279 57
8 1280 81
8 1281 3123
8 1282 55
8 1283 11434
8 1284 52
8 1285 54
8 1286 112
8 1287 41
8 1288 55
8 1289 108
8 1290 68
8 1291 1459
8 1292 30
8 1293 57
8 1294 14
8 1295 35
8 1296 22
8 1297 31
8 1298 17585
8 1299 93
8 1300 106
8 1301 58
8 1302 15035
8 1303 24
8 1304 40
8 1305 57
8 1306 78
8 1307 59
8 1308 50
8 1309 76
8 1310 87
8 1311 48
8 1312 55
8 1313 38
8 1314 39
8 1315 28
8 1316 36
8 1317 95
8 1318 43
8 1319 34
8 1320 125
8 1321 31
8 1322 62
8 1323 51
8 1324 72
8 1325 68
8 1326 102
8 1327 54
8 1328 52
8 1329 28
8 1330 34
8 1331 77
8 1332 4436
8 1333 76
8 1334 3900
8 1335 85
8 1336 59
8 1337 61
8 1338 62
8 1339 27
8 1340 50
8 1341 67
8 1342 66
8 1343 119
8 1344 71
8 1345 29
8 1346 65
8 1347 77
8 1348 13
8 1349 39
8 1350 38
8 1351 57
8 1352 30
8 1353 51
8 1354 36
8 1355 11121
8 1356 55
8 1357 59
8 1358 90
8 1359 67
8 1360 27
8 1361 35
8 1362 67
8 1363 52
8 1364 30
8 1365 68
8 1366 498
8 1367 69
8 1368 284
8 1369 48
8 1370 65
8 1371 71
8 1372 34
8 1373 25
8 1374 73
8 1375 61
8 1376 36
8 1377 56
8 1378 44
8 1379 60
8 1380 48
8 1381 82
8 1382 18301
8 1383 76
8 1384 42
8 1385 7374
8 1386 49
8 1387 72
8 1388 49
8 1389 50
8 1390 26
8 1391 33
8 1392 12342
8 1393 30
8 1394 52
8 1395 77
8 1396 69
8 1397 34
8 1398 22
8 1399 23
8 1400 74
8 1401 75
8 1402 26
8 1403 48
8 1404 48
8 1405 39
8 1406 43
8 1407 66
8 1408 55
8 1409 43
8 1410 64
8 1411 67
8 1412 21
8 1413 58
8 1414 5324
8 1415 47
8 1416 57
8 1417 62
8 1418 35
8 1419 79
8 1420 49
8 1421 43
8 1422 75
8 1423 29
8 1424 50
8 1425 77
8 1426 51
8 1427 438
8 1428 20
8 1429 56
8 1430 45
8 1431 74
8 1432 47
8 1433 43
8 1434 168
8 1435 46
8 1436 60
8 1437 32
8 1438 58
8 1439 34
8 1440 66
8 1441 46
8 1442 83
8 1443 19
8 1444 11494
8 1445 133
8 1446 69
8 1447 81
8 1448 29
8 1449 59
8 1450 35
8 1451 40
8 1452 46
8 1453 71
8 1454 50
8 1455 23
8 1456 51
8 1457 83
8 1458 3950
8 1459 42
8 1460 29
8 1461 23
8 1462 73
8 1463 54
8 1464 61
8 1465 139
8 1466 6197
8 1467 61
8 1468 40979
8 1469 4
8 1470 72
8 1471 44
8 1472 11715
8 1473 28
8 1474 35
8 1475 78
8 1476 55
8 1477 4966
8 1478 44
8 1479 93
8 1480 59
8 1481 35
8 1482 74
8 1483 40
8 1484 62
8 1485 74
8 1486 77
8 1487 47
8 1488 66
8 1489 52
8 1490 69
8 1491 48
8 1492 47
8 1493 44
8 1494 84
8 1495 54
8 1496 53
8 1497 61
8 1498 103
8 1499 58
8 1500 28
8 1501 77
8 1502 27
8 1503 66
8 1504 87
8 1505 64
8 1506 37
8 1507 17
8 1508 71
8 1509 28
8 1510 34
8 1511 61
8 1512 58
8 1513 56
8 1514 44
8 1515 64
8 1516 54
8 1517 34
8 1518 64
8 1519 67
8 1520 65
8 1521 37
8 1522 74
8 1523 39
8 1524 90
8 1525 27598
8 1526 49
8 1527 45
8 1528 39
8 1529 72
8 1530 76
8 1531 31
8 1532 55
8 1533 61
8 1534 75
8 1535 69
8 1536 36
8 1537 20
8 1538 39
8 1539 12
8 1540 86
8 1541 62
8 1542 70
8 1543 58
8 1544 45
8 1545 56
8 1546 72
8 1547 53
8 1548 25
8 1549 36
8 1550 50
8 1551 76
8 1552 32
8 1553 21
8 1554 25
8 1555 34
8 1556 33
8 1557 58
8 1558 110
8 1559 38
8 1560 1790
8 1561 35
8 1562 32
8 1563 28
8 1564 37
8 1565 57
8 1566 54
8 1567 41
8 1568 45
8 1569 50
8 1570 64
8 1571 75
8 1572 58
8 1573 73
8 1574 38
8 1575 77
8 1576 50
8 1577 62
8 1578 78
8 1579 55
8 1580 30
8 1581 36
8 1582 48
8 1583 9904
8 1584 45
8 1585 61
8 1586 37
8 1587 79
8 1588 69
8 1589 160
8 1590 33
8 1591 12165
8 1592 59
8 1593 75
8 1594 51
8 1595 35
8 1596 36
8 1597 34
8 1598 9
8 1599 65
8 1600 55
8 1601 20
8 1602 20504
8 1603 63
8 1604 43
8 1605 36
8 1606 64
8 1607 20
8 1608 67
8 1609 63
8 1610 27
8 1611 57
8 1612 78
8 1613 52
8 1614 62
8 1615 26
8 1616 54
8 1617 52
8 1618 45
8 1619 39
8 1620 67
8 1621 55
8 1622 85
8 1623 48
8 1624 64
8 1625 44
8 1626 95
8 1627 90
8 1628 93
8 1629 111
8 1630 58
8 1631 11811
8 1632 46
8 1633 37
8 1634 36
8 1635 41
8 1636 68
8 1637 37
8 1638 58
8 1639 53
8 1640 30297
8 1641 24
8 1642 28
8 1643 1637
8 1644 1959
8 1645 32
8 1646 117
8 1647 43
8 1648 30
8 1649 6279
8 1650 43
8 1651 26
8 1652 57
8 1653 66
8 1654 49
8 1655 111
8 1656 51
8 1657 29
8 1658 5869
8 1659 138
8 1660 60
8 1661 61
8 1662 57
8 1663 61
8 1664 70
8 1665 67
8 1666 61
8 1667 57
8 1668 83
8 1669 25
8 1670 24
8 1671 81
8 1672 88
8 1673 29
8 1674 72
8 1675 48
8 1676 70
8 1677 20
8 1678 24
8 1679 65
8 1680 3602
8 1681 40
8 1682 47
8 1683 20
8 1684 32
8 1685 60
8 1686 65
8 1687 48
8 1688 50
8 1689 10479
8 1690 9737
8 1691 26
8 1692 59
8 1693 49
8 1694 21
8 1695 68
8 1696 23
8 1697 68
8 1698 53
8 1699 30
8 1700 59
8 1701 44
8 1702 56
8 1703 15
8 1704 45
8 1705 23
8 1706 85
8 1707 33
8 1708 46
8 1709 54
8 1710 40
8 1711 15
8 1712 81
8 1713 46
8 1714 35
8 1715 32
8 1716 47
8 1717 18295
8 1718 37
8 1719 39
8 1720 66
8 1721 64
8 1722 45
8 1723 18
8 1724 76
8 1725 47
8 1726 31
8 1727 34
8 1728 70
8 1729 36
8 1730 52
8 1731 23
8 1732 53
8 1733 42
8 1734 39
8 1735 128
8 1736 35
8 1737 46
8 1738 80
8 1739 44
8 1740 25855
8 1741 44
8 1742 39
8 1743 32
8 1744 25
8 1745 36
8 1746 39
8 1747 28
8 1748 25
8 1749 66
8 1750 56
8 1751 18
8 1752 98
8 1753 246
8 1754 122
8 1755 45
8 1756 52
8 1757 64
8 1758 50
8 1759 34
8 1760 4577
8 1761 100
8 1762 43
8 1763 125
8 1764 34
8 1765 27
8 1766 23
8 1767 14
8 1768 62
8 1769 43
8 1770 76
8 1771 9026
8 1772 44
8 1773 21
8 1774 30
8 1775 46
8 1776 48
8 1777 47
8 1778 88
8 1779 84
8 1780 2484
8 1781 46
8 1782 768
8 1783 64
8 1784 1553
8 1785 30
8 1786 67
8 1787 52
8 1788 30
8 1789 10614
8 1790 87
8 1791 36
8 1792 47
8 1793 42
8 1794 180
8 1795 37
8 1796 18
8 1797 22
8 1798 32
8 1799 31
8 1800 48
8 1801 46
8 1802 33
8 1803 50
8 1804 67
8 1805 26
8 1806 51
8 1807 28
8 1808 2299
8 1809 45
8 1810 45
8 1811 41
8 1812 35
8 1813 26
8 1814 50
8 1815 86
8 1816 50
8 1817 1274
8 1818 33
8 1819 7862
8 1820 76
8 1821 68
8 1822 28
8 1823 83
8 1824 40
8 1825 71
8 1826 24
8 1827 161
8 1828 33
8 1829 86
8 1830 106
8 1831 77
8 1832 28
8 1833 45
8 1834 34
8 1835 39
8 1836 33
8 1837 114
8 1838 40
8 1839 48
8 1840 51
8 1841 59
8 1842 50
8 1843 69
8 1844 84
8 1845 20828
8 1846 36
8 1847 54
8 1848 39
8 1849 22
8 1850 42
8 1851 45
8 1852 36
8 1853 46
8 1854 84
8 1855 35
8 1856 68
8 1857 57
8 1858 42
8 1859 74
8 1860 74
8 1861 41
8 1862 32
8 1863 41
8 1864 38
8 1865 36
8 1866 7427
8 1867 90
8 1868 31
8 1869 80
8 1870 36
8 1871 59
8 1872 63
8 1873 24
8 1874 48
8 1875 74
8 1876 24
8 1877 82
8 1878 18
8 1879 25
8 1880 36
8 1881 71
8 1882 25
8 1883 50
8 1884 3453
8 1885 54
8 1886 46
8 1887 35
8 1888 35
8 1889 659
8 1890 41
8 1891 70
8 1892 54
8 1893 58
8 1894 15
8 1895 32
8 1896 38
8 1897 63
8 1898 31
8 1899 11377
8 1900 86
8 1901 83
8 1902 70
8 1903 48
8 1904 45
8 1905 21
8 1906 55
8 1907 39
8 1908 64
8 1909 3839
8 1910 56
8 1911 44
8 1912 33
8 1913 43
8 1914 41
8 1915 28
8 1916 26
8 1917 55
8 1918 31
8 1919 22
8 1920 49
8 1921 38
8 1922 33
8 1923 19
8 1924 41
8 1925 57
8 1926 36
8 1927 6261
8 1928 60
8 1929 35
8 1930 57
8 1931 48
8 1932 59
8 1933 56
8 1934 52
8 1935 56
8 1936 46
8 1937 87
8 1938 55
8 1939 56
8 1940 56
8 1941 63
8 1942 72
8 1943 25
8 1944 54
8 1945 96
8 1946 59
8 1947 108
8 1948 42
8 1949 94
8 1950 27
8 1951 53
8 1952 67
8 1953 48
8 1954 68
8 1955 53
8 1956 63
8 1957 33
8 1958 42
8 1959 39
8 1960 56
8 1961 39
8 1962 32
8 1963 32
8 1964 7984
8 1965 99
8 1966 32
8 1967 41
8 1968 60
8 1969 41
8 1970 46
8 1971 55
8 1972 46
8 1973 28
8 1974 7225
8 1975 52
8 1976 22
8 1977 48
8 1978 70
8 1979 40
8 1980 28
8 1981 68
8 1982 57
8 1983 45
8 1984 45
8 1985 113
8 1986 36
8 1987 35
8 1988 64
8 1989 31
8 1990 35
8 1991 71
8 1992 91
8 1993 77
8 1994 76
8 1995 54
8 1996 45
8 1997 48
8 1998 34
8 1999 63
8 2000 44
8 2001 68
8 2002 100
8 2003 50
8 2004 22
8 2005 69
8 2006 139
8 2007 29
8 2008 35
8 2009 38
8 2010 21
8 2011 50
8 2012 36
8 2013 28
8 2014 2222
8 2015 49
8 2016 31
8 2017 62
8 2018 23
8 2019 61
8 2020 34
8 2021 33
8 2022 42
8 2023 56
8 2024 14
8 2025 63
8 2026 79
8 2027 80
8 2028 28
8 2029 67
8 2030 60
8 2031 28
8 2032 45
8 2033 30
8 2034 14
8 2035 63
8 2036 55
8 2037 23
8 2038 2380
8 2039 60
8 2040 77
8 2041 32
8 2042 56
8 2043 52
8 2044 52
8 2045 46
8 2046 46
8 2047 61
8 2048 30
8 2049 64
8 2050 40
8 2051 50
8 2052 39
8 2053 60
8 2054 45
8 2055 17
8 2056 56
8 2057 83
8 2058 43
8 2059 22
8 2060 67
8 2061 1676
8 2062 34
8 2063 92
8 2064 22
8 2065 46
8 2066 40
8 2067 59
8 2068 67
8 2069 38
8 2070 52
8 2071 51
8 2072 30
8 2073 51
8 2074 374
8 2075 38
8 2076 31
8 2077 81
8 2078 65
8 2079 24
8 2080 52
8 2081 34
8 2082 41
8 2083 19
8 2084 58
8 2085 15
8 2086 67
8 2087 61
8 2088 43
8 2089 35
8 2090 47
8 2091 31
8 2092 25
8 2093 66
8 2094 61
8 2095 3
8 2096 54
8 2097 76
8 2098 57
8 2099 35
8 2100 78
8 2101 12
8 2102 54
8 2103 59
8 2104 20
8 2105 27
8 2106 62
8 2107 66
8 2108 46
8 2109 176
8 2110 175
8 2111 38
8 2112 67
8 2113 45
8 2114 32
8 2115 1852
8 2116 63
8 2117 23
8 2118 132
8 2119 90
8 2120 66
8 2121 40
8 2122 25
8 2123 6483
8 2124 81
8 2125 19
8 2126 58
8 2127 64
8 2128 23
8 2129 76
8 2130 53
8 2131 53
8 2132 57
8 2133 74
8 2134 34
8 2135 60
8 2136 38
8 2137 4813
8 2138 50
8 2139 59
8 2140 76
8 2141 18144
8 2142 6437
8 2143 6569
8 2144 100
8 2145 71
8 2146 36
8 2147 896
8 2148 64
8 2149 77
8 2150 58
8 2151 40
8 2152 53
8 2153 68
8 2154 28
8 2155 906
8 2156 71
8 2157 72
8 2158 2000
8 2159 106
8 2160 26
8 2161 7
8 2162 41
8 2163 47
8 2164 36
8 2165 40
8 2166 68
8 2167 101
8 2168 18
8 2169 117
8 2170 27
8 2171 64
8 2172 157
8 2173 73
8 2174 50
8 2175 463
8 2176 13937
8 2177 64
8 2178 34
8 2179 44
8 2180 45
8 2181 71
8 2182 14
8 2183 15958
8 2184 32
8 2185 358
8 2186 77
8 2187 52
8 2188 46
8 2189 71
8 2190 69
8 2191 396
8 2192 21
8 2193 75
8 2194 65
8 2195 73
8 2196 4532
8 2197 32
8 2198 29
8 2199 44
8 2200 80
8 2201 43
8 2202 39
8 2203 24
8 2204 39
8 2205 77
8 2206 59
8 2207 44
8 2208 19
8 2209 23
8 2210 50
8 2211 54
8 2212 54
8 2213 16
8 2214 38
8 2215 49
8 2216 51
8 2217 41
8 2218 45
8 2219 64
8 2220 81
8 2221 44
8 2222 53
8 2223 35
8 2224 31
8 2225 25
8 2226 46
8 2227 47
8 2228 50
8 2229 29
8 2230 84
8 2231 64
8 2232 49
8 2233 48
8 2234 62
8 2235 43
8 2236 54
8 2237 59
8 2238 39
8 2239 55
8 2240 48
8 2241 15
8 2242 38
8 2243 44
8 2244 95
8 2245 37
8 2246 38
8 2247 36
8 2248 82
8 2249 70
8 2250 45
8 2251 25
8 2252 77
8 2253 72
8 2254 36
8 2255 57
8 2256 63
8 2257 25
8 2258 22
8 2259 34
8 2260 31
8 2261 28
8 2262 47
8 2263 92
8 2264 30
8 2265 38
8 2266 341
8 2267 84
8 2268 57
8 2269 69
8 2270 16
8 2271 67
8 2272 72
8 2273 67
8 2274 18
8 2275 636
8 2276 31
8 2277 28
8 2278 38
8 2279 49
8 2280 57
8 2281 34
8 2282 84
8 2283 47
8 2284 6701
8 2285 42
8 2286 37
8 2287 68
8 2288 24
8 2289 126
8 2290 49
8 2291 37
8 2292 25
8 2293 41
8 2294 19
8 2295 69
8 2296 58
8 2297 88
8 2298 47
8 2299 50
8 2300 51
8 2301 29
8 2302 51
8 2303 29
8 2304 31
8 2305 55
8 2306 34
8 2307 50
8 2308 42
8 2309 13525
8 2310 114
8 2311 76
8 2312 93
8 2313 28
8 2314 29
8 2315 76
8 2316 44
8 2317 69
8 2318 78
8 2319 120
8 2320 70
8 2321 64
8 2322 97
8 2323 1330
8 2324 90
8 2325 54
8 2326 52
8 2327 53
8 2328 49
8 2329 75
8 2330 17
8 2331 61
8 2332 74
8 2333 37
8 2334 89
8 2335 1449
8 2336 39
8 2337 24
8 2338 36
8 2339 51
8 2340 36
8 2341 7345
8 2342 46
8 2343 28
8 2344 49
8 2345 44
8 2346 64
8 2347 32
8 2348 182
8 2349 73
8 2350 4715
8 2351 718
8 2352 68
8 2353 24
8 2354 45
8 2355 52
8 2356 57
8 2357 46
8 2358 48
8 2359 53
8 2360 40
8 2361 27
8 2362 50
8 2363 48
8 2364 17
8 2365 80
8 2366 39
8 2367 30
8 2368 34
8 2369 39
8 2370 43
8 2371 57
8 2372 67
8 2373 161
8 2374 74
8 2375 62
8 2376 49
8 2377 49
8 2378 2736
8 2379 82
8 2380 54
8 2381 88
8 2382 48
8 2383 22
8 2384 25
8 2385 74
8 2386 53
8 2387 3642
8 2388 42
8 2389 17
8 2390 58
8 2391 40
8 2392 33
8 2393 45
8 2394 58
8 2395 41
8 2396 66
8 2397 44
8 2398 83
8 2399 105
8 2400 72
8 2401 71
8 2402 63
8 2403 32
8 2404 28
8 2405 22
8 2406 1415
8 2407 52
8 2408 36
8 2409 25
8 2410 44
8 2411 59
8 2412 17
8 2413 50
8 2414 30
8 2415 48
8 2416 37
8 2417 13
8 2418 7
8 2419 45
8 2420 64
8 2421 62
8 2422 54
8 2423 40
8 2424 133
8 2425 100
8 2426 48
8 2427 61
8 2428 48
8 2429 42
8 2430 24
8 2431 63
8 2432 31
8 2433 63
8 2434 30
8 2435 42
8 2436 38
8 2437 35
8 2438 91
8 2439 27
8 2440 87
8 2441 42
8 2442 51
8 2443 56
8 2444 38
8 2445 96
8 2446 70
8 2447 34
8 2448 2867
8 2449 48
8 2450 111
8 2451 53
8 2452 30
8 2453 24
8 2454 46
8 2455 108
8 2456 38
8 2457 26
8 2458 1004
8 2459 39
8 2460 46
8 2461 30
8 2462 38
8 2463 27
8 2464 105
8 2465 71
8 2466 41
8 2467 97
8 2468 60
8 2469 24
8 2470 60
8 2471 43
8 2472 23
8 2473 46
8 2474 30
8 2475 56
8 2476 36
8 2477 57
8 2478 32
8 2479 58
8 2480 61
8 2481 797
8 2482 50
8 2483 52
8 2484 96
8 2485 42
8 2486 25
8 2487 55
8 2488 46
8 2489 64
8 2490 27
8 2491 24
8 2492 25
8 2493 25
8 2494 62
8 2495 159
8 2496 27
8 2497 110
8 2498 4160
8 2499 67
8 2500 25
8 2501 92
8 2502 65
8 2503 10
8 2504 59
8 2505 93
8 2506 39
8 2507 35
8 2508 61
8 2509 51
8 2510 68
8 2511 20
8 2512 29
8 2513 51
8 2514 71
8 2515 40
8 2516 37
8 2517 18
8 2518 55
8 2519 82
8 2520 16
8 2521 62
8 2522 4973
8 2523 1076
8 2524 156
8 2525 24
8 2526 12
8 2527 21
8 2528 31
8 2529 41
8 2530 30
8 2531 7771
8 2532 52
8 2533 34
8 2534 24
8 2535 73
8 2536 65
8 2537 42
8 2538 18
8 2539 39
8 2540 47
8 2541 51
8 2542 44
8 2543 27
8 2544 75
8 2545 26
8 2546 43
8 2547 62
8 2548 1867
8 2549 42
8 2550 39
8 2551 46
8 2552 48
8 2553 52
8 2554 48
8 2555 20
8 2556 188
8 2557 34
8 2558 43
8 2559 16
8 2560 3491
8 2561 21
8 2562 35
8 2563 61
8 2564 36
8 2565 31
8 2566 34
8 2567 139
8 2568 31
8 2569 54
8 2570 64
8 2571 3962
8 2572 34
8 2573 42
8 2574 31
8 2575 50
8 2576 24
8 2577 54
8 2578 29
8 2579 58
8 2580 50
8 2581 47
8 2582 58
8 2583 86
8 2584 33
8 2585 23
8 2586 75
8 2587 43
8 2588 73
8 2589 66
8 2590 98
8 2591 21
8 2592 36
8 2593 40
8 2594 39
8 2595 33
8 2596 64
8 2597 84
8 2598 35
8 2599 69
8 2600 50
8 2601 60
8 2602 86
8 2603 22
8 2604 39
8 2605 30
8 2606 245
8 2607 21
8 2608 19
8 2609 24
8 2610 24
8 2611 58
8 2612 36
8 2613 42
8 2614 57
8 2615 59
8 2616 55
8 2617 20
8 2618 25
8 2619 44
8 2620 49
8 2621 23
8 2622 45
8 2623 16
8 2624 71
8 2625 87
8 2626 38
8 2627 56
8 2628 36
8 2629 40
8 2630 54
8 2631 28
8 2632 7116
8 2633 90
8 2634 47
8 2635 65
8 2636 34
8 2637 3832
8 2638 96
8 2639 25
8 2640 27
8 2641 98
8 2642 39
8 2643 148
8 2644 61
8 2645 55
8 2646 36
8 2647 29
8 2648 21
8 2649 39
8 2650 27
8 2651 52
8 2652 46
8 2653 36
8 2654 28
8 2655 79
8 2656 45
8 2657 37
8 2658 57
8 2659 39
8 2660 10069
8 2661 41
8 2662 68
8 2663 43
8 2664 45
8 2665 7
8 2666 39
8 2667 53
8 2668 5
8 2669 37
8 2670 45
8 2671 72
8 2672 56
8 2673 22
8 2674 51
8 2675 45
8 2676 66
8 2677 34
8 2678 49
8 2679 36
8 2680 30
8 2681 60
8 2682 80
8 2683 59
8 2684 117
8 2685 113
8 2686 971
8 2687 219
8 2688 23
8 2689 18
8 2690 71
8 2691 55
8 2692 55
8 2693 29
8 2694 32
8 2695 15
8 2696 79
8 2697 46
8 2698 41
8 2699 67
8 2700 56
8 2701 20
8 2702 56
8 2703 33
8 2704 57
8 2705 51
8 2706 29
8 2707 73
8 2708 26
8 2709 46
8 2710 42
8 2711 77
8 2712 28
8 2713 81
8 2714 68
8 2715 119
8 2716 46
8 2717 60
8 2718 25
8 2719 90
8 2720 39
8 2721 41
8 2722 10239
8 2723 34
8 2724 72
8 2725 25
8 2726 59
8 2727 44
8 2728 70
8 2729 35
8 2730 48
8 2731 41
8 2732 1270
8 2733 51
8 2734 58
8 2735 62
8 2736 42
8 2737 44
8 2738 26
8 2739 39
8 2740 45
8 2741 62
8 2742 62
8 2743 1384
8 2744 49
8 2745 48
8 2746 48
8 2747 32
8 2748 41
8 2749 22
8 2750 32
8 2751 85
8 2752 26
8 2753 77
8 2754 149
8 2755 22
8 2756 21
8 2757 91
8 2758 25
8 2759 65
8 2760 42
8 2761 44
8 2762 56
8 2763 20
8 2764 46
8 2765 58
8 2766 71
8 2767 70
8 2768 59
8 2769 41
8 2770 24
8 2771 3803
8 2772 31
8 2773 392
8 2774 33
8 2775 22
8 2776 60
8 2777 48
8 2778 46
8 2779 23
8 2780 88
8 2781 32
8 2782 216
8 2783 52
8 2784 64
8 2785 52
8 2786 32
8 2787 42
8 2788 41
8 2789 39
8 2790 12
8 2791 76
8 2792 13
8 2793 64
8 2794 68
8 2795 42
8 2796 83
8 2797 51
8 2798 102
8 2799 59
8 2800 52
8 2801 70
8 2802 48
8 2803 35
8 2804 7
8 2805 25
8 2806 52
8 2807 25
8 2808 48
8 2809 46
8 2810 53
8 2811 84
8 2812 70
8 2813 43
8 2814 69
8 2815 62
8 2816 35
8 2817 14
8 2818 1705
8 2819 51
8 2820 21
8 2821 58
8 2822 56
8 2823 56
8 2824 773
8 2825 41
8 2826 26
8 2827 31
8 2828 75
8 2829 57
8 2830 35
8 2831 32
8 2832 42
8 2833 38
8 2834 2761
8 2835 5406
8 2836 35
8 2837 55
8 2838 38
8 2839 3844
8 2840 29
8 2841 64
8 2842 53
8 2843 22
8 2844 32
8 2845 48
8 2846 38
8 2847 17
8 2848 36
8 2849 46
8 2850 52
8 2851 44
8 2852 32
8 2853 103
8 2854 38
8 2855 66
8 2856 57
8 2857 24
8 2858 44
8 2859 16
8 2860 49
8 2861 61
8 2862 21
8 2863 46
8 2864 60
8 2865 34
8 2866 45
8 2867 53
8 2868 70
8 2869 2100
8 2870 56
8 2871 44
8 2872 6024
8 2873 15
8 2874 85
8 2875 33
8 2876 41
8 2877 2461
8 2878 39
8 2879 151
8 2880 344
8 2881 44
8 2882 49
8 2883 71
8 2884 71
8 2885 32
8 2886 56
8 2887 67
8 2888 297
8 2889 26
8 2890 56
8 2891 31
8 2892 43
8 2893 28
8 2894 74
8 2895 580
8 2896 186
8 2897 52
8 2898 55
8 2899 1684
8 2900 40
8 2901 11112
8 2902 46
8 2903 75
8 2904 44
8 2905 32
8 2906 46
8 2907 117
8 2908 89
8 2909 46
8 2910 35
8 2911 49
8 2912 49
8 2913 35
8 2914 65
8 2915 38
8 2916 30
8 2917 55
8 2918 104
8 2919 34
8 2920 60
8 2921 137
8 2922 1773
8 2923 25
8 2924 45
8 2925 44
8 2926 49
8 2927 34
8 2928 49
8 2929 53
8 2930 34
8 2931 40
8 2932 23
8 2933 64
8 2934 32
8 2935 6284
8 2936 63
8 2937 26
8 2938 34
8 2939 35
8 2940 27
8 2941 72
8 2942 55
8 2943 22
8 2944 29
8 2945 23
8 2946 47
8 2947 78
8 2948 58
8 2949 35
8 2950 55
8 2951 53
8 2952 27
8 2953 33
8 2954 41
8 2955 46
8 2956 13
8 2957 27
8 2958 54
8 2959 26
8 2960 54
8 2961 67
8 2962 41
8 2963 31
8 2964 25
8 2965 21
8 2966 1547
8 2967 22
8 2968 30
8 2969 39
8 2970 41
8 2971 30
8 2972 31
8 2973 25
8 2974 48
8 2975 30
8 2976 26
8 2977 19
8 2978 58
8 2979 66
8 2980 28
8 2981 51
8 2982 65
8 2983 20
8 2984 42
8 2985 36
8 2986 25
8 2987 3309
8 2988 23
8 2989 2347
8 2990 62
8 2991 1648
8 2992 54
8 2993 30
8 2994 52
8 2995 31
8 2996 211
8 2997 33
8 2998 68
8 2999 43
8 3000 69
8 3001 39
8 3002 54
8 3003 38
8 3004 58
8 3005 34
8 3006 35
8 3007 39
8 3008 1498
8 3009 21
8 3010 79
8 3011 9
8 3012 92
8 3013 63
8 3014 38
8 3015 54
8 3016 33
8 3017 34
8 3018 27
8 3019 45
8 3020 38
8 3021 57
8 3022 42
8 3023 26
8 3024 54
8 3025 44
8 3026 151
8 3027 71
8 3028 24
8 3029 15
8 3030 376
8 3031 47
8 3032 50
8 3033 54
8 3034 27
8 3035 48
8 3036 41
8 3037 57
8 3038 43
8 3039 34
8 3040 17
8 3041 31
8 3042 61
8 3043 56
8 3044 31
8 3045 48
8 3046 29
8 3047 50
8 3048 40
8 3049 36
8 3050 45
8 3051 148
8 3052 57
8 3053 36
8 3054 35
8 3055 42
8 3056 69
8 3057 30
8 3058 66
8 3059 28
8 3060 42
8 3061 41
8 3062 65
8 3063 98
8 3064 45
8 3065 67
8 3066 24
8 3067 65
8 3068 18
8 3069 28
8 3070 47
8 3071 70
8 3072 57
8 3073 19
8 3074 38
8 3075 19
8 3076 53
8 3077 36
8 3078 48
8 3079 38
8 3080 51
8 3081 57
8 3082 34
8 3083 50
8 3084 47
8 3085 18
8 3086 32
8 3087 25
8 3088 14
8 3089 35
8 3090 49
8 3091 46
8 3092 57
8 3093 46
8 3094 48
8 3095 17
8 3096 43
8 3097 56
8 3098 37
8 3099 33
8 3100 61
8 3101 38
8 3102 92
8 3103 1044
8 3104 47
8 3105 56
8 3106 49
8 3107 31
8 3108 35
8 3109 55
8 3110 8606
8 3111 60
8 3112 61
8 3113 59
8 3114 41
8 3115 38
8 3116 48
8 3117 104
8 3118 39
8 3119 60
8 3120 88
8 3121 14
8 3122 71
8 3123 32
8 3124 63
8 3125 94
8 3126 29
8 3127 97
8 3128 35
8 3129 42
8 3130 41
8 3131 65
8 3132 69
8 3133 70
8 3134 51
8 3135 32
8 3136 92
8 3137 63
8 3138 12
8 3139 23
8 3140 50
8 3141 55
8 3142 83
8 3143 86
8 3144 56
8 3145 39
8 3146 55
8 3147 28
8 3148 18
8 3149 76
8 3150 57
8 3151 18
8 3152 54
8 3153 39
8 3154 33
8 3155 71
8 3156 8
8 3157 111
8 3158 53
8 3159 49
8 3160 29
8 3161 38
8 3162 23
8 3163 58
8 3164 75
8 3165 22
8 3166 49
8 3167 37
8 3168 33
8 3169 62
8 3170 34
8 3171 23
8 3172 28
8 3173 53
8 3174 51
8 3175 29
8 3176 39
8 3177 5046
8 3178 28
8 3179 40
8 3180 22
8 3181 28
8 3182 82
8 3183 21
8 3184 59
8 3185 35
8 3186 22
8 3187 37
8 3188 45
8 3189 54
8 3190 36
8 3191 44
8 3192 41
8 3193 46
8 3194 41
8 3195 41
8 3196 49
8 3197 79
8 3198 82
8 3199 27
8 3200 123
8 3201 69
8 3202 56
8 3203 12
8 3204 20
8 3205 27
8 3206 59
8 3207 58
8 3208 81
8 3209 33
8 3210 3757
8 3211 66
8 3212 35
8 3213 54
8 3214 27
8 3215 34
8 3216 41
8 3217 42
8 3218 39
8 3219 50
8 3220 44
8 3221 52
8 3222 78
8 3223 54
8 3224 35
8 3225 34
8 3226 18
8 3227 51
8 3228 245
8 3229 20
8 3230 27
8 3231 42
8 3232 38
8 3233 43
8 3234 35
8 3235 46
8 3236 23
8 3237 25
8 3238 6
8 3239 39
8 3240 20
8 3241 37
8 3242 55
8 3243 41
8 3244 61
8 3245 34
8 3246 67
8 3247 43
8 3248 26
8 3249 24
8 3250 60
8 3251 60
8 3252 41
8 3253 170
8 3254 35
8 3255 47
8 3256 30
8 3257 32
8 3258 50
8 3259 31
8 3260 26
8 3261 34
8 3262 28
8 3263 50
8 3264 40
8 3265 40
8 3266 69
8 3267 68
8 3268 26
8 3269 5077
8 3270 37
8 3271 30
8 3272 31
8 3273 37
8 3274 34
8 3275 35
8 3276 55
8 3277 27
8 3278 48
8 3279 41
8 3280 37
8 3281 78
8 3282 42
8 3283 37
8 3284 71
8 3285 11
8 3286 25
8 3287 90
8 3288 50
8 3289 16
8 3290 90
8 3291 25
8 3292 66
8 3293 32
8 3294 71
8 3295 55
8 3296 60
8 3297 47
8 3298 60
8 3299 44
8 3300 91
8 3301 33
8 3302 75
8 3303 44
8 3304 74
8 3305 45
8 3306 45
8 3307 2980
8 3308 46
8 3309 34
8 3310 29
8 3311 34
8 3312 200
8 3313 36
8 3314 1512
8 3315 40
8 3316 51
8 3317 37
8 3318 71
8 3319 41
8 3320 107
8 3321 34
8 3322 129
8 3323 49
8 3324 46
8 3325 68
8 3326 31
8 3327 14
8 3328 28
8 3329 35
8 3330 42
8 3331 113
8 3332 44
8 3333 50
8 3334 19
8 3335 43
8 3336 67
8 3337 28
8 3338 25
8 3339 55
8 3340 37
8 3341 36
8 3342 38
8 3343 33
8 3344 1030
8 3345 36
8 3346 36
8 3347 85
8 3348 47
8 3349 46
8 3350 49
8 3351 42
8 3352 22
8 3353 55
8 3354 24
8 3355 59
8 3356 37
8 3357 32
8 3358 30
8 3359 28
8 3360 42
8 3361 65
8 3362 53
8 3363 24
8 3364 29
8 3365 52
8 3366 34
8 3367 29
8 3368 34
8 3369 3
8 3370 40
8 3371 19
8 3372 59
8 3373 52
8 3374 24
8 3375 33
8 3376 56
8 3377 48
8 3378 28
8 3379 27
8 3380 44
8 3381 26
8 3382 32
8 3383 48
8 3384 39
8 3385 61
8 3386 92
8 3387 50
8 3388 48
8 3389 16
8 3390 83
8 3391 65
8 3392 120
8 3393 11
8 3394 35
8 3395 26
8 3396 39
8 3397 32
8 3398 3877
8 3399 26
8 3400 83
8 3401 52
8 3402 42
8 3403 51
8 3404 24
8 3405 70
8 3406 42
8 3407 73
8 3408 27
8 3409 30
8 3410 23
8 3411 10
8 3412 80
8 3413 24
8 3414 63
8 3415 54
8 3416 37
8 3417 22
8 3418 59
8 3419 12
8 3420 38
8 3421 41
8 3422 123
8 3423 15
8 3424 12
8 3425 144
8 3426 39
8 3427 14
8 3428 29
8 3429 42
8 3430 46
8 3431 33
8 3432 26
8 3433 85
8 3434 20
8 3435 40
8 3436 111
8 3437 2013
8 3438 31
8 3439 75
8 3440 29
8 3441 95
8 3442 41
8 3443 54
8 3444 29
8 3445 35
8 3446 49
8 3447 53
8 3448 14
8 3449 28
8 3450 50
8 3451 31
8 3452 1
8 3453 77
8 3454 84
8 3455 25
8 3456 58
8 3457 42
8 3458 143
8 3459 21
8 3460 66
8 3461 46
8 3462 29
8 3463 18
8 3464 18
8 3465 28
8 3466 40
8 3467 58
8 3468 23
8 3469 47
8 3470 23
8 3471 41
8 3472 21
8 3473 36
8 3474 45
8 3475 32
8 3476 27
8 3477 11
8 3478 17
8 3479 21
8 3480 51
8 3481 21
8 3482 35
8 3483 50
8 3484 33
8 3485 49
8 3486 48
8 3487 43
8 3488 44
8 3489 33
8 3490 49
8 3491 53
8 3492 18
8 3493 64
8 3494 39
8 3495 46
8 3496 20
8 3497 48
8 3498 52
8 3499 68
8 3500 57
8 3501 59
8 3502 98
8 3503 32
8 3504 43
8 3505 41
8 3506 19
8 3507 32
8 3508 67
8 3509 29
8 3510 51
8 3511 27
8 3512 40
8 3513 23
8 3514 46
8 3515 59
8 3516 61
8 3517 41
8 3518 21
8 3519 50
8 3520 3960
8 3521 38
8 3522 50
8 3523 8
8 3524 34
8 3525 32
8 3526 80
8 3527 37
8 3528 34
8 3529 31
8 3530 161
8 3531 44
8 3532 30
8 3533 63
8 3534 42
8 3535 27
8 3536 41
8 3537 31
8 3538 45
8 3539 58
8 3540 19
8 3541 47
8 3542 59
8 3543 6
8 3544 35
8 3545 41
8 3546 4374
8 3547 30
8 3548 16
8 3549 32
8 3550 46
8 3551 56
8 3552 33
8 3553 70
8 3554 42
8 3555 31
8 3556 53
8 3557 356
8 3558 48
8 3559 50
8 3560 22
8 3561 21
8 3562 41
8 3563 51
8 3564 44
8 3565 64
8 3566 49
8 3567 86
8 3568 784
8 3569 61
8 3570 37
8 3571 41
8 3572 433
8 3573 44
8 3574 51
8 3575 38
8 3576 582
8 3577 64
8 3578 28
8 3579 26
8 3580 48
8 3581 67
8 3582 43
8 3583 54
8 3584 57
8 3585 27
8 3586 41
8 3587 13
8 3588 24
8 3589 5829
8 3590 70
8 3591 36
8 3592 69
8 3593 57
8 3594 31
8 3595 27
8 3596 61
8 3597 55
8 3598 39
8 3599 46
8 3600 32
8 3601 504
8 3602 26
8 3603 37
8 3604 69
8 3605 48
8 3606 33
8 3607 26
8 3608 63
8 3609 41
8 3610 33
8 3611 41
8 3612 34
8 3613 86
8 3614 61
8 3615 85
8 3616 28
8 3617 158
8 3618 42
8 3619 27
8 3620 32
8 3621 36
8 3622 61
8 3623 4820
8 3624 39
8 3625 42
8 3626 45
8 3627 42
8 3628 41
8 3629 50
8 3630 29
8 3631 22
8 3632 54
8 3633 81
8 3634 38
8 3635 41
8 3636 6928
8 3637 47
8 3638 47
8 3639 31
8 3640 26
8 3641 52
8 3642 41
8 3643 34
8 3644 36
8 3645 77
8 3646 26
8 3647 25
8 3648 1800
8 3649 23
8 3650 33
8 3651 77
8 3652 52
8 3653 32
8 3654 28
8 3655 21
8 3656 88
8 3657 53
8 3658 41
8 3659 50
8 3660 24
8 3661 30
8 3662 45
8 3663 34
8 3664 67
8 3665 27
8 3666 35
8 3667 19
8 3668 38
8 3669 81
8 3670 46
8 3671 34
8 3672 78
8 3673 40
8 3674 153
8 3675 52
8 3676 28
8 3677 61
8 3678 38
8 3679 125
8 3680 25
8 3681 46
8 3682 41
8 3683 39
8 3684 32
8 3685 79
8 3686 25
8 3687 21
8 3688 475
8 3689 58
8 3690 45
8 3691 27
8 3692 48
8 3693 140
8 3694 70
8 3695 62
8 3696 81
8 3697 53
8 3698 19
8 3699 58
8 3700 33
8 3701 73
8 3702 55
8 3703 48
8 3704 32
8 3705 63
8 3706 179
8 3707 50
8 3708 45
8 3709 40
8 3710 55
8 3711 51
8 3712 17
8 3713 34
8 3714 52
8 3715 42
8 3716 62
8 3717 42
8 3718 76
8 3719 33
8 3720 48
8 3721 37
8 3722 62
8 3723 30
8 3724 36
8 3725 29
8 3726 53
8 3727 31
8 3728 76
8 3729 33
8 3730 27
8 3731 48
8 3732 44
8 3733 48
8 3734 37
8 3735 37
8 3736 42
8 3737 29
8 3738 45
8 3739 33
8 3740 47
8 3741 26
8 3742 51
8 3743 42
8 3744 69
8 3745 25
8 3746 28
8 3747 1653
8 3748 41
8 3749 38
8 3750 61
8 3751 38
8 3752 31
8 3753 29
8 3754 30
8 3755 534
8 3756 81
8 3757 39
8 3758 21
8 3759 27
8 3760 77
8 3761 51
8 3762 50
8 3763 2485
8 3764 46
8 3765 84
8 3766 44
8 3767 85
8 3768 63
8 3769 59
8 3770 34
8 3771 17
8 3772 26
8 3773 298
8 3774 30
8 3775 51
8 3776 37
8 3777 36
8 3778 34
8 3779 23
8 3780 64
8 3781 3486
8 3782 40
8 3783 36
8 3784 40
8 3785 51
8 3786 24
8 3787 145
8 3788 78
8 3789 64
8 3790 68
8 3791 21
8 3792 50
8 3793 50
8 3794 34
8 3795 72
8 3796 61
8 3797 47
8 3798 35
8 3799 64
8 3800 37
8 3801 53
8 3802 26
8 3803 16
8 3804 40
8 3805 45
8 3806 72
8 3807 41
8 3808 25
8 3809 59
8 3810 28
8 3811 33
8 3812 33
8 3813 23
8 3814 69
8 3815 35
8 3816 55
8 3817 21
8 3818 43
8 3819 55
8 3820 37
8 3821 144
8 3822 50
8 3823 55
8 3824 50
8 3825 63
8 3826 494
8 3827 41
8 3828 28
8 3829 19
8 3830 32
8 3831 58
8 3832 23
8 3833 42
8 3834 28
8 3835 32
8 3836 50
8 3837 25
8 3838 45
8 3839 35
8 3840 31
8 3841 26
8 3842 33
8 3843 49
8 3844 64
8 3845 49
8 3846 59
8 3847 60
8 3848 26
8 3849 26
8 3850 25
8 3851 50
8 3852 26
8 3853 32
8 3854 31
8 3855 25
8 3856 73
8 3857 51
8 3858 42
8 3859 24
8 3860 66
8 3861 31
8 3862 90
8 3863 45
8 3864 26
8 3865 947
8 3866 60
8 3867 33
8 3868 41
8 3869 45
8 3870 63
8 3871 43
8 3872 38
8 3873 55
8 3874 6
8 3875 24
8 3876 54
8 3877 58
8 3878 3957
8 3879 30
8 3881 45
8 3882 49
8 3883 38
8 3884 196
8 3885 63
8 3886 1
8 3887 36
8 3888 33
8 3889 54
8 3890 77
8 3891 38
8 3892 59
8 3893 31
8 3894 26
8 3895 20
8 3896 45
8 3897 64
8 3898 29
8 3899 116
8 3900 46
8 3901 1263
8 3902 52
8 3903 32
8 3904 69
8 3905 47
8 3906 55
8 3907 48
8 3908 22
8 3909 24
8 3910 33
8 3911 35
8 3912 14
8 3913 42
8 3914 32
8 3915 64
8 3916 15
8 3917 59
8 3918 35
8 3919 29
8 3920 65
8 3921 23
8 3922 33
8 3923 37
8 3924 29
8 3925 35
8 3926 56
8 3927 30
8 3928 2308
8 3929 42
8 3930 24
8 3931 51
8 3932 17
8 3933 33
8 3934 13
8 3935 69
8 3936 54
8 3937 9
8 3938 55
8 3939 32
8 3940 48
8 3941 61
8 3942 2794
8 3943 33
8 3944 47
8 3945 23
8 3946 73
8 3947 21
8 3948 20
8 3949 215
8 3950 19
8 3951 38
8 3952 38
8 3953 56
8 3954 69
8 3955 12
8 3956 19
8 3957 133
8 3958 49
8 3959 38
8 3960 34
8 3961 20
8 3962 28
8 3963 30
8 3964 35
8 3965 21
8 3966 50
8 3967 53
8 3968 25
8 3969 40
8 3970 51
8 3971 1000
8 3972 60
8 3973 532
8 3974 31
8 3975 12
8 3976 32
8 3977 51
8 3978 50
8 3979 95
8 3980 43
8 3981 29
8 3982 37
8 3983 37
8 3984 50
8 3985 25
8 3986 51
8 3987 892
8 3988 42
8 3989 97
8 3990 36
8 3991 15
8 3992 1644
8 3993 85
8 3994 42
8 3995 25
8 3996 37
8 3997 50
8 3998 23
8 3999 166
8 4000 54
8 4001 48
8 4002 34
8 4003 25
8 4004 36
8 4005 37
8 4006 52
8 4007 41
8 4008 193
8 4009 53
8 4010 43
8 4011 22
8 4012 23
8 4013 46
8 4014 33
8 4015 95
8 4016 48
8 4017 23
8 4018 62
8 4019 541
8 4020 29
8 4021 22
8 4022 32
8 4023 27
8 4024 39
8 4025 27
8 4026 30
8 4027 37
8 4028 27
8 4029 25
8 4030 64
8 4031 21
8 4032 68
8 4033 25
8 4034 37
8 4035 14
8 4036 43
8 4037 29
8 4038 56
8 4039 45
8 4040 68
8 4041 103
8 4042 32
8 4043 34
8 4044 21
8 4045 37
8 4046 25
8 4047 60
8 4048 51
8 4049 48
8 4050 22
8 4051 26
8 4052 44
8 4053 28
8 4054 41
8 4055 26
8 4056 54
8 4057 21
8 4058 46
8 4059 17
8 4060 60
8 4061 43
8 4062 30
8 4063 57
8 4064 52
8 4065 43
8 4066 54
8 4067 41
8 4068 36
8 4069 55
8 4070 41
8 4071 24
8 4072 35
8 4073 32
8 4074 45
8 4075 17
8 4076 40
8 4077 32
8 4078 37
8 4079 51
8 4080 43
8 4081 1308
8 4082 45
8 4083 80
8 4084 61
8 4085 35
8 4086 44
8 4087 44
8 4088 146
8 4089 51
8 4090 88
8 4091 17
8 4092 56
8 4093 27
8 4094 37
8 4095 31
8 4096 56
8 4097 60
8 4098 31
8 4099 26
8 4100 5933
8 4101 24
8 4102 52
8 4103 51
8 4104 34
8 4105 2
8 4106 33
8 4107 27
8 4108 60
8 4109 74
8 4110 62
8 4111 24
8 4112 48
8 4113 36
8 4114 14
8 4115 18
8 4116 46
8 4117 24
8 4118 45
8 4119 25
8 4120 27
8 4121 54
8 4122 22
8 4123 53
8 4124 18
8 4125 42
8 4126 64
8 4127 43
8 4128 38
8 4129 50
8 4130 31
8 4131 46
8 4132 130
8 4133 22
8 4134 32
8 4135 25
8 4136 102
8 4137 33
8 4138 28
8 4139 55
8 4140 32
8 4141 29
8 4142 626
8 4143 68
8 4144 28
8 4145 33
8 4146 73
8 4147 50
8 4148 39
8 4149 38
8 4150 28
8 4151 24
8 4152 56
8 4153 24
8 4154 41
8 4155 20
8 4156 9
8 4157 37
8 4158 35
8 4159 28
8 4160 48
8 4161 574
8 4162 49
8 4163 57
8 4164 73
8 4165 57
8 4166 42
8 4167 40
8 4168 872
8 4169 60
8 4170 22
8 4171 2895
8 4172 12
8 4173 36
8 4174 42
8 4175 32
8 4176 30
8 4177 37
8 4178 63
8 4179 43
8 4180 32
8 4181 14
8 4182 12
8 4183 14
8 4184 38
8 4185 24
8 4186 106
8 4187 31
8 4188 29
8 4189 73
8 4190 60
8 4191 39
8 4192 47
8 4193 58
8 4194 42
8 4195 46
8 4196 32
8 4197 34
8 4198 61
8 4199 41
8 4200 71
8 4201 25
8 4202 33
8 4203 29
8 4204 75
8 4205 45
8 4206 64
8 4207 187
8 4208 26
8 4209 233
8 4210 30
8 4211 42
8 4212 17
8 4213 51
8 4214 53
8 4215 23
8 4216 36
8 4217 30
8 4218 37
8 4219 38
8 4220 27
8 4221 20
8 4222 42
8 4223 45
8 4224 34
8 4225 30
8 4226 47
8 4227 50
8 4228 38
8 4229 31
8 4230 30
8 4231 64
8 4232 22
8 4233 52
8 4234 41
8 4235 60
8 4236 63
8 4237 1265
8 4238 40
8 4239 83
8 4240 43
8 4241 10
8 4242 34
8 4243 564
8 4244 134
8 4245 25
8 4246 42
8 4247 75
8 4248 68
8 4249 25
8 4250 17
8 4251 45
8 4252 48
8 4253 43
8 4254 49
8 4255 58
8 4256 43
8 4257 31
8 4258 57
8 4259 50
8 4260 31
8 4261 29
8 4262 52
8 4263 22
8 4264 61
8 4265 11
8 4266 30
8 4267 19
8 4268 26
8 4269 619
8 4270 38
8 4271 32
8 4272 52
8 4273 42
8 4274 75
8 4275 8
8 4276 35
8 4277 28
8 4278 45
8 4279 53
8 4280 39
8 4281 61
8 4282 60
8 4283 33
8 4284 24
8 4285 44
8 4286 57
8 4287 55
8 4288 18
8 4289 30
8 4290 47
8 4291 54
8 4292 93
8 4293 15
8 4294 38
8 4295 47
8 4296 59
8 4297 40
8 4298 23
8 4299 42
8 4300 18
8 4301 59
8 4302 174
8 4303 25
8 4304 19
8 4305 42
8 4306 52
8 4307 52
8 4308 80
8 4309 26
8 4310 29
8 4311 22
8 4312 24
8 4313 48
8 4314 88
8 4315 24
8 4316 45
8 4317 35
8 4318 26
8 4319 23
8 4320 29
8 4321 66
8 4322 35
8 4323 23
8 4324 69
8 4325 11
8 4326 18
8 4327 34
8 4328 52
8 4329 51
8 4330 56
8 4331 71
8 4332 39
8 4333 60
8 4334 17
8 4335 45
8 4336 26
8 4337 65
8 4338 91
8 4339 19
8 4340 40
8 4341 29
8 4342 40
8 4343 37
8 4344 17
8 4345 40
8 4346 55
8 4347 74
8 4348 45
8 4349 53
8 4350 25
8 4351 28
8 4352 23
8 4353 59
8 4354 51
8 4355 58
8 4356 29
8 4357 28
8 4358 23
8 4359 20
8 4360 20
8 4361 21
8 4362 55
8 4363 52
8 4364 71
8 4365 44
8 4366 56
8 4367 36
8 4368 35
8 4369 25
8 4370 65
8 4371 36
8 4372 25
8 4373 58
8 4374 24
8 4375 39
8 4376 30
8 4377 46
8 4378 49
8 4379 78
8 4380 44
8 4381 104
8 4382 33
8 4383 33
8 4384 51
8 4385 58
8 4386 16
8 4387 39
8 4388 35
8 4389 54
8 4390 38
8 4391 43
8 4392 49
8 4393 39
8 4394 35
8 4395 18
8 4396 26
8 4397 37
8 4398 25
8 4399 46
8 4400 25
8 4401 44
8 4402 40
8 4403 55
8 4404 228
8 4405 61
8 4406 26
8 4407 15
8 4408 65
8 4409 46
8 4410 76
8 4411 56
8 4412 33
8 4413 34
8 4414 36
8 4415 27
8 4416 44
8 4417 23
8 4418 36
8 4419 66
8 4420 39
8 4421 61
8 4422 42
8 4423 79
8 4424 38
8 4425 22
8 4426 26
8 4427 59
8 4428 17
8 4429 25
8 4430 24
8 4431 50
8 4432 33
8 4433 2086
8 4434 62
8 4435 128
8 4436 130
8 4437 24
8 4438 26
8 4439 44
8 4440 27
8 4441 36
8 4442 2056
8 4443 29
8 4444 22
8 4445 42
8 4446 30
8 4447 45
8 4448 25
8 4449 65
8 4450 30
8 4451 22
8 4452 39
8 4453 10
8 4454 21
8 4455 58
8 4456 72
8 4457 559
8 4458 29
8 4459 47
8 4460 31
8 4461 48
8 4462 53
8 4463 28
8 4464 27
8 4465 19
8 4466 20
8 4467 29
8 4468 43
8 4469 21
8 4470 28
8 4471 40
8 4472 48
8 4473 28
8 4474 7
8 4475 24
8 4476 59
8 4477 37
8 4478 30
8 4479 23
8 4480 32
8 4481 50
8 4482 26
8 4483 74
8 4484 27
8 4485 56
8 4486 28
8 4487 60
8 4488 24
8 4489 59
8 4490 38
8 4491 18
8 4492 127
8 4493 32
8 4494 38
8 4495 50
8 4496 27
8 4497 42
8 4498 45
8 4499 50
8 4500 46
8 4501 38
8 4502 51
8 4503 49
8 4504 37
8 4505 68
8 4506 45
8 4507 49
8 4508 16
8 4509 2813
8 4510 32
8 4511 32
8 4512 47
8 4513 49
8 4514 33
8 4515 53
8 4516 55
8 4517 66
8 4518 37
8 4519 80
8 4520 3641
8 4521 37
8 4522 52
8 4523 54
8 4524 78
8 4525 159
8 4526 52
8 4527 32
8 4528 65
8 4529 23
8 4530 38
8 4531 38
8 4532 29
8 4533 51
8 4534 34
8 4535 18
8 4536 28
8 4537 29
8 4538 40
8 4539 61
8 4540 36
8 4541 52
8 4542 41
8 4543 36
8 4544 18
8 4545 31
8 4546 46
8 4547 55
8 4548 56
8 4549 34
8 4550 53
8 4551 20
8 4552 7
8 4553 66
8 4554 49
8 4555 75
8 4556 54
8 4557 37
8 4558 31
8 4559 25
8 4560 44
8 4561 30
8 4562 23
8 4563 34
8 4564 49
8 4565 38
8 4566 35
8 4567 19
8 4568 91
8 4569 42
8 4570 71
8 4571 52
8 4572 64
8 4573 47
8 4574 26
8 4575 21
8 4576 11
8 4577 92
8 4578 24
8 4579 37
8 4580 33
8 4581 9
8 4582 20
8 4583 29
8 4584 63
8 4585 34
8 4586 64
8 4587 35
8 4588 63
8 4589 28
8 4590 17
8 4591 26
8 4592 77
8 4593 67
8 4594 21
8 4595 49
8 4596 37
8 4597 45
8 4598 44
8 4599 52
8 4600 56
8 4601 2
8 4602 46
8 4603 51
8 4604 57
8 4605 13
8 4606 57
8 4607 15
8 4608 66
8 4609 71
8 4610 77
8 4611 50
8 4612 331
8 4613 65
8 4614 43
8 4615 43
8 4616 33
8 4617 40
8 4618 35
8 4619 42
8 4620 58
8 4621 35
8 4622 53
8 4623 551
8 4624 29
8 4625 55
8 4626 62
8 4627 37
8 4628 38
8 4629 808
8 4630 41
8 4631 27
8 4632 55
8 4633 47
8 4634 29
8 4635 44
8 4636 36
8 4637 48
8 4638 62
8 4639 48
8 4640 31
8 4641 67
8 4642 22
8 4643 47
8 4644 1011
8 4645 28
8 4646 15
8 4647 32
8 4648 61
8 4649 43
8 4650 18
8 4651 59
8 4652 19
8 4653 20
8 4654 29
8 4655 37
8 4656 85
8 4657 35
8 4658 62
8 4659 22
8 4660 17
8 4661 42
8 4662 31
8 4663 42
8 4664 50
8 4665 48
8 4666 3
8 4667 31
8 4668 26
8 4669 43
8 4670 76
8 4671 48
8 4672 22
8 4673 39
8 4674 26
8 4675 34
8 4676 9
8 4677 33
8 4678 39
8 4679 44
8 4680 26
8 4681 43
8 4682 26
8 4683 40
8 4684 49
8 4685 60
8 4686 35
8 4687 815
8 4688 36
8 4689 67
8 4690 45
8 4691 3
8 4692 63
8 4693 746
8 4694 17
8 4695 9
8 4696 80
8 4697 24
8 4698 29
8 4699 22
8 4700 42
8 4701 19
8 4702 37
8 4703 26
8 4704 36
8 4705 14
8 4706 66
8 4707 35
8 4708 25
8 4709 35
8 4710 47
8 4711 61
8 4712 28
8 4713 29
8 4714 63
8 4715 625
8 4716 35
8 4717 31
8 4718 13
8 4719 47
8 4720 40
8 4721 27
8 4722 35
8 4723 26
8 4724 28
8 4725 33
8 4726 58
8 4727 57
8 4728 131
8 4729 606
8 4730 29
8 4731 27
8 4732 71
8 4733 91
8 4734 30
8 4735 18
8 4736 19
8 4737 48
8 4738 40
8 4739 46
8 4740 48
8 4741 36
8 4742 96
8 4743 67
8 4744 59
8 4745 47
8 4746 76
8 4747 35
8 4748 29
8 4749 35
8 4750 35
8 4751 35
8 4752 36
8 4753 26
8 4754 87
8 4755 23
8 4756 30
8 4757 96
8 4758 54
8 4759 82
8 4760 28
8 4761 18
8 4762 58
8 4763 58
8 4764 39
8 4765 62
8 4766 46
8 4767 223
8 4768 40
8 4769 34
8 4770 31
8 4771 62
8 4772 50
8 4773 23
8 4774 30
8 4775 20
8 4776 47
8 4777 39
8 4778 20
8 4779 40
8 4780 55
8 4781 62
8 4782 42
8 4783 27
8 4784 24
8 4785 71
8 4786 38
8 4787 26
8 4788 24
8 4789 35
8 4790 68
8 4791 42
8 4792 43
8 4793 37
8 4794 28
8 4795 45
8 4796 25
8 4797 53
8 4798 22
8 4799 43
8 4800 33
8 4801 56
8 4802 46
8 4803 12
8 4804 17
8 4805 52
8 4806 51
8 4807 32
8 4808 34
8 4809 37
8 4810 40
8 4811 42
8 4812 52
8 4813 27
8 4814 12
8 4815 26
8 4816 39
8 4817 19
8 4818 101
8 4819 25
8 4820 27
8 4821 49
8 4822 33
8 4823 119
8 4824 61
8 4825 34
8 4826 23
8 4827 39
8 4828 34
8 4829 35
8 4830 67
8 4831 38
8 4832 19
8 4833 23
8 4834 30
8 4835 8
8 4836 69
8 4837 34
8 4838 85
8 4839 36
8 4840 9
8 4841 40
8 4842 4
8 4843 48
8 4844 66
8 4845 31
8 4846 30
8 4847 73
8 4848 22
8 4849 11
8 4850 25
8 4851 46
8 4852 54
8 4853 103
8 4854 24
8 4855 11
8 4856 72
8 4857 75
8 4858 36
8 4859 28
8 4860 51
8 4861 107
8 4862 17
8 4863 50
8 4864 58
8 4865 262
8 4866 43
8 4867 27
8 4868 59
8 4869 44
8 4870 53
8 4871 38
8 4872 37
8 4873 51
8 4874 63
8 4875 77
8 4876 64
8 4877 57
8 4878 41
8 4879 9
8 4880 51
8 4881 33
8 4882 45
8 4883 15
8 4884 60
8 4885 20
8 4886 50
8 4887 195
8 4888 38
8 4889 63
8 4890 44
8 4891 47
8 4892 53
8 4893 40
8 4894 29
8 4895 29
8 4896 59
8 4897 59
8 4898 41
8 4899 55
8 4900 44
8 4901 34
8 4902 45
8 4903 38
8 4904 32
8 4905 31
8 4906 65
8 4907 53
8 4908 15
8 4909 42
8 4910 26
8 4911 32
8 4912 41
8 4913 57
8 4914 31
8 4915 39
8 4916 32
8 4917 50
8 4918 19
8 4919 45
8 4920 81
8 4921 19
8 4922 53
8 4923 29
8 4924 28
8 4925 44
8 4926 27
8 4927 5
8 4928 37
8 4929 24
8 4930 22
8 4931 50
8 4932 23
8 4933 68
8 4934 1
8 4935 27
8 4936 40
8 4937 29
8 4938 149
8 4939 24
8 4940 48
8 4941 15
8 4942 28
8 4943 38
8 4944 82
8 4945 49
8 4946 40
8 4947 69
8 4948 41
8 4949 17
8 4950 31
8 4951 68
8 4952 42
8 4953 55
8 4954 42
8 4955 15
8 4956 37
8 4957 25
8 4958 24
8 4959 34
8 4960 26
8 4961 46
8 4962 34
8 4963 20
8 4964 27
8 4965 9
8 4966 31
8 4967 21
8 4968 62
8 4969 44
8 4970 33
8 4971 42
8 4972 21
8 4973 14
8 4974 26
8 4975 30
8 4976 55
8 4977 39
8 4978 22
8 4979 53
8 4980 32
8 4981 58
8 4982 30
8 4983 30
8 4984 53
8 4985 26
8 4986 338
8 4987 36
8 4988 231
8 4989 24
8 4990 15
8 4991 27
8 4992 97
8 4993 16
8 4994 23
8 4995 33
8 4996 19
8 4997 16
8 4998 40
8 4999 36
8 5000 102
8 5001 53
8 5002 14
8 5003 67
8 5004 22
8 5005 1
8 5006 23
8 5007 63
8 5008 35
8 5009 12
8 5010 29
8 5011 42
8 5012 46
8 5013 20
8 5014 25
8 5015 425
8 5016 25
8 5017 25
8 5018 90
8 5019 34
8 5020 32
8 5021 50
8 5022 40
8 5023 19
8 5024 34
8 5025 107
8 5026 39
8 5027 2
8 5028 829
8 5029 51
8 5030 14
8 5031 23
8 5032 611
8 5033 29
8 5034 25
8 5035 33
8 5036 23
8 5037 37
8 5038 63
8 5039 31
8 5040 44
8 5041 35
8 5042 49
8 5043 16
8 5044 30
8 5045 48
8 5046 35
8 5047 21
8 5048 25
8 5049 26
8 5050 26
8 5051 24
8 5052 26
8 5053 44
8 5054 45
8 5055 30
8 5056 14
8 5057 31
8 5058 39
8 5059 29
8 5060 541
8 5061 293
8 5062 44
8 5063 31
8 5064 35
8 5065 60
8 5066 39
8 5067 54
8 5068 49
8 5069 95
8 5070 4
8 5071 36
8 5072 76
8 5073 33
8 5074 29
8 5075 17
8 5076 79
8 5077 33
8 5078 23
8 5079 26
8 5080 81
8 5081 68
8 5082 5
8 5083 1426
8 5084 42
8 5085 51
8 5086 38
8 5087 28
8 5088 19
8 5089 45
8 5090 40
8 5091 60
8 5092 719
8 5093 32
8 5094 10
8 5095 45
8 5096 18
8 5097 15
8 5098 40
8 5099 20
8 5100 36
8 5101 33
8 5102 43
8 5103 25
8 5104 42
8 5105 88
8 5106 27
8 5107 52
8 5108 35
8 5109 47
8 5110 34
8 5111 49
8 5112 40
8 5113 56
8 5114 47
8 5115 21
8 5116 53
8 5117 64
8 5118 22
8 5119 63
8 5120 18
8 5121 31
8 5122 32
8 5123 47
8 5124 57
8 5125 68
8 5126 20
8 5127 50
8 5128 16
8 5129 15
8 5130 29
8 5131 117
8 5132 45
8 5133 49
8 5134 17
8 5135 45
8 5136 29
8 5137 18
8 5138 15
8 5139 33
8 5140 33
8 5141 32
8 5142 17
8 5143 30
8 5144 44
8 5145 40
8 5146 42
8 5147 53
8 5148 38
8 5149 83
8 5150 47
8 5151 17
8 5152 39
8 5153 29
8 5154 103
8 5155 44
8 5156 37
8 5157 33
8 5158 42
8 5159 83
8 5160 22
8 5161 31
8 5162 33
8 5163 63
8 5164 17
8 5165 44
8 5166 44
8 5167 21
8 5168 28
8 5169 28
8 5170 25
8 5171 27
8 5172 41
8 5173 9
8 5174 32
8 5175 44
8 5176 19
8 5177 26
8 5178 33
8 5179 4
8 5180 16
8 5181 42
8 5182 36
8 5183 27
8 5184 41
8 5185 25
8 5186 28
8 5187 62
8 5188 23
8 5189 6
8 5190 7
8 5191 22
8 5192 27
8 5193 26
8 5194 28
8 5195 42
8 5196 18
8 5197 25
8 5198 58
8 5199 33
8 5200 20
8 5201 43
8 5202 31
8 5203 54
8 5204 99
8 5205 12
8 5206 41
8 5207 38
8 5208 24
8 5209 4
8 5210 24
8 5211 36
8 5212 30
8 5213 44
8 5214 60
8 5215 26
8 5216 66
8 5217 23
8 5218 48
8 5219 21
8 5220 30
8 5221 50
8 5222 173
8 5223 2
8 5224 37
8 5225 58
8 5226 50
8 5227 83
8 5228 38
8 5229 27
8 5230 37
8 5231 43
8 5232 51
8 5233 14
8 5234 49
8 5235 40
8 5236 18
8 5237 28
8 5238 34
8 5239 88
8 5240 13
8 5241 35
8 5242 48
8 5243 33
8 5244 79
8 5245 40
8 5246 51
8 5247 33
8 5248 23
8 5249 27
8 5250 48
8 5251 7
8 5252 246
8 5253 47
8 5254 70
8 5255 30
8 5256 51
8 5257 464
8 5258 26
8 5259 51
8 5260 35
8 5261 2
8 5262 32
8 5263 24
8 5264 16
8 5265 29
8 5266 94
8 5267 9
8 5268 31
8 5269 39
8 5270 64
8 5271 32
8 5272 59
8 5273 19
8 5274 33
8 5275 57
8 5276 44
8 5277 32
8 5278 32
8 5279 44
8 5280 27
8 5281 36
8 5282 68
8 5283 74
8 5284 45
8 5285 36
8 5286 43
8 5287 33
8 5288 42
8 5289 30
8 5290 40
8 5291 40
8 5292 48
8 5293 27
8 5294 22
8 5295 29
8 5296 70
8 5297 40
8 5298 53
8 5299 22
8 5300 39
8 5301 17
8 5302 6
8 5303 26
8 5304 26
8 5305 22
8 5306 46
8 5307 22
8 5308 72
8 5309 46
8 5310 18
8 5311 32
8 5312 20
8 5313 31
8 5314 41
8 5315 33
8 5316 92
8 5317 13
8 5318 46
8 5319 50
8 5320 21
8 5321 44
8 5322 27
8 5323 80
8 5324 8
8 5325 16
8 5326 72
8 5327 321
8 5328 152
8 5329 28
8 5330 59
8 5331 36
8 5332 20
8 5333 51
8 5334 20
8 5335 33
8 5336 31
8 5337 45
8 5338 41
8 5339 128
8 5340 13
8 5341 16
8 5342 33
8 5343 43
8 5344 29
8 5345 42
8 5346 47
8 5347 28
8 5348 39
8 5349 65
8 5350 23
8 5351 40
8 5352 21
8 5353 37
8 5354 40
8 5355 22
8 5356 36
8 5357 47
8 5358 57
8 5359 49
8 5360 21
8 5361 32
8 5362 27
8 5363 33
8 5364 35
8 5365 34
8 5366 51
8 5367 28
8 5368 86
8 5369 31
8 5370 18
8 5371 163
8 5372 17
8 5373 30
8 5374 46
8 5375 48
8 5376 22
8 5377 26
8 5378 42
8 5379 61
8 5380 32
8 5381 62
8 5382 5
8 5383 45
8 5384 15
8 5385 46
8 5386 32
8 5387 12
8 5388 37
8 5389 46
8 5390 84
8 5391 70
8 5392 26
8 5393 14
8 5394 87
8 5395 31
8 5396 52
8 5397 20
8 5398 38
8 5399 58
8 5400 26
8 5401 65
8 5402 58
8 5403 27
8 5404 41
8 5405 49
8 5406 18
8 5407 44
8 5408 44
8 5409 28
8 5410 19
8 5411 32
8 5412 34
8 5413 60
8 5414 36
8 5415 3
8 5416 30
8 5417 40
8 5418 11
8 5419 3
8 5420 67
8 5421 24
8 5422 22
8 5423 73
8 5424 12
8 5425 50
8 5426 25
8 5427 33
8 5428 14
8 5429 5
8 5430 47
8 5431 25
8 5432 40
8 5433 37
8 5434 41
8 5435 528
8 5436 48
8 5437 65
8 5438 38
8 5439 26
8 5440 35
8 5441 23
8 5442 29
8 5443 71
8 5444 23
8 5445 33
8 5446 22
8 5447 38
8 5448 62
8 5449 25
8 5450 27
8 5451 58
8 5452 38
8 5453 33
8 5454 11
8 5455 49
8 5456 23
8 5457 44
8 5458 37
8 5459 33
8 5460 34
8 5461 21
8 5462 25
8 5463 21
8 5464 42
8 5465 55
8 5466 49
8 5467 16
8 5468 22
8 5469 27
8 5470 31
8 5471 26
8 5472 41
8 5473 22
8 5474 88
8 5475 26
8 5476 78
8 5477 46
8 5478 57
8 5479 46
8 5480 11
8 5481 27
8 5482 16
8 5483 36
8 5484 41
8 5485 42
8 5486 50
8 5487 33
8 5488 56
8 5489 16
8 5490 84
8 5491 39
8 5492 25
8 5493 54
8 5494 21
8 5495 37
8 5496 59
8 5497 58
8 5498 26
8 5499 35
8 5500 19
8 5501 44
8 5502 21
8 5503 42
8 5504 32
8 5505 24
8 5506 19
8 5507 30
8 5508 29
8 5509 70
8 5510 17
8 5511 15
8 5512 22
8 5513 33
8 5514 16
8 5515 33
8 5516 13
8 5517 19
8 5518 46
8 5519 64
8 5520 52
8 5521 12
8 5522 26
8 5523 54
8 5524 17
8 5525 18
8 5526 12
8 5527 23
8 5528 22
8 5529 36
8 5530 37
8 5531 14
8 5532 66
8 5533 49
8 5534 29
8 5535 28
8 5536 25
8 5537 19
8 5538 25
8 5539 19
8 5540 49
8 5541 14
8 5542 42
8 5543 35
8 5544 58
8 5545 9
8 5546 28
8 5547 14
8 5548 57
8 5549 21
8 5550 45
8 5551 9
8 5552 24
8 5553 17
8 5554 54
8 5555 16
8 5556 2
8 5557 60
8 5558 70
8 5559 16
8 5560 32
8 5561 39
8 5562 31
8 5563 42
8 5564 17
8 5565 29
8 5567 20
8 5568 172
8 5569 31
8 5570 33
8 5571 41
8 5572 58
8 5573 14
8 5574 89
8 5575 25
8 5576 129
8 5577 24
8 5578 53
8 5579 29
8 5580 107
8 5581 33
8 5582 21
8 5583 31
8 5584 33
8 5585 74
8 5586 20
8 5587 26
8 5588 40
8 5589 41
8 5590 25
8 5591 43
8 5592 35
8 5593 10
8 5594 32
8 5595 40
8 5596 19
8 5597 32
8 5598 29
8 5599 61
8 5600 30
8 5601 35
8 5602 16
8 5603 22
8 5604 28
8 5605 22
8 5606 31
8 5607 30
8 5608 13
8 5609 13
8 5610 26
8 5611 17
8 5612 19
8 5613 44
8 5614 37
8 5615 44
8 5616 1
8 5617 44
8 5618 5
8 5619 50
8 5620 8
8 5621 57
8 5622 85
8 5623 26
8 5624 26
8 5625 22
8 5626 22
8 5627 30
8 5628 32
8 5629 45
8 5630 51
8 5631 39
8 5632 102
8 5633 31
8 5634 40
8 5635 33
8 5636 294
8 5637 52
8 5638 75
8 5639 40
8 5640 3
8 5641 15
8 5642 31
8 5643 27
8 5644 24
8 5645 37
8 5646 34
8 5647 38
8 5648 35
8 5649 26
8 5650 34
8 5651 56
8 5652 50
8 5653 18
8 5654 38
8 5655 11
8 5656 32
8 5657 55
8 5658 15
8 5659 17
8 5660 48
8 5661 15
8 5662 7
8 5663 29
8 5664 30
8 5665 59
8 5666 5
8 5667 219
8 5668 12
8 5669 4
8 5670 14
8 5671 25
8 5672 17
8 5673 41
8 5674 18
8 5675 9
8 5676 28
8 5677 22
8 5678 8
8 5679 7
8 5680 22
8 5681 5
8 5682 19
8 5683 22
8 5684 16
8 5685 2
8 5686 14
8 5687 26
8 5688 33
8 5689 24
8 5690 13
8 5691 8
8 5692 3
8 5693 5
8 5694 4
8 5695 7
8 5696 16
8 5697 19
8 5698 16
8 5699 13
8 5700 1
8 5701 44
8 5702 12
8 5704 6
8 5705 12
8 5706 1
8 5707 2
8 5708 1
8 5709 10
8 5710 7
8 5711 3
8 5715 2
8 5716 4
9 1 157
9 2 273
9 3 153
9 4 91
9 5 41
9 6 94
9 7 91
9 8 136
9 9 106
9 10 80
9 11 114
9 12 79
9 13 126
9 14 98
9 15 67
9 16 41
9 17 94
9 18 120
9 19 61
9 20 127
9 21 102
9 22 130
9 23 161
9 24 72590
9 25 152
9 26 21357
9 27 95
9 28 95
9 29 56
9 30 43
9 31 92
9 32 1964
9 33 109
9 34 23576
9 35 27
9 36 143
9 37 114
9 38 79277
9 39 104
9 40 30771
9 41 113
9 42 204
9 43 107
9 44 91
9 45 21
9 46 209
9 47 45873
9 48 69
9 49 450
9 50 51
9 51 126
9 52 106
9 53 51
9 54 759
9 55 193
9 56 16704
9 57 80
9 58 86
9 59 128
9 60 133
9 61 46050
9 62 110
9 63 180
9 64 108
9 65 74
9 66 81
9 67 88
9 68 118
9 69 64
9 70 70571
9 71 157
9 72 95
9 73 67
9 74 22258
9 75 122
9 76 88
9 77 170
9 78 73
9 79 106501
9 80 71
9 81 194
9 82 65
9 83 64801
9 84 118
9 85 23664
9 86 53
9 87 49499
9 88 112
9 89 107
9 90 122433
9 91 83
9 92 55
9 93 116
9 94 72
9 95 67
9 96 57
9 97 113
9 98 208
9 99 90
9 100 53
9 101 115
9 102 45
9 103 79
9 104 4074
9 105 99
9 106 54
9 107 100
9 108 111
9 109 179
9 110 77
9 111 88
9 112 48
9 113 63
9 114 67
9 115 119
9 116 35
9 117 59
9 118 76
9 119 184
9 120 202
9 121 125
9 122 92
9 123 45
9 124 154
9 125 112
9 126 40
9 127 97
9 128 105
9 129 115
9 130 124
9 131 61
9 132 105
9 133 146
9 134 33
9 135 190
9 136 41150
9 137 74
9 138 142
9 139 129
9 140 285
9 141 126
9 142 75
9 143 142
9 144 106
9 145 11232
9 146 78
9 147 118
9 148 92
9 149 107
9 150 60
9 151 43
9 152 108
9 153 98
9 154 162
9 155 128
9 156 134
9 157 37
9 158 148
9 159 119
9 160 115
9 161 139
9 162 52468
9 163 94
9 164 95614
9 165 108
9 166 128
9 167 129
9 168 51
9 169 77
9 170 7923
9 171 60080
9 172 179
9 173 112
9 174 133
9 175 94
9 176 172
9 177 81
9 178 120
9 179 40
9 180 102
9 181 67
9 182 152
9 183 115
9 184 98
9 185 82
9 186 68
9 187 91
9 188 127
9 189 6693
9 190 93
9 191 88
9 192 72
9 193 70
9 194 165
9 195 39
9 196 75
9 197 44
9 198 92
9 199 53
9 200 113
9 201 126
9 202 130
9 203 92
9 204 40335
9 205 157
9 206 44
9 207 99290
9 208 37
9 209 35169
9 210 137
9 211 108
9 212 71
9 213 81487
9 214 47
9 215 231
9 216 118
9 217 93
9 218 48
9 219 143
9 220 54
9 221 55
9 222 72
9 223 128
9 224 64
9 225 24450
9 226 75
9 227 60
9 228 91
9 229 137
9 230 1388
9 231 41
9 232 178
9 233 102
9 234 120
9 235 24
9 236 91
9 237 55
9 238 86
9 239 125
9 240 150
9 241 61
9 242 108
9 243 182
9 244 145
9 245 57
9 246 87
9 247 66
9 248 103
9 249 106
9 250 22590
9 251 53
9 252 53
9 253 50
9 254 47
9 255 74
9 256 108
9 257 215
9 258 64
9 259 94
9 260 131
9 261 43
9 262 156
9 263 46
9 264 171
9 265 122
9 266 42
9 267 36
9 268 128
9 269 142
9 270 81
9 271 122
9 272 103
9 273 51
9 274 92
9 275 68
9 276 173
9 277 150
9 278 118
9 279 135
9 280 83
9 281 125
9 282 59
9 283 100
9 284 96
9 285 108
9 286 64
9 287 136
9 288 121
9 289 14
9 290 72
9 291 106
9 292 105
9 293 104
9 294 84
9 295 67
9 296 118
9 297 135
9 298 82496
9 299 131
9 300 77
9 301 118
9 302 42
9 303 103
9 304 136
9 305 11
9 306 97
9 307 136
9 308 84
9 309 63
9 310 127
9 311 126
9 312 30
9 313 145
9 314 56
9 315 90
9 316 82
9 317 5581
9 318 114
9 319 75
9 320 70
9 321 90
9 322 111
9 323 100
9 324 51684
9 325 87
9 326 78
9 327 138
9 328 77
9 329 116
9 330 112
9 331 92
9 332 48
9 333 158
9 334 34
9 335 85
9 336 52
9 337 129
9 338 57
9 339 72
9 340 82
9 341 66
9 342 63
9 343 80
9 344 54
9 345 138
9 346 72
9 347 48
9 348 74
9 349 111
9 350 117
9 351 72
9 352 137
9 353 98
9 354 44
9 355 5202
9 356 100
9 357 10068
9 358 114
9 359 159
9 360 161
9 361 87
9 362 140
9 363 137
9 364 60
9 365 40
9 366 6718
9 367 88
9 368 72
9 369 112
9 370 67
9 371 79
9 372 56
9 373 139
9 374 24544
9 375 79
9 376 169
9 377 65
9 378 144
9 379 165
9 380 65
9 381 57
9 382 138
9 383 103
9 384 61
9 385 80
9 386 60
9 387 97
9 388 95
9 389 86
9 390 99
9 391 69
9 392 67777
9 393 115
9 394 122
9 395 105
9 396 167
9 397 51
9 398 83
9 399 43000
9 400 76
9 401 105
9 402 69
9 403 162
9 404 1398
9 405 51
9 406 101
9 407 80
9 408 10094
9 409 110
9 410 96
9 411 92
9 412 107
9 413 99
9 414 72
9 415 83703
9 416 185
9 417 59
9 418 96
9 419 97
9 420 76
9 421 37
9 422 21567
9 423 82
9 424 78
9 425 72
9 426 98
9 427 130
9 428 193
9 429 116082
9 430 106
9 431 70
9 432 94
9 433 101
9 434 91
9 435 84
9 436 86
9 437 55
9 438 51
9 439 72
9 440 86
9 441 70
9 442 115
9 443 2852
9 444 92
9 445 1886
9 446 145
9 447 82
9 448 91
9 449 104
9 450 92
9 451 72
9 452 118
9 453 147
9 454 149
9 455 111
9 456 95
9 457 77
9 458 73
9 459 45
9 460 137
9 461 300
9 462 77
9 463 368
9 464 77
9 465 86
9 466 76
9 467 821
9 468 81
9 469 80
9 470 145
9 471 74
9 472 157
9 473 25365
9 474 67
9 475 83
9 476 59
9 477 62
9 478 100
9 479 70
9 480 118
9 481 75
9 482 98
9 483 15103
9 484 82
9 485 154
9 486 113
9 487 85
9 488 49
9 489 14643
9 490 99
9 491 111
9 492 82
9 493 45
9 494 30624
9 495 46
9 496 53
9 497 116
9 498 55
9 499 78
9 500 94
9 501 109
9 502 25370
9 503 52
9 504 60
9 505 63
9 506 106
9 507 72
9 508 154
9 509 43
9 510 102
9 511 73
9 512 49
9 513 106
9 514 86
9 515 144
9 516 178
9 517 118
9 518 102
9 519 78
9 520 125
9 521 70
9 522 128
9 523 51
9 524 77
9 525 112
9 526 132
9 527 19602
9 528 142
9 529 121
9 530 68
9 531 53814
9 532 43
9 533 33074
9 534 124
9 535 120
9 536 8235
9 537 135
9 538 57
9 539 24090
9 540 54
9 541 108
9 542 87
9 543 119
9 544 130
9 545 168
9 546 91
9 547 127
9 548 82
9 549 85
9 550 47
9 551 72
9 552 169
9 553 154
9 554 25615
9 555 99
9 556 42
9 557 31
9 558 318
9 559 76
9 560 122
9 561 68
9 562 60
9 563 152
9 564 70
9 565 129
9 566 115
9 567 105
9 568 56
9 569 95
9 570 34530
9 571 68
9 572 42660
9 573 89
9 574 5814
9 575 97
9 576 89
9 577 157
9 578 42743
9 579 101
9 580 102
9 581 97
9 582 54
9 583 98
9 584 86
9 585 99
9 586 58
9 587 50
9 588 84
9 589 86
9 590 104
9 591 83
9 592 64
9 593 42
9 594 2930
9 595 102
9 596 85
9 597 101
9 598 37
9 599 85
9 600 62
9 601 101
9 602 97
9 603 84
9 604 32274
9 605 240
9 606 110
9 607 54
9 608 46
9 609 105
9 610 203
9 611 125
9 612 148
9 613 39
9 614 153
9 615 89
9 616 55
9 617 91
9 618 147
9 619 9471
9 620 62
9 621 76
9 622 80
9 623 101
9 624 75
9 625 145
9 626 96
9 627 122
9 628 116
9 629 3878
9 630 76
9 631 63
9 632 131
9 633 108
9 634 106
9 635 100
9 636 126
9 637 69
9 638 53
9 639 9031
9 640 65
9 641 119
9 642 96
9 643 87
9 644 129
9 645 79
9 646 6912
9 647 114
9 648 49
9 649 67
9 650 117
9 651 91
9 652 175
9 653 84
9 654 107
9 655 86
9 656 32
9 657 89
9 658 4558
9 659 42970
9 660 15
9 661 115
9 662 97
9 663 103
9 664 78
9 665 43
9 666 5942
9 667 2379
9 668 125
9 669 137
9 670 65
9 671 113
9 672 31344
9 673 95
9 674 38
9 675 71
9 676 51
9 677 103
9 678 86
9 679 111
9 680 107
9 681 2596
9 682 80
9 683 92
9 684 124
9 685 98
9 686 57
9 687 122
9 688 120
9 689 80
9 690 39
9 691 132
9 692 78
9 693 139
9 694 174
9 695 75
9 696 72
9 697 60
9 698 67
9 699 99
9 700 105
9 701 8104
9 702 36
9 703 111
9 704 96
9 705 674
9 706 41
9 707 64
9 708 97
9 709 100
9 710 71
9 711 155
9 712 91
9 713 107
9 714 154
9 715 171
9 716 119
9 717 54
9 718 77
9 719 108
9 720 50503
9 721 30402
9 722 89
9 723 51
9 724 132
9 725 80
9 726 118
9 727 106
9 728 112
9 729 75
9 730 61
9 731 121
9 732 45
9 733 98
9 734 65
9 735 150
9 736 52
9 737 120
9 738 59
9 739 63
9 740 122
9 741 141
9 742 1656
9 743 53567
9 744 86
9 745 114
9 746 52
9 747 117
9 748 86
9 749 28
9 750 115
9 751 79
9 752 3016
9 753 90
9 754 97
9 755 17610
9 756 105
9 757 108
9 758 89
9 759 124
9 760 71
9 761 23
9 762 108
9 763 92
9 764 92
9 765 19
9 766 97
9 767 78
9 768 167
9 769 64
9 770 91
9 771 71
9 772 3686
9 773 81
9 774 120
9 775 71
9 776 29283
9 777 84
9 778 66
9 779 144
9 780 121
9 781 51
9 782 121
9 783 7613
9 784 92
9 785 58
9 786 93
9 787 57
9 788 134
9 789 214
9 790 62
9 791 9576
9 792 33073
9 793 111
9 794 75
9 795 70
9 796 64
9 797 56
9 798 92
9 799 125
9 800 391
9 801 76
9 802 94
9 803 63
9 804 97
9 805 45
9 806 133
9 807 61
9 808 83
9 809 26833
9 810 124
9 811 82
9 812 53
9 813 161
9 814 73
9 815 54
9 816 82
9 817 109
9 818 126
9 819 137
9 820 108
9 821 119
9 822 50
9 823 46
9 824 127
9 825 86
9 826 128
9 827 79
9 828 124
9 829 59
9 830 115
9 831 106
9 832 69
9 833 77
9 834 238
9 835 2849
9 836 17072
9 837 86
9 838 73
9 839 163
9 840 49
9 841 133
9 842 86
9 843 98
9 844 124
9 845 63
9 846 52
9 847 63
9 848 113
9 849 36482
9 850 145
9 851 82
9 852 72
9 853 55
9 854 57
9 855 85
9 856 129
9 857 69
9 858 100
9 859 75
9 860 101
9 861 92
9 862 37
9 863 146
9 864 69
9 865 74
9 866 81
9 867 54
9 868 65
9 869 100
9 870 134
9 871 57
9 872 90
9 873 25
9 874 75
9 875 72
9 876 211
9 877 65
9 878 103
9 879 90
9 880 108
9 881 61
9 882 63
9 883 35
9 884 110
9 885 122
9 886 40543
9 887 62
9 888 104
9 889 128
9 890 87
9 891 48
9 892 87
9 893 76
9 894 55
9 895 9142
9 896 114
9 897 103
9 898 92
9 899 74
9 900 92
9 901 85
9 902 119
9 903 115
9 904 69
9 905 140
9 906 85
9 907 91
9 908 133
9 909 77
9 910 85
9 911 100
9 912 80
9 913 75
9 914 154
9 915 94
9 916 108
9 917 105
9 918 14358
9 919 103
9 920 111
9 921 160
9 922 61
9 923 112
9 924 130
9 925 57
9 926 78
9 927 101
9 928 106
9 929 62
9 930 59
9 931 106
9 932 73
9 933 84
9 934 91
9 935 179
9 936 71
9 937 93
9 938 44
9 939 74
9 940 84
9 941 101
9 942 147
9 943 69
9 944 123
9 945 56
9 946 69
9 947 113
9 948 99
9 949 123
9 950 60
9 951 38261
9 952 2241
9 953 53
9 954 64
9 955 179
9 956 29331
9 957 96
9 958 71
9 959 120
9 960 48
9 961 81
9 962 52
9 963 132
9 964 94
9 965 86
9 966 130
9 967 61
9 968 94
9 969 75
9 970 147
9 971 146
9 972 92
9 973 148
9 974 108
9 975 121
9 976 54
9 977 42
9 978 154
9 979 55
9 980 94
9 981 67
9 982 31
9 983 100
9 984 52
9 985 109
9 986 132
9 987 90
9 988 51
9 989 95
9 990 34
9 991 99
9 992 71
9 993 91
9 994 127
9 995 65
9 996 129
9 997 51
9 998 91
9 999 61
9 1000 129
9 1001 75
9 1002 146
9 1003 126
9 1004 45
9 1005 48
9 1006 39
9 1007 117
9 1008 49
9 1009 92
9 1010 87
9 1011 103
9 1012 98
9 1013 1287
9 1014 161
9 1015 94
9 1016 53
9 1017 80
9 1018 66
9 1019 102
9 1020 58
9 1021 55
9 1022 113
9 1023 74
9 1024 106
9 1025 76
9 1026 129
9 1027 71
9 1028 118
9 1029 127
9 1030 108
9 1031 169
9 1032 47
9 1033 75
9 1034 135
9 1035 75
9 1036 100
9 1037 126
9 1038 155
9 1039 123
9 1040 56
9 1041 173
9 1042 144
9 1043 106
9 1044 118
9 1045 136
9 1046 44
9 1047 132
9 1048 124
9 1049 81
9 1050 174
9 1051 57
9 1052 76
9 1053 74
9 1054 1427
9 1055 83
9 1056 88
9 1057 179
9 1058 86
9 1059 130
9 1060 40
9 1061 116
9 1062 80
9 1063 74
9 1064 48
9 1065 68
9 1066 65
9 1067 130
9 1068 76
9 1069 135
9 1070 57
9 1071 48
9 1072 54
9 1073 62
9 1074 72
9 1075 100
9 1076 74
9 1077 339
9 1078 65
9 1079 101
9 1080 138
9 1081 98
9 1082 98
9 1083 97
9 1084 63
9 1085 139
9 1086 113
9 1087 106
9 1088 55
9 1089 114
9 1090 49
9 1091 106
9 1092 70
9 1093 107
9 1094 89
9 1095 75
9 1096 82
9 1097 78
9 1098 47
9 1099 110
9 1100 53
9 1101 153
9 1102 227
9 1103 95
9 1104 96
9 1105 96
9 1106 80
9 1107 74
9 1108 2181
9 1109 84
9 1110 79
9 1111 58
9 1112 58
9 1113 102
9 1114 104
9 1115 150
9 1116 100
9 1117 102
9 1118 78
9 1119 73
9 1120 73
9 1121 90
9 1122 62
9 1123 248
9 1124 129
9 1125 67
9 1126 44
9 1127 107
9 1128 115
9 1129 79
9 1130 92
9 1131 105
9 1132 59
9 1133 115
9 1134 100
9 1135 81
9 1136 101
9 1137 52
9 1138 121
9 1139 1238
9 1140 21693
9 1141 99
9 1142 61
9 1143 4448
9 1144 123
9 1145 89
9 1146 83
9 1147 97
9 1148 100
9 1149 63
9 1150 119
9 1151 97
9 1152 89
9 1153 64
9 1154 81
9 1155 44
9 1156 48
9 1157 94
9 1158 121
9 1159 56
9 1160 76
9 1161 122
9 1162 55
9 1163 88
9 1164 126
9 1165 155
9 1166 69
9 1167 2485
9 1168 71
9 1169 110
9 1170 91
9 1171 65246
9 1172 45
9 1173 106
9 1174 83
9 1175 121
9 1176 9438
9 1177 189
9 1178 118
9 1179 39
9 1180 115
9 1181 101
9 1182 1737
9 1183 90
9 1184 139
9 1185 38
9 1186 96
9 1187 68
9 1188 53
9 1189 54
9 1190 81
9 1191 52
9 1192 71
9 1193 74
9 1194 48
9 1195 93
9 1196 104
9 1197 79
9 1198 118
9 1199 78
9 1200 64
9 1201 79
9 1202 78
9 1203 785
9 1204 61
9 1205 63
9 1206 70
9 1207 64
9 1208 57
9 1209 53
9 1210 59
9 1211 159
9 1212 137
9 1213 75
9 1214 90
9 1215 64
9 1216 104
9 1217 140
9 1218 121
9 1219 64
9 1220 125
9 1221 68
9 1222 107
9 1223 31
9 1224 5158
9 1225 90
9 1226 46
9 1227 94
9 1228 99
9 1229 91
9 1230 102
9 1231 135
9 1232 94
9 1233 90
9 1234 199
9 1235 119
9 1236 107
9 1237 71
9 1238 145
9 1239 17582
9 1240 84
9 1241 3853
9 1242 89
9 1243 57
9 1244 28320
9 1245 58
9 1246 89
9 1247 100
9 1248 31
9 1249 108
9 1250 82
9 1251 130
9 1252 69
9 1253 134
9 1254 209
9 1255 109
9 1256 59
9 1257 66
9 1258 182
9 1259 84
9 1260 158
9 1261 107
9 1262 116
9 1263 122
9 1264 54
9 1265 62
9 1266 84
9 1267 66
9 1268 94
9 1269 108
9 1270 108
9 1271 62
9 1272 113
9 1273 86
9 1274 137
9 1275 99
9 1276 87
9 1277 79
9 1278 56
9 1279 62
9 1280 124
9 1281 4262
9 1282 70
9 1283 62
9 1284 70
9 1285 84
9 1286 146
9 1287 87
9 1288 118
9 1289 98
9 1290 5169
9 1291 112
9 1292 42
9 1293 129
9 1294 29
9 1295 67
9 1296 55
9 1297 44
9 1298 114
9 1299 130
9 1300 190
9 1301 83
9 1302 141
9 1303 33
9 1304 44
9 1305 96
9 1306 60
9 1307 113
9 1308 77
9 1309 126
9 1310 154
9 1311 45
9 1312 73015
9 1313 65
9 1314 68
9 1315 65
9 1316 63
9 1317 136
9 1318 79
9 1319 71
9 1320 104
9 1321 67
9 1322 111
9 1323 117
9 1324 108
9 1325 78
9 1326 108
9 1327 98
9 1328 80
9 1329 53
9 1330 45
9 1331 109
9 1332 41
9 1333 81
9 1334 77
9 1335 6937
9 1336 155
9 1337 96
9 1338 89
9 1339 42
9 1340 77
9 1341 113
9 1342 93
9 1343 146
9 1344 117
9 1345 36
9 1346 21829
9 1347 102
9 1348 32
9 1349 46
9 1350 95
9 1351 67
9 1352 37
9 1353 80
9 1354 1608
9 1355 102
9 1356 24311
9 1357 89
9 1358 100
9 1359 118
9 1360 43
9 1361 35
9 1362 90
9 1363 76
9 1364 22
9 1365 115
9 1366 54
9 1367 118
9 1368 77
9 1369 70
9 1370 108
9 1371 107
9 1372 69
9 1373 77
9 1374 121
9 1375 103
9 1376 14882
9 1377 8752
9 1378 58
9 1379 82
9 1380 127
9 1381 141
9 1382 137
9 1383 88
9 1384 73
9 1385 91
9 1386 55
9 1387 104
9 1388 61
9 1389 94
9 1390 45
9 1391 64
9 1392 104
9 1393 42
9 1394 79
9 1395 123
9 1396 116
9 1397 56
9 1398 44
9 1399 53
9 1400 122
9 1401 116
9 1402 39
9 1403 82
9 1404 60
9 1405 87
9 1406 188
9 1407 74
9 1408 98
9 1409 129
9 1410 115
9 1411 98
9 1412 51
9 1413 84
9 1414 167
9 1415 70
9 1416 2176
9 1417 81463
9 1418 34
9 1419 152
9 1420 50
9 1421 36
9 1422 130
9 1423 65
9 1424 147
9 1425 101
9 1426 117
9 1427 167
9 1428 39
9 1429 89
9 1430 74
9 1431 20637
9 1432 61
9 1433 47
9 1434 75
9 1435 89
9 1436 110
9 1437 35
9 1438 53
9 1439 42
9 1440 84
9 1441 83
9 1442 121
9 1443 51
9 1444 72
9 1445 100
9 1446 43
9 1447 172
9 1448 6643
9 1449 79
9 1450 74
9 1451 53
9 1452 82
9 1453 114
9 1454 74
9 1455 48
9 1456 68
9 1457 182
9 1458 59
9 1459 89
9 1460 56
9 1461 66
9 1462 107
9 1463 87
9 1464 114
9 1465 123
9 1466 64
9 1467 122
9 1468 99
9 1469 4
9 1470 86
9 1471 57
9 1472 117
9 1473 5010
9 1474 108
9 1475 127
9 1476 87
9 1477 46
9 1478 51
9 1479 131
9 1480 140
9 1481 1065
9 1482 97
9 1483 58
9 1484 105
9 1485 101
9 1486 148
9 1487 91
9 1488 113
9 1489 298
9 1490 124
9 1491 155
9 1492 193
9 1493 99
9 1494 131
9 1495 80
9 1496 72
9 1497 129
9 1498 41
9 1499 113
9 1500 53
9 1501 97
9 1502 38
9 1503 116
9 1504 96
9 1505 129
9 1506 57
9 1507 39
9 1508 59
9 1509 73
9 1510 57
9 1511 90
9 1512 142
9 1513 83
9 1514 84
9 1515 87
9 1516 64
9 1517 50
9 1518 131
9 1519 70
9 1520 98
9 1521 2820
9 1522 92
9 1523 80
9 1524 122
9 1525 143
9 1526 133
9 1527 61
9 1528 52
9 1529 117
9 1530 89
9 1531 72
9 1532 91
9 1533 101
9 1534 123
9 1535 91
9 1536 43
9 1537 51
9 1538 56
9 1539 1213
9 1540 103
9 1541 113
9 1542 104
9 1543 96
9 1544 77
9 1545 110
9 1546 52
9 1547 126
9 1548 1707
9 1549 44
9 1550 105
9 1551 112
9 1552 63
9 1553 37
9 1554 65
9 1555 58
9 1556 2407
9 1557 69
9 1558 134
9 1559 102
9 1560 57
9 1561 131
9 1562 88
9 1563 68
9 1564 87
9 1565 169
9 1566 73
9 1567 83
9 1568 69
9 1569 111
9 1570 109
9 1571 101
9 1572 98
9 1573 106
9 1574 69
9 1575 93
9 1576 3847
9 1577 130
9 1578 210
9 1579 101
9 1580 45
9 1581 50
9 1582 94
9 1583 415
9 1584 68
9 1585 93
9 1586 63
9 1587 104
9 1588 5117
9 1589 510
9 1590 92
9 1591 95
9 1592 107
9 1593 97
9 1594 8128
9 1595 2149
9 1596 80
9 1597 65
9 1598 7389
9 1599 116
9 1600 86
9 1601 41
9 1602 61
9 1603 96
9 1604 76
9 1605 3312
9 1606 114
9 1607 75
9 1608 34385
9 1609 1888
9 1610 83
9 1611 127
9 1612 106
9 1613 56
9 1614 85
9 1615 60
9 1616 92
9 1617 68
9 1618 202
9 1619 130
9 1620 102
9 1621 86
9 1622 75
9 1623 3668
9 1624 93
9 1625 82
9 1626 279
9 1627 122
9 1628 235
9 1629 86
9 1630 108
9 1631 61
9 1632 100
9 1633 43
9 1634 777
9 1635 71
9 1636 84
9 1637 2566
9 1638 98
9 1639 8368
9 1640 112
9 1641 50
9 1642 82
9 1643 110
9 1644 22
9 1645 114
9 1646 123
9 1647 82
9 1648 51
9 1649 69
9 1650 68
9 1651 57
9 1652 234
9 1653 100
9 1654 83
9 1655 205
9 1656 58
9 1657 44
9 1658 59
9 1659 180
9 1660 105
9 1661 92
9 1662 99
9 1663 92
9 1664 160
9 1665 113
9 1666 118
9 1667 97
9 1668 159
9 1669 62
9 1670 71
9 1671 57
9 1672 130
9 1673 54
9 1674 3616
9 1675 80
9 1676 78
9 1677 29
9 1678 33
9 1679 117
9 1680 66
9 1681 700
9 1682 61
9 1683 48
9 1684 77
9 1685 103
9 1686 119
9 1687 56
9 1688 98
9 1689 75
9 1690 41
9 1691 45
9 1692 101
9 1693 114
9 1694 66
9 1695 92
9 1696 69
9 1697 90
9 1698 58
9 1699 43
9 1700 98
9 1701 108
9 1702 130
9 1703 49
9 1704 66
9 1705 39
9 1706 88
9 1707 31
9 1708 71
9 1709 64
9 1710 95
9 1711 23
9 1712 97
9 1713 68
9 1714 68
9 1715 47
9 1716 62
9 1717 44
9 1718 63
9 1719 70
9 1720 91
9 1721 94
9 1722 78
9 1723 25
9 1724 123
9 1725 61
9 1726 44
9 1727 81
9 1728 114
9 1729 63
9 1730 87
9 1731 43
9 1732 73
9 1733 81
9 1734 45
9 1735 178
9 1736 83
9 1737 79
9 1738 126
9 1739 79
9 1740 130
9 1741 53
9 1742 69
9 1743 56
9 1744 56
9 1745 84
9 1746 61
9 1747 69
9 1748 45
9 1749 117
9 1750 91
9 1751 34
9 1752 96
9 1753 68
9 1754 160
9 1755 94
9 1756 90
9 1757 123
9 1758 90
9 1759 39
9 1760 97
9 1761 175
9 1762 85
9 1763 78
9 1764 50
9 1765 69
9 1766 41
9 1767 159
9 1768 111
9 1769 75
9 1770 98
9 1771 54
9 1772 111
9 1773 753
9 1774 55
9 1775 2548
9 1776 69
9 1777 78
9 1778 155
9 1779 8749
9 1780 45
9 1781 662
9 1782 76
9 1783 1897
9 1784 54
9 1785 50
9 1786 107
9 1787 79
9 1788 48
9 1789 177
9 1790 99
9 1791 16542
9 1792 115
9 1793 76
9 1794 3374
9 1795 84
9 1796 45
9 1797 232
9 1798 75
9 1799 45
9 1800 88
9 1801 79
9 1802 52
9 1803 84
9 1804 109
9 1805 67
9 1806 77
9 1807 62
9 1808 52
9 1809 96
9 1810 75
9 1811 82
9 1812 57
9 1813 66
9 1814 87
9 1815 19088
9 1816 95
9 1817 43
9 1818 52
9 1819 92
9 1820 113
9 1821 63
9 1822 72
9 1823 88
9 1824 72
9 1825 105
9 1826 42
9 1827 78
9 1828 57
9 1829 138
9 1830 172
9 1831 100
9 1832 67
9 1833 87
9 1834 80
9 1835 57
9 1836 48
9 1837 82
9 1838 42
9 1839 75
9 1840 73
9 1841 73
9 1842 74
9 1843 108
9 1844 171
9 1845 125
9 1846 124
9 1847 373
9 1848 71
9 1849 33
9 1850 52
9 1851 84
9 1852 57
9 1853 99
9 1854 108
9 1855 51
9 1856 4995
9 1857 74
9 1858 71
9 1859 4673
9 1860 127
9 1861 2957
9 1862 3420
9 1863 65
9 1864 44
9 1865 72
9 1866 124
9 1867 75
9 1868 54
9 1869 112
9 1870 2588
9 1871 152
9 1872 103
9 1873 56
9 1874 3516
9 1875 94
9 1876 5451
9 1877 99
9 1878 35
9 1879 56
9 1880 59
9 1881 92
9 1882 25
9 1883 66
9 1884 119
9 1885 141
9 1886 91
9 1887 782
9 1888 58
9 1889 49
9 1890 69
9 1891 116
9 1892 78
9 1893 67
9 1894 49
9 1895 48
9 1896 67
9 1897 102
9 1898 64
9 1899 44
9 1900 72
9 1901 114
9 1902 93
9 1903 99
9 1904 121
9 1905 39
9 1906 92
9 1907 84
9 1908 89
9 1909 106
9 1910 119
9 1911 88
9 1912 72
9 1913 85
9 1914 1865
9 1915 43
9 1916 73
9 1917 88
9 1918 68
9 1919 46
9 1920 64
9 1921 71
9 1922 49
9 1923 31
9 1924 57
9 1925 73
9 1926 54
9 1927 64
9 1928 62
9 1929 44
9 1930 87
9 1931 65
9 1932 70
9 1933 101
9 1934 109
9 1935 113
9 1936 72
9 1937 23239
9 1938 89
9 1939 141
9 1940 101
9 1941 76
9 1942 83
9 1943 34
9 1944 46
9 1945 160
9 1946 87
9 1947 100
9 1948 62
9 1949 4374
9 1950 57
9 1951 80
9 1952 60
9 1953 80
9 1954 9674
9 1955 89
9 1956 81
9 1957 61
9 1958 84
9 1959 51
9 1960 61
9 1961 74
9 1962 18137
9 1963 52
9 1964 60
9 1965 159
9 1966 73
9 1967 79
9 1968 130
9 1969 125
9 1970 91
9 1971 345
9 1972 58
9 1973 37
9 1974 61
9 1975 72
9 1976 44
9 1977 107
9 1978 97
9 1979 84
9 1980 86
9 1981 1132
9 1982 2475
9 1983 68
9 1984 76
9 1985 58
9 1986 67
9 1987 60
9 1988 121
9 1989 51
9 1990 53
9 1991 105
9 1992 117
9 1993 91
9 1994 128
9 1995 76
9 1996 66
9 1997 108
9 1998 87
9 1999 56
9 2000 98
9 2001 90
9 2002 108
9 2003 65
9 2004 60
9 2005 104
9 2006 92
9 2007 34
9 2008 47
9 2009 5052
9 2010 315
9 2011 114
9 2012 83
9 2013 67
9 2014 32
9 2015 131
9 2016 48
9 2017 99
9 2018 54
9 2019 139
9 2020 96
9 2021 79
9 2022 98
9 2023 122
9 2024 51
9 2025 112
9 2026 164
9 2027 2463
9 2028 1610
9 2029 52
9 2030 90
9 2031 65
9 2032 94
9 2033 81
9 2034 32
9 2035 76
9 2036 66
9 2037 51
9 2038 101
9 2039 81
9 2040 119
9 2041 66
9 2042 91
9 2043 102
9 2044 97
9 2045 97
9 2046 76
9 2047 135
9 2048 74
9 2049 117
9 2050 70
9 2051 98
9 2052 61
9 2053 2292
9 2054 102
9 2055 27
9 2056 91
9 2057 77
9 2058 52
9 2059 45
9 2060 86
9 2061 61
9 2062 10060
9 2063 259
9 2064 39
9 2065 75
9 2066 77
9 2067 57
9 2068 95
9 2069 59
9 2070 138
9 2071 88
9 2072 66
9 2073 117
9 2074 1495
9 2075 96
9 2076 61
9 2077 122
9 2078 65
9 2079 64
9 2080 113
9 2081 60
9 2082 74
9 2083 832
9 2084 101
9 2085 46
9 2086 118
9 2087 88
9 2088 101
9 2089 68
9 2090 42
9 2091 68
9 2092 71
9 2093 90
9 2094 83
9 2095 5
9 2096 108
9 2097 1548
9 2098 76
9 2099 67
9 2100 150
9 2101 50
9 2102 519
9 2103 93
9 2104 43
9 2105 68
9 2106 84
9 2107 94
9 2108 78
9 2109 39
9 2110 63
9 2111 60
9 2112 90
9 2113 88
9 2114 75
9 2115 73
9 2116 92
9 2117 80
9 2118 68
9 2119 106
9 2120 90
9 2121 61
9 2122 52
9 2123 85
9 2124 103
9 2125 1187
9 2126 80
9 2127 112
9 2128 54
9 2129 124
9 2130 101
9 2131 98
9 2132 103
9 2133 21132
9 2134 46
9 2135 158
9 2136 93
9 2137 29
9 2138 114
9 2139 92
9 2140 94
9 2141 67
9 2142 115
9 2143 115
9 2144 170
9 2145 100
9 2146 88
9 2147 78
9 2148 122
9 2149 96
9 2150 103
9 2151 55
9 2152 55
9 2153 91
9 2154 58
9 2155 56
9 2156 84
9 2157 101
9 2158 77
9 2159 80
9 2160 33
9 2161 11
9 2162 81
9 2163 85
9 2164 150
9 2165 89
9 2166 3865
9 2167 113
9 2168 50
9 2169 191
9 2170 38
9 2171 92
9 2172 98
9 2173 80
9 2174 106
9 2175 94
9 2176 70
9 2177 83
9 2178 49
9 2179 99
9 2180 76
9 2181 90
9 2182 41
9 2183 147
9 2184 46
9 2185 106
9 2186 118
9 2187 78
9 2188 79
9 2189 102
9 2190 118
9 2191 115
9 2192 72
9 2193 7278
9 2194 97
9 2195 103
9 2196 53
9 2197 5044
9 2198 46
9 2199 86
9 2200 132
9 2201 72
9 2202 75
9 2203 997
9 2204 63
9 2205 119
9 2206 58
9 2207 104
9 2208 58
9 2209 59
9 2210 73
9 2211 74
9 2212 112
9 2213 46
9 2214 3606
9 2215 93
9 2216 89
9 2217 46
9 2218 84
9 2219 136
9 2220 161
9 2221 79
9 2222 91
9 2223 39
9 2224 46
9 2225 52
9 2226 76
9 2227 70
9 2228 63
9 2229 43
9 2230 161
9 2231 70
9 2232 73
9 2233 71
9 2234 76
9 2235 83
9 2236 83
9 2237 92
9 2238 4102
9 2239 109
9 2240 60
9 2241 23
9 2242 89
9 2243 76
9 2244 129
9 2245 95
9 2246 121
9 2247 66
9 2248 128
9 2249 111
9 2250 89
9 2251 44
9 2252 106
9 2253 103
9 2254 61
9 2255 89
9 2256 132
9 2257 55
9 2258 33
9 2259 74
9 2260 30
9 2261 54
9 2262 116
9 2263 101
9 2264 41
9 2265 85
9 2266 54
9 2267 111
9 2268 119
9 2269 118
9 2270 46
9 2271 100
9 2272 89
9 2273 121
9 2274 36
9 2275 105
9 2276 51
9 2277 44
9 2278 62
9 2279 73
9 2280 80
9 2281 56
9 2282 87
9 2283 142
9 2284 43
9 2285 67
9 2286 42
9 2287 85
9 2288 63
9 2289 126
9 2290 103
9 2291 51
9 2292 71
9 2293 63
9 2294 22
9 2295 117
9 2296 97
9 2297 112
9 2298 161
9 2299 95
9 2300 56
9 2301 48
9 2302 56
9 2303 73
9 2304 82
9 2305 4537
9 2306 71
9 2307 101
9 2308 46
9 2309 92
9 2310 90
9 2311 104
9 2312 110
9 2313 50
9 2314 60
9 2315 132
9 2316 92
9 2317 100
9 2318 81
9 2319 72
9 2320 108
9 2321 105
9 2322 153
9 2323 96
9 2324 176
9 2325 72
9 2326 89
9 2327 2898
9 2328 76
9 2329 139
9 2330 33
9 2331 2264
9 2332 98
9 2333 50
9 2334 314
9 2335 53
9 2336 144
9 2337 49
9 2338 68
9 2339 110
9 2340 58
9 2341 91
9 2342 101
9 2343 63
9 2344 158
9 2345 70
9 2346 89
9 2347 77
9 2348 212
9 2349 3280
9 2350 80
9 2351 55
9 2352 61
9 2353 71
9 2354 94
9 2355 132
9 2356 51
9 2357 84
9 2358 101
9 2359 112
9 2360 79
9 2361 36
9 2362 64
9 2363 102
9 2364 25
9 2365 77
9 2366 42
9 2367 48
9 2368 70
9 2369 70
9 2370 67
9 2371 111
9 2372 108
9 2373 3394
9 2374 112
9 2375 139
9 2376 166
9 2377 78
9 2378 159
9 2379 101
9 2380 1576
9 2381 163
9 2382 221
9 2383 63
9 2384 54
9 2385 101
9 2386 30724
9 2387 44
9 2388 86
9 2389 34
9 2390 96
9 2391 116
9 2392 63
9 2393 72
9 2394 201
9 2395 69
9 2396 6612
9 2397 952
9 2398 85
9 2399 118
9 2400 99
9 2401 121
9 2402 84
9 2403 60
9 2404 67
9 2405 61
9 2406 106
9 2407 53
9 2408 73
9 2409 51
9 2410 73
9 2411 132
9 2412 50
9 2413 97
9 2414 69
9 2415 68
9 2416 67
9 2417 189
9 2418 16
9 2419 104
9 2420 79
9 2421 96
9 2422 88
9 2423 43
9 2424 109
9 2425 121
9 2426 141
9 2427 133
9 2428 89
9 2429 68
9 2430 68
9 2431 97
9 2432 48
9 2433 90
9 2434 80
9 2435 57
9 2436 86
9 2437 52
9 2438 126
9 2439 52
9 2440 147
9 2441 115
9 2442 44
9 2443 82
9 2444 114
9 2445 63
9 2446 2601
9 2447 180
9 2448 89
9 2449 101
9 2450 81
9 2451 161
9 2452 47
9 2453 76
9 2454 57
9 2455 202
9 2456 47
9 2457 62
9 2458 42
9 2459 64
9 2460 60
9 2461 31
9 2462 60
9 2463 66
9 2464 92
9 2465 115
9 2466 60
9 2467 2542
9 2468 116
9 2469 48
9 2470 75
9 2471 67
9 2472 41
9 2473 87
9 2474 61
9 2475 96
9 2476 63
9 2477 103
9 2478 120
9 2479 117
9 2480 106
9 2481 61
9 2482 109
9 2483 87
9 2484 119
9 2485 53
9 2486 3000
9 2487 131
9 2488 86
9 2489 113
9 2490 40
9 2491 29
9 2492 54
9 2493 98
9 2494 94
9 2495 78
9 2496 721
9 2497 160
9 2498 66
9 2499 95
9 2500 40
9 2501 107
9 2502 6961
9 2503 24
9 2504 123
9 2505 122
9 2506 50
9 2507 73
9 2508 122
9 2509 95
9 2510 111
9 2511 52
9 2512 45
9 2513 73
9 2514 134
9 2515 66
9 2516 69
9 2517 36
9 2518 2594
9 2519 162
9 2520 64
9 2521 90
9 2522 53
9 2523 57
9 2524 101
9 2525 77
9 2526 2088
9 2527 31
9 2528 53
9 2529 62
9 2530 58
9 2531 47
9 2532 117
9 2533 55
9 2534 47
9 2535 114
9 2536 113
9 2537 150
9 2538 49
9 2539 63
9 2540 70
9 2541 124
9 2542 71
9 2543 47
9 2544 5843
9 2545 56
9 2546 56
9 2547 121
9 2548 83
9 2549 63
9 2550 65
9 2551 72
9 2552 97
9 2553 121
9 2554 72
9 2555 50
9 2556 376
9 2557 79
9 2558 50
9 2559 43
9 2560 54
9 2561 50
9 2562 55
9 2563 83
9 2564 75
9 2565 54
9 2566 60
9 2567 87
9 2568 56
9 2569 82
9 2570 103
9 2571 50
9 2572 71
9 2573 126
9 2574 35
9 2575 108
9 2576 62
9 2577 77
9 2578 59
9 2579 99
9 2580 116
9 2581 88
9 2582 435
9 2583 172
9 2584 71
9 2585 51
9 2586 111
9 2587 109
9 2588 97
9 2589 61
9 2590 92
9 2591 51
9 2592 42
9 2593 87
9 2594 80
9 2595 65
9 2596 132
9 2597 114
9 2598 80
9 2599 132
9 2600 89
9 2601 106
9 2602 48
9 2603 52
9 2604 46
9 2605 58
9 2606 234
9 2607 41
9 2608 37
9 2609 36
9 2610 72
9 2611 80
9 2612 68
9 2613 43
9 2614 88
9 2615 136
9 2616 129
9 2617 36
9 2618 31
9 2619 121
9 2620 136
9 2621 31
9 2622 67
9 2623 36
9 2624 54
9 2625 88
9 2626 61
9 2627 46
9 2628 74
9 2629 115
9 2630 102
9 2631 51
9 2632 43
9 2633 135
9 2634 81
9 2635 12081
9 2636 84
9 2637 85
9 2638 212
9 2639 44
9 2640 57
9 2641 2740
9 2642 97
9 2643 206
9 2644 112
9 2645 88
9 2646 55
9 2647 61
9 2648 37
9 2649 101
9 2650 76
9 2651 126
9 2652 47
9 2653 35
9 2654 46
9 2655 83
9 2656 42
9 2657 61
9 2658 138
9 2659 73
9 2660 169
9 2661 79
9 2662 113
9 2663 99
9 2664 58
9 2665 18
9 2666 77
9 2667 61
9 2668 1
9 2669 47
9 2670 110
9 2671 120
9 2672 87
9 2673 57
9 2674 42
9 2675 74
9 2676 118
9 2677 48
9 2678 81
9 2679 250
9 2680 59
9 2681 132
9 2682 120
9 2683 88
9 2684 54
9 2685 4237
9 2686 198
9 2687 135
9 2688 41
9 2689 42
9 2690 64
9 2691 118
9 2692 99
9 2693 64
9 2694 3768
9 2695 43
9 2696 45
9 2697 71
9 2698 79
9 2699 112
9 2700 87
9 2701 26
9 2702 121
9 2703 66
9 2704 114
9 2705 81
9 2706 36
9 2707 73
9 2708 382
9 2709 482
9 2710 53
9 2711 109
9 2712 62
9 2713 94
9 2714 1216
9 2715 116
9 2716 61
9 2717 74
9 2718 40
9 2719 248
9 2720 81
9 2721 96
9 2722 82
9 2723 60
9 2724 95
9 2725 73
9 2726 116
9 2727 117
9 2728 96
9 2729 63
9 2730 61
9 2731 74
9 2732 56
9 2733 94
9 2734 102
9 2735 88
9 2736 698
9 2737 93
9 2738 45
9 2739 90
9 2740 54
9 2741 85
9 2742 148
9 2743 66
9 2744 99
9 2745 2150
9 2746 44
9 2747 60
9 2748 113
9 2749 44
9 2750 33
9 2751 62
9 2752 48
9 2753 66
9 2754 69
9 2755 48
9 2756 49
9 2757 61
9 2758 63
9 2759 96
9 2760 123
9 2761 87
9 2762 64
9 2763 61
9 2764 62
9 2765 76
9 2766 57
9 2767 132
9 2768 119
9 2769 88
9 2770 71
9 2771 92
9 2772 38
9 2773 149
9 2774 60
9 2775 78
9 2776 647
9 2777 87
9 2778 94
9 2779 42
9 2780 146
9 2781 62
9 2782 46
9 2783 86
9 2784 121
9 2785 73
9 2786 52
9 2787 230
9 2788 71
9 2789 56
9 2790 29
9 2791 134
9 2792 75
9 2793 85
9 2794 63
9 2795 131
9 2796 125
9 2797 88
9 2798 207
9 2799 81
9 2800 117
9 2801 116
9 2802 119
9 2803 51
9 2804 28
9 2805 58
9 2806 61
9 2807 59
9 2808 102
9 2809 89
9 2810 113
9 2811 63
9 2812 92
9 2813 122
9 2814 110
9 2815 83
9 2816 60
9 2817 48
9 2818 7
9 2819 94
9 2820 56
9 2821 2273
9 2822 69
9 2823 66
9 2824 422
9 2825 73
9 2826 81
9 2827 50
9 2828 129
9 2829 3099
9 2830 78
9 2831 120
9 2832 80
9 2833 64
9 2834 162
9 2835 110
9 2836 952
9 2837 3271
9 2838 71
9 2839 105
9 2840 49
9 2841 74
9 2842 97
9 2843 40
9 2844 40
9 2845 89
9 2846 72
9 2847 42
9 2848 44
9 2849 89
9 2850 111
9 2851 82
9 2852 63
9 2853 88
9 2854 43
9 2855 969
9 2856 100
9 2857 47
9 2858 86
9 2859 41
9 2860 82
9 2861 106
9 2862 39
9 2863 78
9 2864 129
9 2865 65
9 2866 114
9 2867 91
9 2868 69
9 2869 45
9 2870 110
9 2871 114
9 2872 50
9 2873 19
9 2874 125
9 2875 117
9 2876 57
9 2877 114
9 2878 52
9 2879 142
9 2880 130
9 2881 54
9 2882 141
9 2883 105
9 2884 79
9 2885 62
9 2886 77
9 2887 102
9 2888 1613
9 2889 34
9 2890 91
9 2891 47
9 2892 70
9 2893 55
9 2894 122
9 2895 73
9 2896 72
9 2897 71
9 2898 107
9 2899 95
9 2900 67
9 2901 32
9 2902 103
9 2903 122
9 2904 88
9 2905 86
9 2906 102
9 2907 74
9 2908 98
9 2909 40
9 2910 56
9 2911 2785
9 2912 80
9 2913 10751
9 2914 93
9 2915 75
9 2916 113
9 2917 118
9 2918 114
9 2919 51
9 2920 119
9 2921 150
9 2922 175
9 2923 37
9 2924 81
9 2925 2618
9 2926 94
9 2927 71
9 2928 68
9 2929 107
9 2930 60
9 2931 49
9 2932 45
9 2933 94
9 2934 59
9 2935 124
9 2936 45
9 2937 65
9 2938 67
9 2939 37
9 2940 7748
9 2941 110
9 2942 59
9 2943 65
9 2944 57
9 2945 67
9 2946 81
9 2947 147
9 2948 75
9 2949 54
9 2950 89
9 2951 71
9 2952 65
9 2953 43
9 2954 86
9 2955 91
9 2956 66
9 2957 27
9 2958 75
9 2959 1728
9 2960 6059
9 2961 110
9 2962 68
9 2963 52
9 2964 64
9 2965 49
9 2966 41
9 2967 2808
9 2968 44
9 2969 68
9 2970 100
9 2971 47
9 2972 67
9 2973 42
9 2974 106
9 2975 61
9 2976 2421
9 2977 1201
9 2978 85
9 2979 80
9 2980 68
9 2981 7262
9 2982 75
9 2983 83
9 2984 36
9 2985 49
9 2986 33
9 2987 7
9 2988 44
9 2989 75
9 2990 359
9 2991 67
9 2992 86
9 2993 59
9 2994 117
9 2995 233
9 2996 121
9 2997 65
9 2998 117
9 2999 63
9 3000 76
9 3001 61
9 3002 98
9 3003 10309
9 3004 81
9 3005 70
9 3006 54
9 3007 67
9 3008 161
9 3009 41
9 3010 66
9 3011 28
9 3012 2391
9 3013 110
9 3014 72
9 3015 108
9 3016 56
9 3017 144
9 3018 57
9 3019 111
9 3020 43
9 3021 93
9 3022 90
9 3023 111
9 3024 102
9 3025 84
9 3026 75
9 3027 87
9 3028 37
9 3029 22
9 3030 168
9 3031 58
9 3032 84
9 3033 788
9 3034 50
9 3035 106
9 3036 96
9 3037 95
9 3038 70
9 3039 47
9 3040 46
9 3041 50
9 3042 138
9 3043 78
9 3044 61
9 3045 150
9 3046 47
9 3047 107
9 3048 80
9 3049 53
9 3050 40
9 3051 97
9 3052 203
9 3053 75
9 3054 24
9 3055 90
9 3056 96
9 3057 33
9 3058 1322
9 3059 65
9 3060 129
9 3061 53
9 3062 84
9 3063 152
9 3064 58
9 3065 101
9 3066 41
9 3067 129
9 3068 42
9 3069 592
9 3070 63
9 3071 114
9 3072 78
9 3073 31
9 3074 83
9 3075 41
9 3076 124
9 3077 59
9 3078 78
9 3079 67
9 3080 99
9 3081 127
9 3082 46
9 3083 137
9 3084 90
9 3085 48
9 3086 67
9 3087 57
9 3088 10
9 3089 68
9 3090 107
9 3091 91
9 3092 51
9 3093 107
9 3094 61
9 3095 38
9 3096 61
9 3097 105
9 3098 50
9 3099 43
9 3100 95
9 3101 54
9 3102 127
9 3103 63
9 3104 97
9 3105 180
9 3106 51
9 3107 132
9 3108 48
9 3109 57
9 3110 115
9 3111 99
9 3112 83
9 3113 116
9 3114 49
9 3115 96
9 3116 87
9 3117 131
9 3118 40
9 3119 105
9 3120 104
9 3121 40
9 3122 129
9 3123 76
9 3124 96
9 3125 97
9 3126 37
9 3127 363
9 3128 69
9 3129 56
9 3130 54
9 3131 758
9 3132 124
9 3133 105
9 3134 86
9 3135 85
9 3136 122
9 3137 879
9 3138 43
9 3139 61
9 3140 108
9 3141 96
9 3142 114
9 3143 177
9 3144 65
9 3145 66
9 3146 84
9 3147 64
9 3148 47
9 3149 67
9 3150 107
9 3151 37
9 3152 101
9 3153 111
9 3154 72
9 3155 123
9 3156 18
9 3157 3043
9 3158 109
9 3159 83
9 3160 66
9 3161 61
9 3162 73
9 3163 1263
9 3164 158
9 3165 66
9 3166 90
9 3167 52
9 3168 83
9 3169 106
9 3170 57
9 3171 63
9 3172 62
9 3173 120
9 3174 89
9 3175 62
9 3176 41
9 3177 50
9 3178 46
9 3179 66
9 3180 1268
9 3181 71
9 3182 122
9 3183 44
9 3184 66
9 3185 150
9 3186 19
9 3187 69
9 3188 66
9 3189 99
9 3190 60
9 3191 80
9 3192 87
9 3193 73
9 3194 49
9 3195 41
9 3196 90
9 3197 81
9 3198 69
9 3199 57
9 3200 127
9 3201 117
9 3202 113
9 3203 42
9 3204 43
9 3205 55
9 3206 98
9 3207 98
9 3208 121
9 3209 35
9 3210 56
9 3211 17531
9 3212 71
9 3213 69
9 3214 48
9 3215 39
9 3216 72
9 3217 74
9 3218 82
9 3219 86
9 3220 60
9 3221 79
9 3222 103
9 3223 74
9 3224 65
9 3225 67
9 3226 40
9 3227 118
9 3228 86
9 3229 48
9 3230 45
9 3231 115
9 3232 436
9 3233 64
9 3234 42
9 3235 90
9 3236 52
9 3237 70
9 3238 35
9 3239 70
9 3240 1517
9 3241 135
9 3242 81
9 3243 106
9 3244 107
9 3245 64
9 3246 89
9 3247 125
9 3248 35
9 3249 60
9 3250 107
9 3251 121
9 3252 85
9 3253 81
9 3254 40
9 3255 102
9 3256 65
9 3257 78
9 3258 59
9 3259 109
9 3260 64
9 3261 72
9 3262 66
9 3263 113
9 3264 74
9 3265 62
9 3266 110
9 3267 4693
9 3268 71
9 3269 80
9 3270 69
9 3271 62
9 3272 65
9 3273 61
9 3274 60
9 3275 1215
9 3276 74
9 3277 224
9 3278 150
9 3279 46
9 3280 51
9 3281 130
9 3282 71
9 3283 58
9 3284 86
9 3285 77
9 3286 52
9 3287 101
9 3288 142
9 3289 28
9 3290 122
9 3291 40
9 3292 58
9 3293 2057
9 3294 83
9 3295 98
9 3296 73
9 3297 106
9 3298 96
9 3299 70
9 3300 95
9 3301 126
9 3302 85
9 3303 81
9 3304 99
9 3305 3514
9 3306 95
9 3307 70
9 3308 61
9 3309 70
9 3310 49
9 3311 853
9 3312 166
9 3313 60
9 3314 112
9 3315 73
9 3316 76
9 3317 71
9 3318 113
9 3319 54
9 3320 121
9 3321 74
9 3322 171
9 3323 63
9 3324 116
9 3325 281
9 3326 45
9 3327 23
9 3328 55
9 3329 74
9 3330 83
9 3331 95
9 3332 73
9 3333 88
9 3334 46
9 3335 74
9 3336 104
9 3337 60
9 3338 54
9 3339 78
9 3340 67
9 3341 72
9 3342 104
9 3343 66
9 3344 38
9 3345 52
9 3346 97
9 3347 114
9 3348 100
9 3349 77
9 3350 60
9 3351 79
9 3352 70
9 3353 64
9 3354 51
9 3355 121
9 3356 83
9 3357 65
9 3358 107
9 3359 60
9 3360 86
9 3361 87
9 3362 41
9 3363 59
9 3364 65
9 3365 101
9 3366 122
9 3367 62
9 3368 63
9 3369 5
9 3370 4692
9 3371 63
9 3372 85
9 3373 84
9 3374 78
9 3375 69
9 3376 345
9 3377 48
9 3378 58
9 3379 50
9 3380 112
9 3381 69
9 3382 58
9 3383 67
9 3384 77
9 3385 73
9 3386 70
9 3387 108
9 3388 100
9 3389 38
9 3390 139
9 3391 78
9 3392 165
9 3393 963
9 3394 61
9 3395 70
9 3396 127
9 3397 52
9 3398 105
9 3399 56
9 3400 73
9 3401 85
9 3402 70
9 3403 107
9 3404 27
9 3405 129
9 3406 86
9 3407 114
9 3408 53
9 3409 51
9 3410 39
9 3411 23
9 3412 115
9 3413 48
9 3414 74
9 3415 84
9 3416 56
9 3417 39
9 3418 99
9 3419 20
9 3420 5999
9 3421 112
9 3422 205
9 3423 31
9 3424 63
9 3425 116
9 3426 61
9 3427 637
9 3428 46
9 3429 146
9 3430 74
9 3431 72
9 3432 73
9 3433 108
9 3434 55
9 3435 50
9 3436 101
9 3437 90
9 3438 62
9 3439 151
9 3440 83
9 3441 87
9 3442 56
9 3443 1808
9 3444 47
9 3445 65
9 3446 117
9 3447 98
9 3448 36
9 3449 49
9 3450 84
9 3451 34
9 3452 8
9 3453 78
9 3454 51
9 3455 67
9 3456 91
9 3457 169
9 3458 78
9 3459 47
9 3460 73
9 3461 67
9 3462 52
9 3463 45
9 3464 40
9 3465 45
9 3466 66
9 3467 130
9 3468 35
9 3469 62
9 3470 52
9 3471 71
9 3472 42
9 3473 38
9 3474 77
9 3475 50
9 3476 54
9 3477 27
9 3478 35
9 3479 50
9 3480 80
9 3481 54
9 3482 53
9 3483 94
9 3484 67
9 3485 58
9 3486 93
9 3487 76
9 3488 60
9 3489 63
9 3490 70
9 3491 568
9 3492 37
9 3493 92
9 3494 45
9 3495 58
9 3496 26
9 3497 77
9 3498 84
9 3499 149
9 3500 98
9 3501 47
9 3502 408
9 3503 67
9 3504 77
9 3505 78
9 3506 54
9 3507 51
9 3508 131
9 3509 58
9 3510 98
9 3511 42
9 3512 103
9 3513 62
9 3514 103
9 3515 142
9 3516 133
9 3517 56
9 3518 1424
9 3519 99
9 3520 69
9 3521 90
9 3522 87
9 3523 226
9 3524 67
9 3525 40
9 3526 106
9 3527 92
9 3528 47
9 3529 72
9 3530 89
9 3531 89
9 3532 69
9 3533 88
9 3534 127
9 3535 73
9 3536 108
9 3537 43
9 3538 299
9 3539 87
9 3540 47
9 3541 76
9 3542 88
9 3543 39
9 3544 87
9 3545 62
9 3546 60
9 3547 111
9 3548 46
9 3549 42
9 3550 82
9 3551 95
9 3552 86
9 3553 111
9 3554 1742
9 3555 74
9 3556 92
9 3557 101
9 3558 84
9 3559 147
9 3560 50
9 3561 47
9 3562 2083
9 3563 108
9 3564 79
9 3565 107
9 3566 123
9 3567 105
9 3568 48
9 3569 88
9 3570 53
9 3571 106
9 3572 54
9 3573 74
9 3574 95
9 3575 86
9 3576 68
9 3577 132
9 3578 57
9 3579 35
9 3580 72
9 3581 136
9 3582 50
9 3583 130
9 3584 102
9 3585 61
9 3586 64
9 3587 35
9 3588 49
9 3589 35
9 3590 119
9 3591 2477
9 3592 98
9 3593 1689
9 3594 68
9 3595 51
9 3596 89
9 3597 142
9 3598 96
9 3599 91
9 3600 80
9 3601 32
9 3602 75
9 3603 51
9 3604 69
9 3605 104
9 3606 66
9 3607 66
9 3608 123
9 3609 50
9 3610 60
9 3611 52
9 3612 83
9 3613 71
9 3614 97
9 3615 109
9 3616 1978
9 3617 1795
9 3618 73
9 3619 67
9 3620 59
9 3621 64
9 3622 122
9 3623 84
9 3624 60
9 3625 115
9 3626 100
9 3627 77
9 3628 66
9 3629 72
9 3630 49
9 3631 101
9 3632 65
9 3633 120
9 3634 77
9 3635 85
9 3636 50
9 3637 75
9 3638 60
9 3639 52
9 3640 65
9 3641 76
9 3642 127
9 3643 52
9 3644 83
9 3645 378
9 3646 3377
9 3647 56
9 3648 114
9 3649 49
9 3650 55
9 3651 155
9 3652 74
9 3653 43
9 3654 68
9 3655 28
9 3656 110
9 3657 79
9 3658 92
9 3659 112
9 3660 52
9 3661 81
9 3662 103
9 3663 103
9 3664 78
9 3665 51
9 3666 59
9 3667 47
9 3668 59
9 3669 1251
9 3670 91
9 3671 60
9 3672 166
9 3673 63
9 3674 5312
9 3675 56
9 3676 37
9 3677 103
9 3678 40
9 3679 72
9 3680 1596
9 3681 94
9 3682 80
9 3683 62
9 3684 575
9 3685 109
9 3686 61
9 3687 54
9 3688 65
9 3689 1501
9 3690 103
9 3691 50
9 3692 45
9 3693 101
9 3694 134
9 3695 781
9 3696 110
9 3697 79
9 3698 6
9 3699 62
9 3700 100
9 3701 1531
9 3702 98
9 3703 103
9 3704 102
9 3705 83
9 3706 38
9 3707 99
9 3708 611
9 3709 85
9 3710 110
9 3711 71
9 3712 52
9 3713 100
9 3714 95
9 3715 68
9 3716 91
9 3717 59
9 3718 61
9 3719 37
9 3720 78
9 3721 54
9 3722 80
9 3723 44
9 3724 38
9 3725 57
9 3726 131
9 3727 51
9 3728 88
9 3729 78
9 3730 54
9 3731 94
9 3732 92
9 3733 101
9 3734 50
9 3735 37
9 3736 139
9 3737 47
9 3738 88
9 3739 63
9 3740 87
9 3741 30
9 3742 106
9 3743 62
9 3744 92
9 3745 61
9 3746 52
9 3747 99
9 3748 45
9 3749 45
9 3750 56
9 3751 75
9 3752 69
9 3753 802
9 3754 42
9 3755 61
9 3756 92
9 3757 150
9 3758 39
9 3759 64
9 3760 117
9 3761 85
9 3762 87
9 3763 77
9 3764 63
9 3765 51
9 3766 57
9 3767 53
9 3768 103
9 3769 102
9 3770 57
9 3771 55
9 3772 61
9 3773 46
9 3774 58
9 3775 67
9 3776 106
9 3777 57
9 3778 79
9 3779 29
9 3780 73
9 3781 74
9 3782 55
9 3783 57
9 3784 50
9 3785 61
9 3786 46
9 3787 66
9 3788 100
9 3789 91
9 3790 75
9 3791 69
9 3792 103
9 3793 1439
9 3794 54
9 3795 67
9 3796 100
9 3797 98
9 3798 2440
9 3799 114
9 3800 122
9 3801 121
9 3802 38
9 3803 30
9 3804 47
9 3805 91
9 3806 63
9 3807 59
9 3808 61
9 3809 96
9 3810 61
9 3811 93
9 3812 44
9 3813 36
9 3814 126
9 3815 72
9 3816 117
9 3817 60
9 3818 81
9 3819 84
9 3820 76
9 3821 34
9 3822 84
9 3823 2401
9 3824 96
9 3825 94
9 3826 57
9 3827 74
9 3828 70
9 3829 41
9 3830 49
9 3831 84
9 3832 44
9 3833 240
9 3834 37
9 3835 45
9 3836 83
9 3837 207
9 3838 135
9 3839 63
9 3840 50
9 3841 35
9 3842 65
9 3843 98
9 3844 154
9 3845 83
9 3846 76
9 3847 147
9 3848 46
9 3849 68
9 3850 54
9 3851 87
9 3852 39
9 3853 46
9 3854 58
9 3855 75
9 3856 105
9 3857 77
9 3858 82
9 3859 642
9 3860 82
9 3861 56
9 3862 57
9 3863 82
9 3864 37
9 3865 22
9 3866 103
9 3867 183
9 3868 100
9 3869 129
9 3870 106
9 3871 94
9 3872 77
9 3873 81
9 3874 31
9 3875 61
9 3876 90
9 3877 88
9 3878 44
9 3879 52
9 3880 4
9 3881 561
9 3882 77
9 3883 78
9 3884 59
9 3885 1647
9 3886 2
9 3887 73
9 3888 68
9 3889 83
9 3890 107
9 3891 95
9 3892 91
9 3893 76
9 3894 47
9 3895 31
9 3896 81
9 3897 2550
9 3898 62
9 3899 159
9 3900 92
9 3901 46
9 3902 106
9 3903 82
9 3904 137
9 3905 81
9 3906 129
9 3907 82
9 3908 33
9 3909 51
9 3910 145
9 3911 43
9 3912 19
9 3913 53
9 3914 54
9 3915 99
9 3916 22
9 3917 96
9 3918 93
9 3919 57
9 3920 93
9 3921 40
9 3922 43
9 3923 79
9 3924 51
9 3925 18
9 3926 137
9 3927 49
9 3928 36
9 3929 71
9 3930 43
9 3931 113
9 3932 59
9 3933 49
9 3934 22
9 3935 130
9 3936 74
9 3937 28
9 3938 92
9 3939 58
9 3940 81
9 3941 72
9 3942 41
9 3943 55
9 3944 86
9 3945 72
9 3946 51
9 3947 56
9 3948 36
9 3949 107
9 3950 60
9 3951 91
9 3952 83
9 3953 98
9 3954 56
9 3955 25
9 3956 75
9 3957 136
9 3958 95
9 3959 44
9 3960 38
9 3961 59
9 3962 54
9 3963 44
9 3964 41
9 3965 61
9 3966 71
9 3967 94
9 3968 960
9 3969 61
9 3970 45
9 3971 49
9 3972 113
9 3973 45
9 3974 116
9 3975 31
9 3976 62
9 3977 103
9 3978 103
9 3979 273
9 3980 119
9 3981 39
9 3982 89
9 3983 73
9 3984 102
9 3985 45
9 3986 88
9 3987 24
9 3988 66
9 3989 131
9 3990 60
9 3991 40
9 3992 119
9 3993 210
9 3994 70
9 3995 39
9 3996 68
9 3997 93
9 3998 42
9 3999 105
9 4000 32
9 4001 86
9 4002 81
9 4003 75
9 4004 55
9 4005 56
9 4006 69
9 4007 68
9 4008 73
9 4009 126
9 4010 42
9 4011 55
9 4012 53
9 4013 103
9 4014 86
9 4015 176
9 4016 100
9 4017 620
9 4018 117
9 4019 79
9 4020 70
9 4021 729
9 4022 59
9 4023 75
9 4024 73
9 4025 58
9 4026 79
9 4027 1652
9 4028 54
9 4029 47
9 4030 102
9 4031 40
9 4032 91
9 4033 44
9 4034 741
9 4035 1073
9 4036 84
9 4037 45
9 4038 105
9 4039 92
9 4040 103
9 4041 816
9 4042 47
9 4043 55
9 4044 22
9 4045 56
9 4046 45
9 4047 72
9 4048 65
9 4049 103
9 4050 936
9 4051 65
9 4052 76
9 4053 50
9 4054 120
9 4055 78
9 4056 78
9 4057 59
9 4058 91
9 4059 42
9 4060 83
9 4061 63
9 4062 78
9 4063 93
9 4064 97
9 4065 85
9 4066 107
9 4067 88
9 4068 59
9 4069 109
9 4070 67
9 4071 53
9 4072 67
9 4073 54
9 4074 83
9 4075 37
9 4076 70
9 4077 72
9 4078 50
9 4079 105
9 4080 70
9 4081 48
9 4082 59
9 4083 100
9 4084 77
9 4085 53
9 4086 45
9 4087 43
9 4088 108
9 4089 99
9 4090 154
9 4091 36
9 4092 163
9 4093 74
9 4094 834
9 4095 84
9 4096 107
9 4097 105
9 4098 57
9 4099 66
9 4100 65
9 4101 24
9 4102 77
9 4103 74
9 4104 58
9 4105 3
9 4106 84
9 4107 50
9 4108 1372
9 4109 59
9 4110 133
9 4111 73
9 4112 89
9 4113 44
9 4114 32
9 4115 58
9 4116 69
9 4117 55
9 4118 90
9 4119 54
9 4120 69
9 4121 77
9 4122 29
9 4123 91
9 4124 27
9 4125 45
9 4126 85
9 4127 64
9 4128 50
9 4129 106
9 4130 66
9 4131 110
9 4132 68
9 4133 58
9 4134 90
9 4135 1100
9 4136 157
9 4137 34
9 4138 1516
9 4139 133
9 4140 55
9 4141 88
9 4142 52
9 4143 44
9 4144 30
9 4145 75
9 4146 68
9 4147 75
9 4148 117
9 4149 59
9 4150 59
9 4151 91
9 4152 88
9 4153 48
9 4154 60
9 4155 62
9 4156 189
9 4157 58
9 4158 38
9 4159 44
9 4160 92
9 4161 82
9 4162 30
9 4163 143
9 4164 104
9 4165 111
9 4166 112
9 4167 74
9 4168 90
9 4169 87
9 4170 26
9 4171 89
9 4172 24
9 4173 47
9 4174 66
9 4175 52
9 4176 40
9 4177 101
9 4178 94
9 4179 39
9 4180 56
9 4181 42
9 4182 23
9 4183 38
9 4184 63
9 4185 50
9 4186 181
9 4187 73
9 4188 60
9 4189 109
9 4190 113
9 4191 59
9 4192 51
9 4193 129
9 4194 76
9 4195 79
9 4196 42
9 4197 1188
9 4198 107
9 4199 74
9 4200 1707
9 4201 35
9 4202 56
9 4203 26
9 4204 105
9 4205 73
9 4206 130
9 4207 76
9 4208 70
9 4209 107
9 4210 59
9 4211 81
9 4212 16
9 4213 91
9 4214 183
9 4215 44
9 4216 58
9 4217 111
9 4218 63
9 4219 52
9 4220 70
9 4221 58
9 4222 77
9 4223 83
9 4224 51
9 4225 75
9 4226 206
9 4227 129
9 4228 72
9 4229 63
9 4230 67
9 4231 71
9 4232 58
9 4233 108
9 4234 370
9 4235 822
9 4236 143
9 4237 56
9 4238 92
9 4239 160
9 4240 74
9 4241 55
9 4242 1416
9 4243 42
9 4244 68
9 4245 60
9 4246 77
9 4247 101
9 4248 51
9 4249 50
9 4250 42
9 4251 70
9 4252 79
9 4253 72
9 4254 96
9 4255 110
9 4256 57
9 4257 84
9 4258 96
9 4259 86
9 4260 56
9 4261 43
9 4262 79
9 4263 48
9 4264 93
9 4265 42
9 4266 51
9 4267 89
9 4268 42
9 4269 77
9 4270 65
9 4271 99
9 4272 120
9 4273 53
9 4274 132
9 4275 8
9 4276 68
9 4277 41
9 4278 83
9 4279 81
9 4280 81
9 4281 75
9 4282 135
9 4283 55
9 4284 44
9 4285 74
9 4286 91
9 4287 125
9 4288 76
9 4289 72
9 4290 80
9 4291 108
9 4292 108
9 4293 23
9 4294 78
9 4295 97
9 4296 442
9 4297 95
9 4298 62
9 4299 45
9 4300 69
9 4301 119
9 4302 11
9 4303 56
9 4304 30
9 4305 67
9 4306 51
9 4307 90
9 4308 47
9 4309 525
9 4310 60
9 4311 56
9 4312 47
9 4313 97
9 4314 172
9 4315 32
9 4316 98
9 4317 1485
9 4318 34
9 4319 33
9 4320 88
9 4321 88
9 4322 62
9 4323 51
9 4324 105
9 4325 30
9 4326 34
9 4327 81
9 4328 861
9 4329 97
9 4330 65
9 4331 873
9 4332 66
9 4333 89
9 4334 32
9 4335 100
9 4336 1879
9 4337 32
9 4338 1346
9 4339 31
9 4340 54
9 4341 53
9 4342 72
9 4343 95
9 4344 28
9 4345 69
9 4346 106
9 4347 131
9 4348 59
9 4349 118
9 4350 63
9 4351 36
9 4352 71
9 4353 120
9 4354 71
9 4355 104
9 4356 50
9 4357 76
9 4358 54
9 4359 28
9 4360 42
9 4361 40
9 4362 365
9 4363 77
9 4364 101
9 4365 111
9 4366 70
9 4367 132
9 4368 58
9 4369 345
9 4370 89
9 4371 67
9 4372 34
9 4373 120
9 4374 37
9 4375 90
9 4376 1372
9 4377 116
9 4378 73
9 4379 95
9 4380 77
9 4381 98
9 4382 58
9 4383 98
9 4384 65
9 4385 112
9 4386 265
9 4387 76
9 4388 541
9 4389 131
9 4390 43
9 4391 89
9 4392 106
9 4393 39
9 4394 75
9 4395 55
9 4396 34
9 4397 63
9 4398 50
9 4399 98
9 4400 75
9 4401 84
9 4402 96
9 4403 91
9 4404 39
9 4405 90
9 4406 37
9 4407 41
9 4408 149
9 4409 96
9 4410 191
9 4411 88
9 4412 61
9 4413 41
9 4414 1307
9 4415 43
9 4416 85
9 4417 34
9 4418 78
9 4419 134
9 4420 78
9 4421 108
9 4422 39
9 4423 415
9 4424 52
9 4425 85
9 4426 56
9 4427 101
9 4428 125
9 4429 39
9 4430 56
9 4431 86
9 4432 70
9 4433 80
9 4434 97
9 4435 55
9 4436 105
9 4437 53
9 4438 36
9 4439 85
9 4440 46
9 4441 70
9 4442 70
9 4443 79
9 4444 33
9 4445 80
9 4446 52
9 4447 71
9 4448 74
9 4449 107
9 4450 47
9 4451 41
9 4452 83
9 4453 23
9 4454 48
9 4455 93
9 4456 131
9 4457 73
9 4458 34
9 4459 100
9 4460 52
9 4461 62
9 4462 83
9 4463 68
9 4464 49
9 4465 37
9 4466 61
9 4467 79
9 4468 62
9 4469 41
9 4470 729
9 4471 120
9 4472 87
9 4473 54
9 4474 11
9 4475 46
9 4476 60
9 4477 31
9 4478 40
9 4479 33
9 4480 56
9 4481 2304
9 4482 65
9 4483 71
9 4484 63
9 4485 98
9 4486 55
9 4487 88
9 4488 25
9 4489 45
9 4490 57
9 4491 31
9 4492 122
9 4493 48
9 4494 68
9 4495 111
9 4496 62
9 4497 71
9 4498 75
9 4499 115
9 4500 84
9 4501 72
9 4502 110
9 4503 72
9 4504 90
9 4505 80
9 4506 92
9 4507 110
9 4508 42
9 4509 49
9 4510 1353
9 4511 2053
9 4512 82
9 4513 103
9 4514 71
9 4515 114
9 4516 339
9 4517 59
9 4518 73
9 4519 169
9 4520 118
9 4521 69
9 4522 115
9 4523 101
9 4524 97
9 4525 26
9 4526 72
9 4527 43
9 4528 117
9 4529 55
9 4530 63
9 4531 49
9 4532 50
9 4533 54
9 4534 71
9 4535 57
9 4536 40
9 4537 89
9 4538 97
9 4539 1125
9 4540 119
9 4541 107
9 4542 49
9 4543 51
9 4544 25
9 4545 43
9 4546 119
9 4547 139
9 4548 123
9 4549 423
9 4550 109
9 4551 40
9 4552 8
9 4553 127
9 4554 138
9 4555 106
9 4556 94
9 4557 47
9 4558 55
9 4559 76
9 4560 105
9 4561 72
9 4562 490
9 4563 35
9 4564 113
9 4565 68
9 4566 52
9 4567 29
9 4568 66
9 4569 40
9 4570 1624
9 4571 112
9 4572 104
9 4573 96
9 4574 71
9 4575 84
9 4576 40
9 4577 95
9 4578 55
9 4579 58
9 4580 49
9 4581 24
9 4582 38
9 4583 53
9 4584 68
9 4585 37
9 4586 92
9 4587 83
9 4588 149
9 4589 62
9 4590 61
9 4591 42
9 4592 88
9 4593 132
9 4594 39
9 4595 146
9 4596 341
9 4597 94
9 4598 123
9 4599 84
9 4600 36
9 4601 77
9 4602 72
9 4603 91
9 4604 107
9 4605 156
9 4606 86
9 4607 24
9 4608 117
9 4609 88
9 4610 118
9 4611 72
9 4612 39
9 4613 122
9 4614 69
9 4615 79
9 4616 57
9 4617 97
9 4618 56
9 4619 77
9 4620 69
9 4621 69
9 4622 82
9 4623 80
9 4624 61
9 4625 142
9 4626 93
9 4627 89
9 4628 81
9 4629 54
9 4630 73
9 4631 49
9 4632 118
9 4633 108
9 4634 52
9 4635 88
9 4636 58
9 4637 92
9 4638 125
9 4639 49
9 4640 65
9 4641 1263
9 4642 51
9 4643 406
9 4644 41
9 4645 58
9 4646 46
9 4647 75
9 4648 111
9 4649 79
9 4650 44
9 4651 72
9 4652 42
9 4653 55
9 4654 47
9 4655 46
9 4656 104
9 4657 61
9 4658 89
9 4659 49
9 4660 45
9 4661 72
9 4662 52
9 4663 56
9 4664 98
9 4665 107
9 4666 15
9 4667 48
9 4668 51
9 4669 66
9 4670 126
9 4671 66
9 4672 31
9 4673 91
9 4674 30
9 4675 63
9 4676 32
9 4677 63
9 4678 65
9 4679 110
9 4680 66
9 4681 83
9 4682 40
9 4683 36
9 4684 102
9 4685 117
9 4686 48
9 4687 104
9 4688 78
9 4689 139
9 4690 80
9 4691 11
9 4692 77
9 4693 55
9 4694 41
9 4695 15
9 4696 210
9 4697 60
9 4698 67
9 4699 38
9 4700 840
9 4701 54
9 4702 96
9 4703 53
9 4704 32
9 4705 84
9 4706 73
9 4707 61
9 4708 41
9 4709 38
9 4710 102
9 4711 112
9 4712 119
9 4713 70
9 4714 110
9 4715 96
9 4716 67
9 4717 75
9 4718 24
9 4719 260
9 4720 78
9 4721 71
9 4722 57
9 4723 1604
9 4724 68
9 4725 65
9 4726 97
9 4727 87
9 4728 108
9 4729 96
9 4730 89
9 4731 76
9 4732 24
9 4733 96
9 4734 41
9 4735 33
9 4736 53
9 4737 129
9 4738 41
9 4739 69
9 4740 90
9 4741 68
9 4742 135
9 4743 51
9 4744 72
9 4745 103
9 4746 50
9 4747 71
9 4748 78
9 4749 88
9 4750 64
9 4751 360
9 4752 71
9 4753 71
9 4754 91
9 4755 64
9 4756 40
9 4757 45
9 4758 86
9 4759 143
9 4760 2020
9 4761 63
9 4762 115
9 4763 86
9 4764 38
9 4765 93
9 4766 116
9 4767 67
9 4768 53
9 4769 39
9 4770 48
9 4771 124
9 4772 50
9 4773 34
9 4774 58
9 4775 747
9 4776 86
9 4777 44
9 4778 74
9 4779 64
9 4780 125
9 4781 88
9 4782 63
9 4783 70
9 4784 38
9 4785 50
9 4786 54
9 4787 52
9 4788 56
9 4789 58
9 4790 96
9 4791 96
9 4792 102
9 4793 81
9 4794 46
9 4795 105
9 4796 53
9 4797 35
9 4798 48
9 4799 95
9 4800 49
9 4801 122
9 4802 68
9 4803 14
9 4804 32
9 4805 97
9 4806 90
9 4807 81
9 4808 66
9 4809 79
9 4810 117
9 4811 73
9 4812 115
9 4813 41
9 4814 20
9 4815 41
9 4816 74
9 4817 42
9 4818 138
9 4819 62
9 4820 66
9 4821 87
9 4822 60
9 4823 98
9 4824 74
9 4825 92
9 4826 28
9 4827 61
9 4828 54
9 4829 60
9 4830 175
9 4831 65
9 4832 62
9 4833 31
9 4834 51
9 4835 12
9 4836 140
9 4837 66
9 4838 148
9 4839 53
9 4840 15
9 4841 65
9 4842 6
9 4843 92
9 4844 79
9 4845 91
9 4846 45
9 4847 91
9 4848 33
9 4849 36
9 4850 31
9 4851 72
9 4852 90
9 4853 77
9 4854 43
9 4855 16
9 4856 176
9 4857 258
9 4858 53
9 4859 84
9 4860 89
9 4861 67
9 4862 43
9 4863 75
9 4864 111
9 4865 109
9 4866 82
9 4867 38
9 4868 81
9 4869 83
9 4870 105
9 4871 88
9 4872 50
9 4873 84
9 4874 107
9 4875 89
9 4876 836
9 4877 95
9 4878 55
9 4879 33
9 4880 90
9 4881 92
9 4882 83
9 4883 23
9 4884 137
9 4885 38
9 4886 96
9 4887 110
9 4888 125
9 4889 126
9 4890 99
9 4891 35
9 4892 145
9 4893 107
9 4894 51
9 4895 57
9 4896 60
9 4897 119
9 4898 48
9 4899 85
9 4900 88
9 4901 59
9 4902 63
9 4903 80
9 4904 53
9 4905 95
9 4906 107
9 4907 68
9 4908 33
9 4909 114
9 4910 58
9 4911 53
9 4912 55
9 4913 67
9 4914 75
9 4915 48
9 4916 49
9 4917 71
9 4918 461
9 4919 139
9 4920 101
9 4921 30
9 4922 85
9 4923 50
9 4924 1467
9 4925 113
9 4926 58
9 4927 7
9 4928 57
9 4929 44
9 4930 48
9 4931 78
9 4932 249
9 4933 94
9 4934 203
9 4935 3381
9 4936 53
9 4937 59
9 4938 59
9 4939 39
9 4940 146
9 4941 40
9 4942 63
9 4943 102
9 4944 97
9 4945 77
9 4946 32
9 4947 112
9 4948 81
9 4949 87
9 4950 53
9 4951 88
9 4952 106
9 4953 90
9 4954 66
9 4955 30
9 4956 90
9 4957 44
9 4958 907
9 4959 47
9 4960 37
9 4961 68
9 4962 61
9 4963 50
9 4964 65
9 4965 44
9 4966 67
9 4967 45
9 4968 96
9 4969 52
9 4970 71
9 4971 41
9 4972 38
9 4973 29
9 4974 41
9 4975 111
9 4976 82
9 4977 39
9 4978 1037
9 4979 71
9 4980 65
9 4981 85
9 4982 100
9 4983 49
9 4984 262
9 4985 40
9 4986 26
9 4987 63
9 4988 57
9 4989 37
9 4990 30
9 4991 44
9 4992 86
9 4993 38
9 4994 38
9 4995 68
9 4996 46
9 4997 29
9 4998 72
9 4999 60
9 5000 211
9 5001 116
9 5002 64
9 5003 122
9 5004 45
9 5005 4
9 5006 44
9 5007 86
9 5008 7
9 5009 44
9 5010 60
9 5011 63
9 5012 49
9 5013 61
9 5014 53
9 5015 53
9 5016 44
9 5017 46
9 5018 62
9 5019 46
9 5020 89
9 5021 694
9 5022 66
9 5023 64
9 5024 42
9 5025 57
9 5026 93
9 5027 3
9 5028 51
9 5029 121
9 5030 22
9 5031 52
9 5032 67
9 5033 358
9 5034 31
9 5035 113
9 5036 34
9 5037 41
9 5038 68
9 5039 273
9 5040 70
9 5041 89
9 5042 950
9 5043 48
9 5044 250
9 5045 75
9 5046 65
9 5047 54
9 5048 59
9 5049 49
9 5050 46
9 5051 62
9 5052 44
9 5053 63
9 5054 52
9 5055 56
9 5056 94
9 5057 95
9 5058 57
9 5059 34
9 5060 18
9 5061 14
9 5062 90
9 5063 50
9 5064 84
9 5065 112
9 5066 127
9 5067 112
9 5068 59
9 5069 66
9 5070 6
9 5071 51
9 5072 510
9 5073 68
9 5074 63
9 5075 37
9 5076 74
9 5077 50
9 5078 63
9 5079 58
9 5080 48
9 5081 83
9 5082 7
9 5083 26
9 5084 82
9 5085 138
9 5086 151
9 5087 42
9 5088 23
9 5089 72
9 5090 64
9 5091 94
9 5092 91
9 5093 49
9 5094 26
9 5095 91
9 5096 23
9 5097 61
9 5098 156
9 5099 56
9 5100 41
9 5101 65
9 5102 65
9 5103 54
9 5104 64
9 5105 61
9 5106 52
9 5107 104
9 5108 52
9 5109 132
9 5110 74
9 5111 97
9 5112 123
9 5113 67
9 5114 394
9 5115 38
9 5116 108
9 5117 109
9 5118 67
9 5119 73
9 5120 18
9 5121 67
9 5122 51
9 5123 117
9 5124 155
9 5125 96
9 5126 27
9 5127 67
9 5128 64
9 5129 57
9 5130 51
9 5131 49
9 5132 70
9 5133 52
9 5134 57
9 5135 85
9 5136 49
9 5137 49
9 5138 20
9 5139 52
9 5140 61
9 5141 65
9 5142 23
9 5143 46
9 5144 106
9 5145 74
9 5146 88
9 5147 86
9 5148 57
9 5149 101
9 5150 41
9 5151 43
9 5152 42
9 5153 59
9 5154 109
9 5155 90
9 5156 48
9 5157 69
9 5158 49
9 5159 82
9 5160 33
9 5161 50
9 5162 53
9 5163 116
9 5164 1246
9 5165 74
9 5166 38
9 5167 49
9 5168 69
9 5169 40
9 5170 56
9 5171 64
9 5172 78
9 5173 717
9 5174 56
9 5175 119
9 5176 44
9 5177 43
9 5178 59
9 5179 5
9 5180 29
9 5181 109
9 5182 78
9 5183 43
9 5184 66
9 5185 48
9 5186 59
9 5187 67
9 5188 52
9 5189 708
9 5190 17
9 5191 37
9 5192 72
9 5193 68
9 5194 54
9 5195 66
9 5196 37
9 5197 57
9 5198 103
9 5199 50
9 5200 27
9 5201 116
9 5202 76
9 5203 109
9 5204 92
9 5205 13
9 5206 73
9 5207 53
9 5208 32
9 5209 9
9 5210 32
9 5211 34
9 5212 66
9 5213 44
9 5214 100
9 5215 44
9 5216 103
9 5217 896
9 5218 173
9 5219 37
9 5220 63
9 5221 77
9 5222 33
9 5223 2
9 5224 36
9 5225 106
9 5226 122
9 5227 38
9 5228 90
9 5229 56
9 5230 52
9 5231 48
9 5232 61
9 5233 431
9 5234 70
9 5235 63
9 5236 40
9 5237 73
9 5238 60
9 5239 122
9 5240 54
9 5241 77
9 5242 44
9 5243 54
9 5244 86
9 5245 61
9 5246 99
9 5247 60
9 5248 45
9 5249 39
9 5250 77
9 5251 18
9 5252 41
9 5253 92
9 5254 77
9 5255 37
9 5256 113
9 5257 31
9 5258 60
9 5259 145
9 5260 48
9 5261 10
9 5262 86
9 5263 43
9 5264 33
9 5265 51
9 5266 95
9 5267 13
9 5268 54
9 5269 65
9 5270 81
9 5271 30
9 5272 104
9 5273 75
9 5274 80
9 5275 111
9 5276 127
9 5277 80
9 5278 57
9 5279 149
9 5280 68
9 5281 107
9 5282 118
9 5283 104
9 5284 54
9 5285 46
9 5286 77
9 5287 72
9 5288 96
9 5289 45
9 5290 61
9 5291 76
9 5292 81
9 5293 72
9 5294 58
9 5295 171
9 5296 100
9 5297 80
9 5298 104
9 5299 45
9 5300 68
9 5301 37
9 5302 16
9 5303 79
9 5304 65
9 5305 35
9 5306 94
9 5307 51
9 5308 88
9 5309 61
9 5310 971
9 5311 42
9 5312 45
9 5313 59
9 5314 141
9 5315 48
9 5316 133
9 5317 19
9 5318 91
9 5319 86
9 5320 26
9 5321 85
9 5322 60
9 5323 72
9 5324 4
9 5325 56
9 5326 51
9 5327 47
9 5328 101
9 5329 76
9 5330 70
9 5331 77
9 5332 25
9 5333 90
9 5334 89
9 5335 56
9 5336 58
9 5337 101
9 5338 91
9 5339 110
9 5340 21
9 5341 65
9 5342 74
9 5343 273
9 5344 53
9 5345 77
9 5346 70
9 5347 84
9 5348 60
9 5349 80
9 5350 51
9 5351 54
9 5352 52
9 5353 50
9 5354 80
9 5355 42
9 5356 99
9 5357 76
9 5358 83
9 5359 68
9 5360 19
9 5361 381
9 5362 54
9 5363 54
9 5364 51
9 5365 92
9 5366 35
9 5367 71
9 5368 81
9 5369 63
9 5370 33
9 5371 105
9 5372 44
9 5373 53
9 5374 111
9 5375 92
9 5376 51
9 5377 60
9 5378 83
9 5379 119
9 5380 80
9 5381 99
9 5382 571
9 5383 72
9 5384 35
9 5385 1317
9 5386 41
9 5387 96
9 5388 35
9 5389 112
9 5390 130
9 5391 90
9 5392 30
9 5393 27
9 5394 95
9 5395 46
9 5396 109
9 5397 37
9 5398 150
9 5399 55
9 5400 37
9 5401 116
9 5402 98
9 5403 64
9 5404 58
9 5405 90
9 5406 57
9 5407 74
9 5408 391
9 5409 44
9 5410 65
9 5411 38
9 5412 65
9 5413 48
9 5414 62
9 5415 1
9 5416 47
9 5417 74
9 5418 18
9 5419 4
9 5420 103
9 5421 72
9 5422 230
9 5423 102
9 5424 18
9 5425 81
9 5426 46
9 5427 100
9 5428 59
9 5429 19
9 5430 128
9 5431 69
9 5432 68
9 5433 94
9 5434 71
9 5435 41
9 5436 46
9 5437 73
9 5438 38
9 5439 36
9 5440 53
9 5441 55
9 5442 53
9 5443 105
9 5444 54
9 5445 30
9 5446 43
9 5447 68
9 5448 94
9 5449 38
9 5450 46
9 5451 84
9 5452 81
9 5453 77
9 5454 13
9 5455 110
9 5456 66
9 5457 108
9 5458 42
9 5459 57
9 5460 49
9 5461 40
9 5462 60
9 5463 49
9 5464 58
9 5465 84
9 5466 148
9 5467 16
9 5468 43
9 5469 48
9 5470 75
9 5471 174
9 5472 55
9 5473 780
9 5474 49
9 5475 37
9 5476 72
9 5477 72
9 5478 83
9 5479 105
9 5480 33
9 5481 88
9 5482 36
9 5483 41
9 5484 60
9 5485 82
9 5486 81
9 5487 52
9 5488 109
9 5489 39
9 5490 75
9 5491 83
9 5492 30
9 5493 52
9 5494 33
9 5495 54
9 5496 97
9 5497 88
9 5498 43
9 5499 59
9 5500 39
9 5501 27
9 5502 66
9 5503 45
9 5504 44
9 5505 40
9 5506 31
9 5507 62
9 5508 62
9 5509 119
9 5510 48
9 5511 41
9 5512 46
9 5513 1183
9 5514 25
9 5515 57
9 5516 15
9 5517 61
9 5518 47
9 5519 98
9 5520 569
9 5521 26
9 5522 107
9 5523 43
9 5524 33
9 5525 66
9 5526 25
9 5527 42
9 5528 48
9 5529 63
9 5530 61
9 5531 26
9 5532 59
9 5533 122
9 5534 53
9 5535 58
9 5536 47
9 5537 31
9 5538 62
9 5539 34
9 5540 96
9 5541 30
9 5542 119
9 5543 45
9 5544 172
9 5545 27
9 5546 33
9 5547 42
9 5548 33
9 5549 55
9 5550 60
9 5551 4
9 5552 59
9 5553 32
9 5554 96
9 5555 39
9 5556 3
9 5557 81
9 5558 54
9 5559 38
9 5560 89
9 5561 72
9 5562 81
9 5563 60
9 5564 49
9 5565 60
9 5566 10
9 5567 50
9 5568 59
9 5569 115
9 5570 36
9 5571 55
9 5572 102
9 5573 15
9 5574 110
9 5575 62
9 5576 60
9 5577 57
9 5578 77
9 5579 61
9 5580 118
9 5581 63
9 5582 40
9 5583 76
9 5584 63
9 5585 89
9 5586 60
9 5587 53
9 5588 339
9 5589 98
9 5590 27
9 5591 66
9 5592 51
9 5593 46
9 5594 42
9 5595 176
9 5596 48
9 5597 40
9 5598 264
9 5599 37
9 5600 61
9 5601 61
9 5602 32
9 5603 44
9 5604 62
9 5605 54
9 5606 59
9 5607 125
9 5608 15
9 5609 25
9 5610 29
9 5611 37
9 5612 49
9 5613 115
9 5614 91
9 5615 88
9 5616 13
9 5617 102
9 5618 17
9 5619 43
9 5620 77
9 5621 72
9 5622 52
9 5623 49
9 5624 56
9 5625 35
9 5626 51
9 5627 135
9 5628 59
9 5629 142
9 5630 84
9 5631 226
9 5632 123
9 5633 119
9 5634 76
9 5635 56
9 5636 58
9 5637 64
9 5638 61
9 5639 113
9 5640 277
9 5641 32
9 5642 107
9 5643 54
9 5644 57
9 5645 63
9 5646 59
9 5647 56
9 5648 77
9 5649 59
9 5650 51
9 5651 58
9 5652 42
9 5653 38
9 5654 2
9 5655 15
9 5656 31
9 5657 43
9 5658 23
9 5659 43
9 5660 20
9 5661 35
9 5662 22
9 5663 46
9 5664 39
9 5665 71
9 5666 11
9 5667 6
9 5668 34
9 5669 6
9 5670 28
9 5671 37
9 5672 12
9 5673 57
9 5674 40
9 5675 50
9 5676 59
9 5677 51
9 5678 23
9 5679 11
9 5680 67
9 5681 16
9 5682 26
9 5683 38
9 5684 29
9 5685 3
9 5686 13
9 5687 44
9 5688 48
9 5689 38
9 5690 32
9 5691 17
9 5692 23
9 5693 12
9 5694 6
9 5695 6
9 5696 46
9 5697 41
9 5698 35
9 5699 21
9 5700 1
9 5701 73
9 5702 26
9 5703 1
9 5704 7
9 5705 25
9 5706 4
9 5707 5
9 5708 1
9 5709 6
9 5710 6
9 5711 5
9 5712 2
9 5713 4
9 5714 3
9 5715 13
9 5716 2
9 5717 1
10 1 90630
10 2 331723
10 3 272
10 4 187
10 5 19246
10 6 201
10 7 195
10 8 182
10 9 136
10 10 256
10 11 405
10 12 140
10 13 226
10 14 306
10 15 110
10 16 59
10 17 175
10 18 30560
10 19 102
10 20 165
10 21 121
10 22 212
10 23 199
10 24 440
10 25 326
10 26 239
10 27 6916
10 28 131
10 29 11609
10 30 79
10 31 185
10 32 95
10 33 179
10 34 257
10 35 42
10 36 199
10 37 182
10 38 167
10 39 148
10 40 149
10 41 177
10 42 435
10 43 155
10 44 23894
10 45 42
10 46 380
10 47 140
10 48 148
10 49 176
10 50 114
10 51 135
10 52 35877
10 53 96
10 54 87
10 55 409
10 56 288
10 57 151
10 58 200
10 59 33372
10 60 699
10 61 200
10 62 203
10 63 199
10 64 21886
10 65 124
10 66 154
10 67 286
10 68 208
10 69 17914
10 70 247
10 71 356
10 72 158
10 73 121
10 74 200
10 75 191
10 76 155
10 77 191
10 78 110
10 79 490
10 80 8208
10 81 36567
10 82 97
10 83 187
10 84 184
10 85 260
10 86 13993
10 87 146
10 88 157
10 89 170
10 90 247
10 91 131
10 92 158
10 93 60150
10 94 524
10 95 166
10 96 161
10 97 183
10 98 149
10 99 192
10 100 1247
10 101 250
10 102 280
10 103 253
10 104 134
10 105 53356
10 106 124
10 107 43341
10 108 15626
10 109 189
10 110 12853
10 111 142
10 112 113
10 113 160
10 114 138
10 115 47437
10 116 82
10 117 103
10 118 130
10 119 208
10 120 55794
10 121 214
10 122 157
10 123 120
10 124 582
10 125 240
10 126 54
10 127 126
10 128 208
10 129 135
10 130 237
10 131 13389
10 132 149
10 133 38877
10 134 70
10 135 349
10 136 151
10 137 158
10 138 625
10 139 51854
10 140 317
10 141 183
10 142 138
10 143 226
10 144 236
10 145 106
10 146 212
10 147 29329
10 148 296
10 149 187
10 150 125
10 151 74
10 152 229
10 153 174
10 154 259
10 155 20709
10 156 315
10 157 119
10 158 155
10 159 32438
10 160 226
10 161 273
10 162 121
10 163 129
10 164 165
10 165 301
10 166 30140
10 167 45510
10 168 369
10 169 117
10 170 178
10 171 248
10 172 265
10 173 165
10 174 195
10 175 173
10 176 70222
10 177 90
10 178 1014
10 179 172
10 180 245
10 181 132
10 182 187
10 183 155
10 184 180
10 185 175
10 186 126
10 187 190
10 188 26748
10 189 179
10 190 166
10 191 191
10 192 166
10 193 112
10 194 261
10 195 71
10 196 120
10 197 90
10 198 76246
10 199 92
10 200 222
10 201 183
10 202 215
10 203 152
10 204 142
10 205 31268
10 206 139
10 207 146
10 208 32
10 209 224
10 210 145
10 211 235
10 212 9478
10 213 243
10 214 120
10 215 40991
10 216 53304
10 217 15487
10 218 106
10 219 1886
10 220 96
10 221 99
10 222 167
10 223 247
10 224 388
10 225 255
10 226 25153
10 227 164
10 228 116
10 229 149
10 230 183
10 231 104
10 232 37515
10 233 131
10 234 169
10 235 49
10 236 181
10 237 105
10 238 168
10 239 72625
10 240 287
10 241 53
10 242 243
10 243 77105
10 244 165
10 245 95
10 246 230
10 247 475
10 248 202
10 249 22085
10 250 335
10 251 225
10 252 112
10 253 75
10 254 81
10 255 97
10 256 772
10 257 45252
10 258 71
10 259 198
10 260 174
10 261 54
10 262 288
10 263 162
10 264 194
10 265 255
10 266 72
10 267 86
10 268 231
10 269 87447
10 270 157
10 271 77039
10 272 2654
10 273 107
10 274 187
10 275 83
10 276 296
10 277 441
10 278 182
10 279 175
10 280 198
10 281 196
10 282 122
10 283 19933
10 284 243
10 285 213
10 286 178
10 287 16118
10 288 179
10 289 20
10 290 151
10 291 27013
10 292 721
10 293 210
10 294 23973
10 295 97
10 296 231
10 297 48111
10 298 155
10 299 170
10 300 179
10 301 42584
10 302 84
10 303 227
10 304 26780
10 305 22
10 306 219
10 307 305
10 308 117
10 309 102
10 310 19983
10 311 227
10 312 38
10 313 169
10 314 156
10 315 650
10 316 203
10 317 186
10 318 169
10 319 1837
10 320 96
10 321 195
10 322 183
10 323 159
10 324 146
10 325 163
10 326 386
10 327 195
10 328 32245
10 329 205
10 330 295
10 331 196
10 332 85
10 333 229
10 334 4930
10 335 162
10 336 77
10 337 135
10 338 124
10 339 96
10 340 125
10 341 9817
10 342 116
10 343 136
10 344 130
10 345 184
10 346 115
10 347 73
10 348 118
10 349 179
10 350 174
10 351 159
10 352 177
10 353 173
10 354 303
10 355 82
10 356 183
10 357 122
10 358 170
10 359 287
10 360 163
10 361 186
10 362 63481
10 363 171
10 364 106
10 365 99
10 366 76
10 367 138
10 368 81
10 369 162
10 370 99
10 371 10712
10 372 1427
10 373 272
10 374 192
10 375 172
10 376 212
10 377 157
10 378 42638
10 379 40658
10 380 124
10 381 111
10 382 220
10 383 7352
10 384 430
10 385 696
10 386 91
10 387 405
10 388 195
10 389 154
10 390 148
10 391 79
10 392 236
10 393 14129
10 394 401
10 395 244
10 396 241
10 397 104
10 398 133
10 399 135
10 400 122
10 401 165
10 402 77
10 403 222
10 404 174
10 405 88
10 406 154
10 407 439
10 408 245
10 409 269
10 410 88
10 411 182
10 412 178
10 413 180
10 414 135
10 415 208
10 416 64
10 417 162
10 418 111
10 419 139
10 420 103
10 421 60
10 422 133
10 423 147
10 424 133
10 425 11234
10 426 206
10 427 158
10 428 180
10 429 258
10 430 155
10 431 142
10 432 160
10 433 208
10 434 154
10 435 159
10 436 268
10 437 84
10 438 4414
10 439 104
10 440 172
10 441 146
10 442 47372
10 443 175
10 444 202
10 445 125
10 446 174
10 447 188
10 448 1600
10 449 16883
10 450 188
10 451 170
10 452 46663
10 453 186
10 454 229
10 455 182
10 456 194
10 457 92
10 458 182
10 459 90
10 460 288
10 461 217
10 462 117
10 463 149
10 464 215
10 465 7733
10 466 125
10 467 187
10 468 152
10 469 89
10 470 271
10 471 118
10 472 177
10 473 184
10 474 102
10 475 10298
10 476 91
10 477 98
10 478 346
10 479 96
10 480 259
10 481 153
10 482 184
10 483 151
10 484 159
10 485 161
10 486 207
10 487 29740
10 488 13367
10 489 459
10 490 184
10 491 27194
10 492 205
10 493 81
10 494 107
10 495 115
10 496 172
10 497 198
10 498 92
10 499 138
10 500 148
10 501 190
10 502 136
10 503 97
10 504 176
10 505 85
10 506 272
10 507 117
10 508 270
10 509 146
10 510 278
10 511 111
10 512 230
10 513 262
10 514 135
10 515 36778
10 516 173
10 517 168
10 518 190
10 519 19590
10 520 185
10 521 97
10 522 257
10 523 152
10 524 204
10 525 274
10 526 216
10 527 187
10 528 159
10 529 13228
10 530 269
10 531 198
10 532 97
10 533 215
10 534 43945
10 535 19641
10 536 121
10 537 32531
10 538 7012
10 539 189
10 540 98
10 541 145
10 542 1151
10 543 14572
10 544 216
10 545 394
10 546 17530
10 547 183
10 548 198
10 549 128
10 550 112
10 551 180
10 552 233
10 553 42270
10 554 178
10 555 140
10 556 105
10 557 68
10 558 275
10 559 144
10 560 216
10 561 113
10 562 113
10 563 460
10 564 91
10 565 166
10 566 174
10 567 416
10 568 98
10 569 264
10 570 171
10 571 190
10 572 129
10 573 168
10 574 325
10 575 203
10 576 191
10 577 352
10 578 247
10 579 186
10 580 172
10 581 126
10 582 82
10 583 191
10 584 136
10 585 155
10 586 118
10 587 99
10 588 112
10 589 136
10 590 137
10 591 145
10 592 150
10 593 114
10 594 106
10 595 119
10 596 132
10 597 167
10 598 110
10 599 178
10 600 114
10 601 91
10 602 208
10 603 158
10 604 135
10 605 152
10 606 178
10 607 11673
10 608 99
10 609 148
10 610 207
10 611 224
10 612 73326
10 613 388
10 614 202
10 615 202
10 616 76
10 617 266
10 618 234
10 619 234
10 620 108
10 621 221
10 622 168
10 623 210
10 624 148
10 625 211
10 626 280
10 627 191
10 628 280
10 629 162
10 630 128
10 631 529
10 632 202
10 633 191
10 634 214
10 635 187
10 636 186
10 637 102
10 638 126
10 639 65
10 640 161
10 641 159
10 642 187
10 643 201
10 644 203
10 645 117
10 646 171
10 647 164
10 648 107
10 649 93
10 650 167
10 651 244
10 652 35154
10 653 717
10 654 199
10 655 1658
10 656 74
10 657 153
10 658 182
10 659 586
10 660 33
10 661 225
10 662 176
10 663 196
10 664 119
10 665 59
10 666 148
10 667 182
10 668 485
10 669 158
10 670 121
10 671 203
10 672 8509
10 673 158
10 674 61
10 675 369
10 676 5867
10 677 135
10 678 179
10 679 188
10 680 236
10 681 92
10 682 285
10 683 39202
10 684 152
10 685 171
10 686 124
10 687 26987
10 688 196
10 689 130
10 690 53
10 691 148
10 692 102
10 693 159
10 694 376
10 695 174
10 696 188
10 697 96
10 698 93
10 699 186
10 700 149
10 701 614
10 702 93
10 703 236
10 704 170
10 705 107
10 706 91
10 707 119
10 708 123
10 709 10046
10 710 1048
10 711 288
10 712 169
10 713 131
10 714 242
10 715 168
10 716 28642
10 717 93
10 718 97
10 719 21278
10 720 135
10 721 142
10 722 26325
10 723 153
10 724 22154
10 725 148
10 726 178
10 727 220
10 728 174
10 729 179
10 730 63
10 731 166
10 732 88
10 733 171
10 734 136
10 735 424
10 736 84
10 737 214
10 738 68
10 739 146
10 740 265
10 741 231
10 742 142
10 743 155
10 744 214
10 745 155
10 746 184
10 747 189
10 748 137
10 749 60
10 750 194
10 751 116
10 752 119
10 753 167
10 754 221
10 755 85
10 756 206
10 757 23146
10 758 196
10 759 183
10 760 138
10 761 30
10 762 221
10 763 100
10 764 157
10 765 37
10 766 250
10 767 118
10 768 189
10 769 200
10 770 166
10 771 101
10 772 115
10 773 152
10 774 202
10 775 169
10 776 194
10 777 194
10 778 5037
10 779 164
10 780 160
10 781 86
10 782 252
10 783 180
10 784 148
10 785 101
10 786 145
10 787 172
10 788 225
10 789 228
10 790 112
10 791 220
10 792 164
10 793 135
10 794 148
10 795 138
10 796 103
10 797 115
10 798 161
10 799 201
10 800 222
10 801 133
10 802 162
10 803 147
10 804 238
10 805 98
10 806 223
10 807 105
10 808 158
10 809 111
10 810 224
10 811 135
10 812 2994
10 813 4587
10 814 162
10 815 107
10 816 121
10 817 249
10 818 466
10 819 237
10 820 176
10 821 33875
10 822 81
10 823 93
10 824 171
10 825 103
10 826 222
10 827 98
10 828 175
10 829 175
10 830 301
10 831 235
10 832 272
10 833 157
10 834 247
10 835 240
10 836 182
10 837 106
10 838 134
10 839 344
10 840 89
10 841 190
10 842 94
10 843 183
10 844 148
10 845 69
10 846 4709
10 847 234
10 848 205
10 849 158
10 850 195
10 851 191
10 852 151
10 853 6133
10 854 108
10 855 180
10 856 51239
10 857 114
10 858 187
10 859 21431
10 860 153
10 861 161
10 862 103
10 863 148
10 864 141
10 865 116
10 866 121
10 867 92
10 868 423
10 869 157
10 870 235
10 871 126
10 872 2734
10 873 38
10 874 120
10 875 219
10 876 168
10 877 122
10 878 253
10 879 134
10 880 13963
10 881 99
10 882 121
10 883 131
10 884 157
10 885 17320
10 886 155
10 887 2538
10 888 336
10 889 213
10 890 201
10 891 76
10 892 131
10 893 282
10 894 217
10 895 505
10 896 189
10 897 419
10 898 197
10 899 195
10 900 9525
10 901 196
10 902 268
10 903 3988
10 904 99
10 905 183
10 906 175
10 907 162
10 908 65003
10 909 175
10 910 23979
10 911 259
10 912 161
10 913 106
10 914 207
10 915 133
10 916 242
10 917 267
10 918 89
10 919 162
10 920 225
10 921 284
10 922 114
10 923 201
10 924 219
10 925 3303
10 926 149
10 927 143
10 928 280
10 929 2882
10 930 120
10 931 254
10 932 212
10 933 712
10 934 151
10 935 211
10 936 151
10 937 170
10 938 111
10 939 153
10 940 149
10 941 120
10 942 35938
10 943 105
10 944 215
10 945 86
10 946 134
10 947 189
10 948 165
10 949 69
10 950 106
10 951 176
10 952 100
10 953 123
10 954 71
10 955 335
10 956 135
10 957 18903
10 958 180
10 959 191
10 960 100
10 961 135
10 962 83
10 963 220
10 964 161
10 965 126
10 966 199
10 967 16844
10 968 178
10 969 169
10 970 170
10 971 141
10 972 143
10 973 198
10 974 208
10 975 48458
10 976 118
10 977 117
10 978 114
10 979 95
10 980 142
10 981 170
10 982 86
10 983 166
10 984 82
10 985 303
10 986 16221
10 987 102
10 988 74
10 989 152
10 990 185
10 991 194
10 992 142
10 993 579
10 994 204
10 995 144
10 996 138
10 997 89
10 998 164
10 999 90
10 1000 345
10 1001 94
10 1002 298
10 1003 155
10 1004 86
10 1005 89
10 1006 71
10 1007 185
10 1008 98
10 1009 255
10 1010 216
10 1011 242
10 1012 176
10 1013 873
10 1014 352
10 1015 149
10 1016 86
10 1017 289
10 1018 67
10 1019 204
10 1020 115
10 1021 109
10 1022 455
10 1023 222
10 1024 21174
10 1025 156
10 1026 175
10 1027 143
10 1028 804
10 1029 166
10 1030 224
10 1031 201
10 1032 142
10 1033 183
10 1034 269
10 1035 155
10 1036 152
10 1037 172
10 1038 128
10 1039 219
10 1040 2548
10 1041 585
10 1042 159
10 1043 201
10 1044 204
10 1045 164
10 1046 146
10 1047 191
10 1048 262
10 1049 152
10 1050 222
10 1051 9151
10 1052 218
10 1053 113
10 1054 335
10 1055 114
10 1056 6895
10 1057 140
10 1058 179
10 1059 202
10 1060 100
10 1061 197
10 1062 138
10 1063 117
10 1064 199
10 1065 104
10 1066 135
10 1067 190
10 1068 131
10 1069 197
10 1070 287
10 1071 381
10 1072 88
10 1073 73
10 1074 115
10 1075 16765
10 1076 569
10 1077 218
10 1078 128
10 1079 188
10 1080 192
10 1081 201
10 1082 166
10 1083 175
10 1084 83
10 1085 599
10 1086 22115
10 1087 199
10 1088 134
10 1089 176
10 1090 95
10 1091 45021
10 1092 130
10 1093 233
10 1094 17693
10 1095 120
10 1096 163
10 1097 184
10 1098 49
10 1099 177
10 1100 121
10 1101 10491
10 1102 95
10 1103 629
10 1104 181
10 1105 213
10 1106 175
10 1107 123
10 1108 120
10 1109 197
10 1110 175
10 1111 136
10 1112 2263
10 1113 139
10 1114 166
10 1115 181
10 1116 153
10 1117 168
10 1118 169
10 1119 130
10 1120 154
10 1121 190
10 1122 105
10 1123 412
10 1124 127
10 1125 116
10 1126 76
10 1127 156
10 1128 185
10 1129 188
10 1130 178
10 1131 208
10 1132 101
10 1133 193
10 1134 170
10 1135 235
10 1136 18101
10 1137 111
10 1138 248
10 1139 167
10 1140 95
10 1141 202
10 1142 173
10 1143 146
10 1144 206
10 1145 141
10 1146 205
10 1147 154
10 1148 18783
10 1149 103
10 1150 154
10 1151 126
10 1152 186
10 1153 113
10 1154 162
10 1155 75
10 1156 99
10 1157 116
10 1158 213
10 1159 90
10 1160 130
10 1161 130
10 1162 172
10 1163 116
10 1164 241
10 1165 208
10 1166 109
10 1167 86
10 1168 124
10 1169 276
10 1170 170
10 1171 217
10 1172 96
10 1173 187
10 1174 120
10 1175 221
10 1176 157
10 1177 175
10 1178 134
10 1179 70
10 1180 237
10 1181 138
10 1182 247
10 1183 185
10 1184 158
10 1185 391
10 1186 147
10 1187 157
10 1188 81
10 1189 127
10 1190 371
10 1191 158
10 1192 114
10 1193 90
10 1194 51
10 1195 110
10 1196 145
10 1197 159
10 1198 183
10 1199 209
10 1200 200
10 1201 428
10 1202 514
10 1203 152
10 1204 179
10 1205 141
10 1206 136
10 1207 123
10 1208 136
10 1209 108
10 1210 99
10 1211 167
10 1212 228
10 1213 228
10 1214 135
10 1215 158
10 1216 178
10 1217 220
10 1218 8145
10 1219 124
10 1220 342
10 1221 121
10 1222 203
10 1223 1441
10 1224 209
10 1225 160
10 1226 231
10 1227 263
10 1228 250
10 1229 7699
10 1230 196
10 1231 193
10 1232 141
10 1233 126
10 1234 179
10 1235 464
10 1236 18074
10 1237 121
10 1238 40999
10 1239 175
10 1240 175
10 1241 227
10 1242 170
10 1243 94
10 1244 128
10 1245 94
10 1246 176
10 1247 1953
10 1248 685
10 1249 168
10 1250 118
10 1251 199
10 1252 2516
10 1253 167
10 1254 319
10 1255 161
10 1256 84
10 1257 92
10 1258 163
10 1259 252
10 1260 210
10 1261 149
10 1262 14391
10 1263 187
10 1264 95
10 1265 106
10 1266 124
10 1267 92
10 1268 268
10 1269 167
10 1270 176
10 1271 136
10 1272 169
10 1273 139
10 1274 186
10 1275 147
10 1276 184
10 1277 151
10 1278 113
10 1279 89
10 1280 230
10 1281 25
10 1282 243
10 1283 91
10 1284 196
10 1285 165
10 1286 249
10 1287 190
10 1288 186
10 1289 1678
10 1290 184
10 1291 177
10 1292 77
10 1293 215
10 1294 61
10 1295 163
10 1296 88
10 1297 267
10 1298 223
10 1299 39636
10 1300 440
10 1301 190
10 1302 230
10 1303 73
10 1304 67
10 1305 176
10 1306 126
10 1307 702
10 1308 125
10 1309 189
10 1310 498
10 1311 75
10 1312 176
10 1313 159
10 1314 120
10 1315 122
10 1316 1606
10 1317 221
10 1318 10767
10 1319 105
10 1320 135
10 1321 180
10 1322 158
10 1323 163
10 1324 183
10 1325 212
10 1326 176
10 1327 198
10 1328 155
10 1329 11381
10 1330 74
10 1331 161
10 1332 114
10 1333 217
10 1334 108
10 1335 276
10 1336 428
10 1337 159
10 1338 267
10 1339 96
10 1340 173
10 1341 220
10 1342 146
10 1343 572
10 1344 191
10 1345 89
10 1346 133
10 1347 298
10 1348 54
10 1349 105
10 1350 290
10 1351 152
10 1352 135
10 1353 146
10 1354 157
10 1355 195
10 1356 239
10 1357 124
10 1358 192
10 1359 12415
10 1360 91
10 1361 848
10 1362 155
10 1363 165
10 1364 3425
10 1365 236
10 1366 92
10 1367 217
10 1368 141
10 1369 142
10 1370 131
10 1371 181
10 1372 78
10 1373 87
10 1374 238
10 1375 150
10 1376 107
10 1377 141
10 1378 101
10 1379 870
10 1380 159
10 1381 196
10 1382 208
10 1383 189
10 1384 10058
10 1385 172
10 1386 222
10 1387 173
10 1388 137
10 1389 30318
10 1390 95
10 1391 95
10 1392 184
10 1393 95
10 1394 87
10 1395 9191
10 1396 228
10 1397 105
10 1398 112
10 1399 101
10 1400 177
10 1401 181
10 1402 70
10 1403 141
10 1404 131
10 1405 183
10 1406 158
10 1407 168
10 1408 289
10 1409 164
10 1410 189
10 1411 189
10 1412 103
10 1413 1918
10 1414 196
10 1415 150
10 1416 230
10 1417 199
10 1418 100
10 1419 169
10 1420 125
10 1421 154
10 1422 227
10 1423 119
10 1424 2816
10 1425 182
10 1426 150
10 1427 197
10 1428 124
10 1429 479
10 1430 188
10 1431 179
10 1432 118
10 1433 126
10 1434 161
10 1435 188
10 1436 976
10 1437 66
10 1438 97
10 1439 81
10 1440 199
10 1441 453
10 1442 207
10 1443 84
10 1444 137
10 1445 9665
10 1446 93
10 1447 214
10 1448 99
10 1449 25379
10 1450 404
10 1451 122
10 1452 1138
10 1453 176
10 1454 189
10 1455 128
10 1456 120
10 1457 538
10 1458 152
10 1459 164
10 1460 67
10 1461 60
10 1462 233
10 1463 176
10 1464 162
10 1465 49812
10 1466 109
10 1467 356
10 1468 170
10 1469 11
10 1470 345
10 1471 4282
10 1472 168
10 1473 144
10 1474 162
10 1475 235
10 1476 199
10 1477 118
10 1478 88
10 1479 189
10 1480 190
10 1481 159
10 1482 204
10 1483 160
10 1484 135
10 1485 180
10 1486 219
10 1487 152
10 1488 187
10 1489 212
10 1490 157
10 1491 177
10 1492 185
10 1493 174
10 1494 345
10 1495 149
10 1496 179
10 1497 146
10 1498 87
10 1499 182
10 1500 88
10 1501 181
10 1502 49
10 1503 220
10 1504 219
10 1505 171
10 1506 91
10 1507 68
10 1508 141
10 1509 95
10 1510 1797
10 1511 198
10 1512 167
10 1513 141
10 1514 243
10 1515 36842
10 1516 136
10 1517 151
10 1518 139
10 1519 1325
10 1520 192
10 1521 172
10 1522 190
10 1523 2112
10 1524 207
10 1525 219
10 1526 159
10 1527 136
10 1528 137
10 1529 151
10 1530 164
10 1531 113
10 1532 619
10 1533 188
10 1534 204
10 1535 236
10 1536 102
10 1537 57
10 1538 114
10 1539 46
10 1540 168
10 1541 276
10 1542 221
10 1543 225
10 1544 7520
10 1545 179
10 1546 120
10 1547 172
10 1548 71
10 1549 123
10 1550 224
10 1551 246
10 1552 80
10 1553 75
10 1554 79
10 1555 101
10 1556 74
10 1557 123
10 1558 227
10 1559 2218
10 1560 92
10 1561 167
10 1562 110
10 1563 414
10 1564 112
10 1565 212
10 1566 251
10 1567 6026
10 1568 106
10 1569 183
10 1570 179
10 1571 223
10 1572 13280
10 1573 172
10 1574 95
10 1575 214
10 1576 176
10 1577 259
10 1578 207
10 1579 163
10 1580 117
10 1581 86
10 1582 135
10 1583 203
10 1584 132
10 1585 226
10 1586 4589
10 1587 178
10 1588 112
10 1589 188
10 1590 160
10 1591 208
10 1592 159
10 1593 157
10 1594 102
10 1595 111
10 1596 120
10 1597 434
10 1598 43
10 1599 264
10 1600 267
10 1601 97
10 1602 175
10 1603 30584
10 1604 118
10 1605 174
10 1606 166
10 1607 110
10 1608 360
10 1609 178
10 1610 131
10 1611 190
10 1612 256
10 1613 95
10 1614 170
10 1615 108
10 1616 171
10 1617 313
10 1618 181
10 1619 160
10 1620 157
10 1621 202
10 1622 111
10 1623 145
10 1624 9372
10 1625 93
10 1626 139
10 1627 253
10 1628 402
10 1629 187
10 1630 180
10 1631 142
10 1632 183
10 1633 116
10 1634 125
10 1635 96
10 1636 153
10 1637 116
10 1638 180
10 1639 282
10 1640 182
10 1641 105
10 1642 148
10 1643 174
10 1644 100
10 1645 207
10 1646 168
10 1647 143
10 1648 117
10 1649 112
10 1650 12215
10 1651 87
10 1652 154
10 1653 285
10 1654 153
10 1655 323
10 1656 100
10 1657 92
10 1658 108
10 1659 337
10 1660 141
10 1661 169
10 1662 202
10 1663 148
10 1664 199
10 1665 209
10 1666 149
10 1667 998
10 1668 645
10 1669 100
10 1670 100
10 1671 125
10 1672 37021
10 1673 75
10 1674 142
10 1675 203
10 1676 178
10 1677 54
10 1678 88
10 1679 11300
10 1680 131
10 1681 147
10 1682 142
10 1683 165
10 1684 190
10 1685 2411
10 1686 159
10 1687 141
10 1688 4424
10 1689 112
10 1690 74
10 1691 85
10 1692 137
10 1693 133
10 1694 114
10 1695 217
10 1696 5020
10 1697 199
10 1698 9242
10 1699 126
10 1700 17674
10 1701 134
10 1702 172
10 1703 55
10 1704 85
10 1705 416
10 1706 202
10 1707 1640
10 1708 206
10 1709 137
10 1710 161
10 1711 58
10 1712 147
10 1713 132
10 1714 225
10 1715 84
10 1716 129
10 1717 99
10 1718 127
10 1719 5738
10 1720 184
10 1721 161
10 1722 118
10 1723 90
10 1724 231
10 1725 105
10 1726 108
10 1727 113
10 1728 185
10 1729 111
10 1730 139
10 1731 105
10 1732 140
10 1733 324
10 1734 242
10 1735 314
10 1736 120
10 1737 176
10 1738 142
10 1739 198
10 1740 180
10 1741 84
10 1742 118
10 1743 104
10 1744 74
10 1745 314
10 1746 89
10 1747 103
10 1748 70
10 1749 348
10 1750 201
10 1751 80
10 1752 185
10 1753 166
10 1754 291
10 1755 173
10 1756 126
10 1757 231
10 1758 420
10 1759 81
10 1760 167
10 1761 252
10 1762 147
10 1763 153
10 1764 83
10 1765 72
10 1766 103
10 1767 469
10 1768 203
10 1769 126
10 1770 187
10 1771 208
10 1772 143
10 1773 91
10 1774 84
10 1775 125
10 1776 1189
10 1777 5143
10 1778 195
10 1779 221
10 1780 62
10 1781 158
10 1782 142
10 1783 178
10 1784 98
10 1785 234
10 1786 207
10 1787 144
10 1788 74
10 1789 291
10 1790 318
10 1791 97
10 1792 150
10 1793 103
10 1794 191
10 1795 133
10 1796 56
10 1797 97
10 1798 112
10 1799 133
10 1800 216
10 1801 167
10 1802 99
10 1803 196
10 1804 1619
10 1805 91
10 1806 21600
10 1807 100
10 1808 122
10 1809 173
10 1810 113
10 1811 96
10 1812 98
10 1813 99
10 1814 112
10 1815 187
10 1816 6178
10 1817 66
10 1818 84
10 1819 134
10 1820 175
10 1821 114
10 1822 113
10 1823 150
10 1824 4409
10 1825 163
10 1826 67
10 1827 112
10 1828 99
10 1829 199
10 1830 26819
10 1831 195
10 1832 108
10 1833 167
10 1834 311
10 1835 209
10 1836 94
10 1837 257
10 1838 83
10 1839 157
10 1840 90
10 1841 148
10 1842 110
10 1843 196
10 1844 246
10 1845 162
10 1846 197
10 1847 192
10 1848 121
10 1849 47
10 1850 106
10 1851 198
10 1852 106
10 1853 114
10 1854 176
10 1855 115
10 1856 202
10 1857 384
10 1858 113
10 1859 16314
10 1860 196
10 1861 108
10 1862 168
10 1863 94
10 1864 166
10 1865 87
10 1866 399
10 1867 392
10 1868 8735
10 1869 145
10 1870 118
10 1871 172
10 1872 128
10 1873 135
10 1874 185
10 1875 173
10 1876 113
10 1877 207
10 1878 67
10 1879 91
10 1880 81
10 1881 157
10 1882 62
10 1883 121
10 1884 131
10 1885 153
10 1886 210
10 1887 98
10 1888 91
10 1889 118
10 1890 110
10 1891 235
10 1892 185
10 1893 163
10 1894 88
10 1895 92
10 1896 113
10 1897 209
10 1898 149
10 1899 91
10 1900 115
10 1901 223
10 1902 208
10 1903 172
10 1904 221
10 1905 4965
10 1906 153
10 1907 149
10 1908 685
10 1909 157
10 1910 232
10 1911 105
10 1912 109
10 1913 122
10 1914 115
10 1915 109
10 1916 99
10 1917 161
10 1918 111
10 1919 76
10 1920 126
10 1921 127
10 1922 98
10 1923 70
10 1924 82
10 1925 207
10 1926 142
10 1927 116
10 1928 8727
10 1929 130
10 1930 223
10 1931 153
10 1932 260
10 1933 140
10 1934 160
10 1935 151
10 1936 164
10 1937 193
10 1938 313
10 1939 143
10 1940 318
10 1941 201
10 1942 167
10 1943 87
10 1944 92
10 1945 225
10 1946 187
10 1947 215
10 1948 139
10 1949 197
10 1950 80
10 1951 167
10 1952 127
10 1953 94
10 1954 219
10 1955 731
10 1956 188
10 1957 93
10 1958 212
10 1959 98
10 1960 89
10 1961 94
10 1962 113
10 1963 96
10 1964 94
10 1965 232
10 1966 116
10 1967 101
10 1968 178
10 1969 147
10 1970 151
10 1971 175
10 1972 108
10 1973 81
10 1974 128
10 1975 18234
10 1976 78
10 1977 198
10 1978 214
10 1979 6237
10 1980 165
10 1981 184
10 1982 170
10 1983 145
10 1984 75
10 1985 82
10 1986 155
10 1987 124
10 1988 116
10 1989 126
10 1990 108
10 1991 160
10 1992 218
10 1993 160
10 1994 187
10 1995 137
10 1996 132
10 1997 156
10 1998 1284
10 1999 343
10 2000 201
10 2001 181
10 2002 222
10 2003 150
10 2004 85
10 2005 122
10 2006 170
10 2007 319
10 2008 126
10 2009 129
10 2010 91
10 2011 190
10 2012 89
10 2013 96
10 2014 87
10 2015 207
10 2016 102
10 2017 184
10 2018 85
10 2019 154
10 2020 173
10 2021 130
10 2022 176
10 2023 176
10 2024 89
10 2025 213
10 2026 212
10 2027 155
10 2028 89
10 2029 94
10 2030 184
10 2031 142
10 2032 179
10 2033 97
10 2034 55
10 2035 123
10 2036 105
10 2037 76
10 2038 207
10 2039 134
10 2040 206
10 2041 138
10 2042 148
10 2043 108
10 2044 214
10 2045 186
10 2046 1774
10 2047 215
10 2048 129
10 2049 225
10 2050 91
10 2051 162
10 2052 124
10 2053 132
10 2054 193
10 2055 52
10 2056 162
10 2057 155
10 2058 5940
10 2059 83
10 2060 203
10 2061 135
10 2062 108
10 2063 251
10 2064 99
10 2065 153
10 2066 119
10 2067 140
10 2068 192
10 2069 235
10 2070 177
10 2071 249
10 2072 107
10 2073 178
10 2074 110
10 2075 108
10 2076 190
10 2077 198
10 2078 198
10 2079 94
10 2080 185
10 2081 234
10 2082 451
10 2083 71
10 2084 188
10 2085 247
10 2086 197
10 2087 892
10 2088 487
10 2089 85
10 2090 84
10 2091 85
10 2092 169
10 2093 8693
10 2094 143
10 2095 8
10 2096 180
10 2097 137
10 2098 176
10 2099 251
10 2100 270
10 2101 73
10 2102 129
10 2103 165
10 2104 87
10 2105 84
10 2106 170
10 2107 135
10 2108 166
10 2109 5593
10 2110 132
10 2111 75
10 2112 808
10 2113 107
10 2114 222
10 2115 93
10 2116 132
10 2117 359
10 2118 113
10 2119 169
10 2120 214
10 2121 108
10 2122 101
10 2123 217
10 2124 200
10 2125 92
10 2126 171
10 2127 154
10 2128 102
10 2129 133
10 2130 160
10 2131 125
10 2132 172
10 2133 200
10 2134 88
10 2135 180
10 2136 4962
10 2137 72
10 2138 160
10 2139 190
10 2140 201
10 2141 103
10 2142 167
10 2143 151
10 2144 367
10 2145 182
10 2146 115
10 2147 130
10 2148 202
10 2149 201
10 2150 163
10 2151 110
10 2152 118
10 2153 203
10 2154 130
10 2155 93
10 2156 175
10 2157 175
10 2158 171
10 2159 145
10 2160 130
10 2161 12
10 2162 133
10 2163 276
10 2164 162
10 2165 172
10 2166 205
10 2167 181
10 2168 78
10 2169 267
10 2170 3880
10 2171 344
10 2172 149
10 2173 2016
10 2174 5093
10 2175 159
10 2176 136
10 2177 153
10 2178 104
10 2179 282
10 2180 136
10 2181 2217
10 2182 44
10 2183 264
10 2184 81
10 2185 277
10 2186 2617
10 2187 722
10 2188 138
10 2189 177
10 2190 345
10 2191 215
10 2192 490
10 2193 187
10 2194 199
10 2195 216
10 2196 106
10 2197 94
10 2198 157
10 2199 8414
10 2200 154
10 2201 23083
10 2202 187
10 2203 92
10 2204 109
10 2205 196
10 2206 96
10 2207 165
10 2208 123
10 2209 123
10 2210 159
10 2211 25572
10 2212 203
10 2213 59
10 2214 102
10 2215 222
10 2216 172
10 2217 120
10 2218 169
10 2219 218
10 2220 225
10 2221 120
10 2222 107
10 2223 108
10 2224 76
10 2225 57
10 2226 151
10 2227 179
10 2228 108
10 2229 98
10 2230 233
10 2231 176
10 2232 108
10 2233 236
10 2234 113
10 2235 130
10 2236 156
10 2237 201
10 2238 111
10 2239 203
10 2240 141
10 2241 73
10 2242 141
10 2243 94
10 2244 182
10 2245 1688
10 2246 167
10 2247 157
10 2248 220
10 2249 188
10 2250 175
10 2251 608
10 2252 144
10 2253 155
10 2254 90
10 2255 176
10 2256 162
10 2257 124
10 2258 70
10 2259 121
10 2260 90
10 2261 103
10 2262 152
10 2263 236
10 2264 77
10 2265 177
10 2266 131
10 2267 199
10 2268 1973
10 2269 209
10 2270 70
10 2271 204
10 2272 151
10 2273 3774
10 2274 63
10 2275 148
10 2276 108
10 2277 61
10 2278 122
10 2279 129
10 2280 156
10 2281 399
10 2282 169
10 2283 159
10 2284 82
10 2285 121
10 2286 95
10 2287 480
10 2288 116
10 2289 152
10 2290 202
10 2291 123
10 2292 139
10 2293 115
10 2294 23
10 2295 183
10 2296 219
10 2297 249
10 2298 171
10 2299 139
10 2300 123
10 2301 109
10 2302 97
10 2303 107
10 2304 471
10 2305 347
10 2306 102
10 2307 341
10 2308 89
10 2309 167
10 2310 181
10 2311 213
10 2312 189
10 2313 109
10 2314 105
10 2315 161
10 2316 190
10 2317 183
10 2318 118
10 2319 117
10 2320 252
10 2321 201
10 2322 212
10 2323 178
10 2324 268
10 2325 132
10 2326 223
10 2327 188
10 2328 527
10 2329 291
10 2330 61
10 2331 164
10 2332 269
10 2333 87
10 2334 432
10 2335 37
10 2336 159
10 2337 111
10 2338 94
10 2339 127
10 2340 135
10 2341 168
10 2342 157
10 2343 115
10 2344 1069
10 2345 172
10 2346 205
10 2347 312
10 2348 183
10 2349 164
10 2350 263
10 2351 107
10 2352 105
10 2353 107
10 2354 178
10 2355 1460
10 2356 2458
10 2357 146
10 2358 145
10 2359 483
10 2360 98
10 2361 265
10 2362 159
10 2363 159
10 2364 70
10 2365 116
10 2366 131
10 2367 2637
10 2368 109
10 2369 85
10 2370 120
10 2371 1464
10 2372 222
10 2373 86
10 2374 707
10 2375 200
10 2376 175
10 2377 177
10 2378 161
10 2379 729
10 2380 183
10 2381 223
10 2382 152
10 2383 98
10 2384 102
10 2385 147
10 2386 189
10 2387 84
10 2388 486
10 2389 73
10 2390 172
10 2391 1329
10 2392 133
10 2393 114
10 2394 180
10 2395 147
10 2396 278
10 2397 216
10 2398 226
10 2399 184
10 2400 221
10 2401 207
10 2402 812
10 2403 81
10 2404 109
10 2405 83
10 2406 190
10 2407 97
10 2408 189
10 2409 1481
10 2410 102
10 2411 200
10 2412 90
10 2413 206
10 2414 105
10 2415 141
10 2416 221
10 2417 37
10 2418 28
10 2419 160
10 2420 163
10 2421 179
10 2422 773
10 2423 100
10 2424 147
10 2425 170
10 2426 171
10 2427 188
10 2428 713
10 2429 100
10 2430 111
10 2431 145
10 2432 186
10 2433 186
10 2434 139
10 2435 127
10 2436 150
10 2437 92
10 2438 234
10 2439 129
10 2440 353
10 2441 172
10 2442 66
10 2443 177
10 2444 168
10 2445 106
10 2446 158
10 2447 148
10 2448 200
10 2449 158
10 2450 128
10 2451 160
10 2452 77
10 2453 69
10 2454 107
10 2455 315
10 2456 107
10 2457 78
10 2458 77
10 2459 2249
10 2460 149
10 2461 171
10 2462 129
10 2463 104
10 2464 146
10 2465 167
10 2466 98
10 2467 179
10 2468 162
10 2469 49
10 2470 179
10 2471 168
10 2472 49
10 2473 104
10 2474 159
10 2475 225
10 2476 417
10 2477 200
10 2478 139
10 2479 4014
10 2480 199
10 2481 106
10 2482 394
10 2483 182
10 2484 198
10 2485 115
10 2486 71
10 2487 161
10 2488 219
10 2489 227
10 2490 94
10 2491 88
10 2492 123
10 2493 118
10 2494 193
10 2495 144
10 2496 101
10 2497 214
10 2498 139
10 2499 616
10 2500 99
10 2501 188
10 2502 102
10 2503 40
10 2504 172
10 2505 25600
10 2506 221
10 2507 107
10 2508 194
10 2509 183
10 2510 176
10 2511 79
10 2512 55
10 2513 163
10 2514 176
10 2515 107
10 2516 266
10 2517 105
10 2518 239
10 2519 365
10 2520 81
10 2521 336
10 2522 94
10 2523 77
10 2524 277
10 2525 125
10 2526 39
10 2527 84
10 2528 97
10 2529 225
10 2530 94
10 2531 84
10 2532 176
10 2533 105
10 2534 186
10 2535 205
10 2536 184
10 2537 121
10 2538 101
10 2539 117
10 2540 89
10 2541 175
10 2542 144
10 2543 63
10 2544 147
10 2545 118
10 2546 116
10 2547 176
10 2548 130
10 2549 538
10 2550 105
10 2551 122
10 2552 114
10 2553 141
10 2554 181
10 2555 93
10 2556 92
10 2557 122
10 2558 1295
10 2559 345
10 2560 133
10 2561 1676
10 2562 98
10 2563 150
10 2564 148
10 2565 97
10 2566 94
10 2567 222
10 2568 123
10 2569 1583
10 2570 201
10 2571 125
10 2572 115
10 2573 1907
10 2574 71
10 2575 192
10 2576 101
10 2577 97
10 2578 91
10 2579 141
10 2580 191
10 2581 173
10 2582 91
10 2583 337
10 2584 2054
10 2585 84
10 2586 206
10 2587 149
10 2588 192
10 2589 191
10 2590 174
10 2591 136
10 2592 113
10 2593 124
10 2594 98
10 2595 101
10 2596 184
10 2597 189
10 2598 168
10 2599 202
10 2600 352
10 2601 306
10 2602 135
10 2603 127
10 2604 136
10 2605 87
10 2606 270
10 2607 76
10 2608 65
10 2609 65
10 2610 122
10 2611 163
10 2612 157
10 2613 94
10 2614 128
10 2615 182
10 2616 165
10 2617 61
10 2618 128
10 2619 130
10 2620 152
10 2621 71
10 2622 7958
10 2623 62
10 2624 97
10 2625 246
10 2626 137
10 2627 119
10 2628 206
10 2629 127
10 2630 127
10 2631 159
10 2632 91
10 2633 192
10 2634 181
10 2635 255
10 2636 707
10 2637 155
10 2638 266
10 2639 97
10 2640 78
10 2641 154
10 2642 241
10 2643 445
10 2644 160
10 2645 174
10 2646 117
10 2647 114
10 2648 60
10 2649 166
10 2650 93
10 2651 237
10 2652 118
10 2653 87
10 2654 79
10 2655 195
10 2656 93
10 2657 105
10 2658 172
10 2659 288
10 2660 112
10 2661 98
10 2662 179
10 2663 152
10 2664 143
10 2665 42
10 2666 178
10 2667 161
10 2668 265
10 2669 80
10 2670 119
10 2671 210
10 2672 108
10 2673 95
10 2674 78
10 2675 5962
10 2676 166
10 2677 111
10 2678 6306
10 2679 141
10 2680 173
10 2681 198
10 2682 217
10 2683 196
10 2684 117
10 2685 115
10 2686 213
10 2687 180
10 2688 68
10 2689 3599
10 2690 128
10 2691 205
10 2692 212
10 2693 185
10 2694 89
10 2695 133
10 2696 372
10 2697 137
10 2698 224
10 2699 174
10 2700 145
10 2701 51
10 2702 158
10 2703 283
10 2704 184
10 2705 108
10 2706 3306
10 2707 110
10 2708 90
10 2709 186
10 2710 2644
10 2711 217
10 2712 104
10 2713 111
10 2714 101
10 2715 131
10 2716 130
10 2717 278
10 2718 78
10 2719 348
10 2720 125
10 2721 129
10 2722 134
10 2723 208
10 2724 154
10 2725 66
10 2726 170
10 2727 210
10 2728 183
10 2729 115
10 2730 93
10 2731 208
10 2732 97
10 2733 157
10 2734 208
10 2735 231
10 2736 566
10 2737 133
10 2738 82
10 2739 849
10 2740 90
10 2741 208
10 2742 161
10 2743 92
10 2744 1762
10 2745 130
10 2746 323
10 2747 365
10 2748 179
10 2749 87
10 2750 89
10 2751 93
10 2752 63
10 2753 112
10 2754 181
10 2755 74
10 2756 77
10 2757 126
10 2758 110
10 2759 182
10 2760 194
10 2761 175
10 2762 170
10 2763 263
10 2764 204
10 2765 124
10 2766 145
10 2767 240
10 2768 147
10 2769 97
10 2770 114
10 2771 209
10 2772 84
10 2773 151
10 2774 85
10 2775 83
10 2776 212
10 2777 99
10 2778 233
10 2779 6015
10 2780 216
10 2781 124
10 2782 90
10 2783 172
10 2784 190
10 2785 217
10 2786 113
10 2787 155
10 2788 141
10 2789 92
10 2790 85
10 2791 222
10 2792 104
10 2793 109
10 2794 96
10 2795 373
10 2796 216
10 2797 201
10 2798 276
10 2799 104
10 2800 130
10 2801 196
10 2802 132
10 2803 105
10 2804 34
10 2805 103
10 2806 209
10 2807 74
10 2808 157
10 2809 171
10 2810 176
10 2811 96
10 2812 127
10 2813 129
10 2814 191
10 2815 715
10 2816 118
10 2817 60
10 2818 19
10 2819 176
10 2820 87
10 2821 169
10 2822 137
10 2823 6887
10 2824 116
10 2825 170
10 2826 94
10 2827 82
10 2828 146
10 2829 203
10 2830 99
10 2831 106
10 2832 120
10 2833 90
10 2834 78
10 2835 147
10 2836 119
10 2837 198
10 2838 224
10 2839 203
10 2840 262
10 2841 215
10 2842 6313
10 2843 77
10 2844 75
10 2845 127
10 2846 246
10 2847 322
10 2848 286
10 2849 102
10 2850 149
10 2851 157
10 2852 129
10 2853 199
10 2854 110
10 2855 159
10 2856 173
10 2857 80
10 2858 1497
10 2859 69
10 2860 111
10 2861 216
10 2862 83
10 2863 142
10 2864 313
10 2865 119
10 2866 177
10 2867 219
10 2868 79
10 2869 86
10 2870 169
10 2871 132
10 2872 87
10 2873 33
10 2874 138
10 2875 216
10 2876 8090
10 2877 194
10 2878 8632
10 2879 192
10 2880 216
10 2881 118
10 2882 195
10 2883 127
10 2884 2401
10 2885 70
10 2886 123
10 2887 184
10 2888 129
10 2889 67
10 2890 259
10 2891 109
10 2892 198
10 2893 101
10 2894 172
10 2895 120
10 2896 159
10 2897 140
10 2898 165
10 2899 253
10 2900 1158
10 2901 86
10 2902 132
10 2903 244
10 2904 215
10 2905 123
10 2906 172
10 2907 196
10 2908 210
10 2909 61
10 2910 127
10 2911 153
10 2912 180
10 2913 104
10 2914 157
10 2915 116
10 2916 144
10 2917 139
10 2918 195
10 2919 94
10 2920 173
10 2921 1673
10 2922 232
10 2923 342
10 2924 303
10 2925 123
10 2926 163
10 2927 170
10 2928 237
10 2929 169
10 2930 169
10 2931 116
10 2932 74
10 2933 183
10 2934 114
10 2935 172
10 2936 151
10 2937 988
10 2938 98
10 2939 1387
10 2940 126
10 2941 175
10 2942 124
10 2943 161
10 2944 92
10 2945 101
10 2946 126
10 2947 151
10 2948 176
10 2949 164
10 2950 178
10 2951 196
10 2952 98
10 2953 67
10 2954 147
10 2955 169
10 2956 48
10 2957 102
10 2958 125
10 2959 108
10 2960 168
10 2961 176
10 2962 133
10 2963 69
10 2964 125
10 2965 84
10 2966 70
10 2967 82
10 2968 143
10 2969 145
10 2970 131
10 2971 105
10 2972 99
10 2973 65
10 2974 153
10 2975 105
10 2976 98
10 2977 65
10 2978 271
10 2979 173
10 2980 141
10 2981 144
10 2982 133
10 2983 107
10 2984 90
10 2985 76
10 2986 3966
10 2987 20
10 2988 60
10 2989 73
10 2990 1475
10 2991 142
10 2992 162
10 2993 92
10 2994 229
10 2995 119
10 2996 381
10 2997 120
10 2998 170
10 2999 135
10 3000 1389
10 3001 292
10 3002 139
10 3003 250
10 3004 1088
10 3005 1731
10 3006 106
10 3007 117
10 3008 236
10 3009 67
10 3010 225
10 3011 109
10 3012 201
10 3013 195
10 3014 301
10 3015 220
10 3016 120
10 3017 282
10 3018 125
10 3019 329
10 3020 89
10 3021 130
10 3022 106
10 3023 187
10 3024 160
10 3025 95
10 3026 117
10 3027 185
10 3028 58
10 3029 47
10 3030 236
10 3031 98
10 3032 267
10 3033 245
10 3034 306
10 3035 160
10 3036 151
10 3037 143
10 3038 179
10 3039 101
10 3040 106
10 3041 87
10 3042 444
10 3043 168
10 3044 214
10 3045 184
10 3046 131
10 3047 170
10 3048 90
10 3049 139
10 3050 104
10 3051 394
10 3052 175
10 3053 97
10 3054 43
10 3055 105
10 3056 281
10 3057 87
10 3058 201
10 3059 104
10 3060 165
10 3061 120
10 3062 135
10 3063 264
10 3064 138
10 3065 170
10 3066 62
10 3067 2241
10 3068 85
10 3069 72
10 3070 140
10 3071 179
10 3072 142
10 3073 73
10 3074 198
10 3075 327
10 3076 160
10 3077 132
10 3078 161
10 3079 104
10 3080 188
10 3081 1403
10 3082 80
10 3083 159
10 3084 117
10 3085 103
10 3086 85
10 3087 259
10 3088 1212
10 3089 67
10 3090 169
10 3091 110
10 3092 102
10 3093 120
10 3094 82
10 3095 203
10 3096 12878
10 3097 180
10 3098 111
10 3099 237
10 3100 141
10 3101 131
10 3102 161
10 3103 135
10 3104 13528
10 3105 196
10 3106 94
10 3107 95
10 3108 114
10 3109 140
10 3110 417
10 3111 156
10 3112 172
10 3113 213
10 3114 94
10 3115 756
10 3116 13240
10 3117 164
10 3118 87
10 3119 168
10 3120 173
10 3121 85
10 3122 155
10 3123 113
10 3124 191
10 3125 177
10 3126 385
10 3127 142
10 3128 145
10 3129 85
10 3130 133
10 3131 173
10 3132 165
10 3133 189
10 3134 185
10 3135 125
10 3136 250
10 3137 184
10 3138 48
10 3139 122
10 3140 295
10 3141 228
10 3142 184
10 3143 285
10 3144 89
10 3145 1880
10 3146 171
10 3147 3624
10 3148 251
10 3149 190
10 3150 138
10 3151 68
10 3152 160
10 3153 171
10 3154 92
10 3155 170
10 3156 2199
10 3157 154
10 3158 182
10 3159 176
10 3160 81
10 3161 243
10 3162 362
10 3163 159
10 3164 224
10 3165 102
10 3166 177
10 3167 78
10 3168 113
10 3169 160
10 3170 92
10 3171 105
10 3172 108
10 3173 160
10 3174 1630
10 3175 137
10 3176 83
10 3177 133
10 3178 98
10 3179 174
10 3180 86
10 3181 97
10 3182 284
10 3183 1607
10 3184 139
10 3185 177
10 3186 68
10 3187 131
10 3188 125
10 3189 410
10 3190 99
10 3191 155
10 3192 145
10 3193 115
10 3194 107
10 3195 72
10 3196 154
10 3197 156
10 3198 228
10 3199 191
10 3200 256
10 3201 154
10 3202 204
10 3203 61
10 3204 79
10 3205 107
10 3206 233
10 3207 193
10 3208 178
10 3209 102
10 3210 102
10 3211 181
10 3212 111
10 3213 162
10 3214 71
10 3215 83
10 3216 114
10 3217 174
10 3218 217
10 3219 118
10 3220 114
10 3221 121
10 3222 194
10 3223 152
10 3224 133
10 3225 120
10 3226 68
10 3227 454
10 3228 192
10 3229 104
10 3230 73
10 3231 236
10 3232 99
10 3233 136
10 3234 1765
10 3235 236
10 3236 2994
10 3237 115
10 3238 54
10 3239 140
10 3240 126
10 3241 313
10 3242 360
10 3243 180
10 3244 278
10 3245 1265
10 3246 190
10 3247 161
10 3248 72
10 3249 101
10 3250 757
10 3251 195
10 3252 216
10 3253 128
10 3254 82
10 3255 206
10 3256 13480
10 3257 104
10 3258 138
10 3259 345
10 3260 118
10 3261 128
10 3262 103
10 3263 159
10 3264 124
10 3265 186
10 3266 160
10 3267 194
10 3268 143
10 3269 178
10 3270 96
10 3271 96
10 3272 124
10 3273 221
10 3274 121
10 3275 117
10 3276 157
10 3277 99
10 3278 184
10 3279 81
10 3280 81
10 3281 183
10 3282 164
10 3283 174
10 3284 130
10 3285 57
10 3286 127
10 3287 149
10 3288 185
10 3289 50
10 3290 231
10 3291 81
10 3292 134
10 3293 132
10 3294 112
10 3295 193
10 3296 209
10 3297 176
10 3298 166
10 3299 5966
10 3300 156
10 3301 144
10 3302 499
10 3303 223
10 3304 129
10 3305 118
10 3306 223
10 3307 124
10 3308 155
10 3309 168
10 3310 88
10 3311 107
10 3312 336
10 3313 74
10 3314 200
10 3315 208
10 3316 3348
10 3317 116
10 3318 178
10 3319 153
10 3320 161
10 3321 125
10 3322 339
10 3323 113
10 3324 147
10 3325 214
10 3326 68
10 3327 104
10 3328 115
10 3329 190
10 3330 151
10 3331 171
10 3332 114
10 3333 157
10 3334 111
10 3335 159
10 3336 168
10 3337 84
10 3338 87
10 3339 198
10 3340 199
10 3341 114
10 3342 322
10 3343 215
10 3344 76
10 3345 94
10 3346 99
10 3347 182
10 3348 163
10 3349 94
10 3350 121
10 3351 614
10 3352 90
10 3353 107
10 3354 96
10 3355 245
10 3356 190
10 3357 104
10 3358 92
10 3359 137
10 3360 151
10 3361 2199
10 3362 98
10 3363 117
10 3364 79
10 3365 245
10 3366 145
10 3367 106
10 3368 101
10 3369 815
10 3370 110
10 3371 98
10 3372 220
10 3373 120
10 3374 130
10 3375 223
10 3376 146
10 3377 69
10 3378 81
10 3379 58
10 3380 567
10 3381 100
10 3382 1406
10 3383 181
10 3384 115
10 3385 299
10 3386 170
10 3387 187
10 3388 192
10 3389 63
10 3390 669
10 3391 134
10 3392 329
10 3393 63
10 3394 86
10 3395 87
10 3396 131
10 3397 86
10 3398 243
10 3399 185
10 3400 146
10 3401 189
10 3402 74
10 3403 190
10 3404 48
10 3405 153
10 3406 140
10 3407 151
10 3408 87
10 3409 116
10 3410 86
10 3411 67
10 3412 215
10 3413 58
10 3414 195
10 3415 168
10 3416 107
10 3417 88
10 3418 158
10 3419 38
10 3420 116
10 3421 208
10 3422 395
10 3423 53
10 3424 63
10 3425 434
10 3426 94
10 3427 41
10 3428 89
10 3429 147
10 3430 189
10 3431 111
10 3432 105
10 3433 197
10 3434 83
10 3435 91
10 3436 120
10 3437 142
10 3438 1241
10 3439 193
10 3440 260
10 3441 169
10 3442 348
10 3443 146
10 3444 122
10 3445 103
10 3446 202
10 3447 202
10 3448 46
10 3449 76
10 3450 176
10 3451 75
10 3452 790
10 3453 144
10 3454 115
10 3455 109
10 3456 119
10 3457 9592
10 3458 146
10 3459 378
10 3460 156
10 3461 109
10 3462 90
10 3463 527
10 3464 53
10 3465 73
10 3466 95
10 3467 174
10 3468 3942
10 3469 99
10 3470 101
10 3471 121
10 3472 88
10 3473 76
10 3474 104
10 3475 121
10 3476 66
10 3477 49
10 3478 66
10 3479 91
10 3480 125
10 3481 90
10 3482 104
10 3483 191
10 3484 153
10 3485 592
10 3486 164
10 3487 140
10 3488 120
10 3489 100
10 3490 151
10 3491 149
10 3492 96
10 3493 317
10 3494 333
10 3495 318
10 3496 59
10 3497 120
10 3498 125
10 3499 307
10 3500 157
10 3501 83
10 3502 133
10 3503 104
10 3504 122
10 3505 98
10 3506 120
10 3507 772
10 3508 335
10 3509 220
10 3510 712
10 3511 124
10 3512 174
10 3513 93
10 3514 197
10 3515 248
10 3516 220
10 3517 103
10 3518 59
10 3519 192
10 3520 110
10 3521 114
10 3522 96
10 3523 50
10 3524 127
10 3525 67
10 3526 210
10 3527 121
10 3528 77
10 3529 115
10 3530 91
10 3531 120
10 3532 127
10 3533 171
10 3534 115
10 3535 82
10 3536 178
10 3537 146
10 3538 173
10 3539 156
10 3540 80
10 3541 156
10 3542 105
10 3543 59
10 3544 191
10 3545 114
10 3546 144
10 3547 69
10 3548 65
10 3549 87
10 3550 141
10 3551 156
10 3552 90
10 3553 166
10 3554 613
10 3555 108
10 3556 687
10 3557 155
10 3558 140
10 3559 166
10 3560 72
10 3561 133
10 3562 355
10 3563 143
10 3564 138
10 3565 705
10 3566 146
10 3567 238
10 3568 131
10 3569 130
10 3570 99
10 3571 194
10 3572 102
10 3573 390
10 3574 345
10 3575 151
10 3576 109
10 3577 185
10 3578 108
10 3579 85
10 3580 136
10 3581 247
10 3582 175
10 3583 172
10 3584 155
10 3585 129
10 3586 116
10 3587 38
10 3588 62
10 3589 38
10 3590 181
10 3591 119
10 3592 307
10 3593 183
10 3594 110
10 3595 131
10 3596 149
10 3597 154
10 3598 126
10 3599 189
10 3600 178
10 3601 88
10 3602 72
10 3603 88
10 3604 152
10 3605 322
10 3606 111
10 3607 123
10 3608 184
10 3609 77
10 3610 112
10 3611 170
10 3612 173
10 3613 115
10 3614 180
10 3615 127
10 3616 66
10 3617 126
10 3618 168
10 3619 142
10 3620 101
10 3621 145
10 3622 147
10 3623 111
10 3624 109
10 3625 169
10 3626 192
10 3627 251
10 3628 133
10 3629 117
10 3630 324
10 3631 181
10 3632 162
10 3633 437
10 3634 132
10 3635 143
10 3636 79
10 3637 156
10 3638 90
10 3639 144
10 3640 193
10 3641 114
10 3642 99
10 3643 76
10 3644 136
10 3645 132
10 3646 96
10 3647 174
10 3648 178
10 3649 97
10 3650 154
10 3651 225
10 3652 314
10 3653 99
10 3654 94
10 3655 46
10 3656 191
10 3657 169
10 3658 164
10 3659 118
10 3660 100
10 3661 120
10 3662 167
10 3663 129
10 3664 99
10 3665 125
10 3666 100
10 3667 90
10 3668 113
10 3669 104
10 3670 157
10 3671 103
10 3672 487
10 3673 92
10 3674 172
10 3675 69
10 3676 93
10 3677 145
10 3678 61
10 3679 145
10 3680 115
10 3681 172
10 3682 123
10 3683 92
10 3684 119
10 3685 189
10 3686 106
10 3687 106
10 3688 97
10 3689 478
10 3690 152
10 3691 84
10 3692 96
10 3693 144
10 3694 138
10 3695 1356
10 3696 236
10 3697 132
10 3698 7
10 3699 155
10 3700 228
10 3701 184
10 3702 165
10 3703 230
10 3704 174
10 3705 2843
10 3706 64
10 3707 855
10 3708 101
10 3709 100
10 3710 266
10 3711 164
10 3712 362
10 3713 204
10 3714 164
10 3715 96
10 3716 221
10 3717 100
10 3718 91
10 3719 77
10 3720 157
10 3721 77
10 3722 151
10 3723 98
10 3724 111
10 3725 75
10 3726 115
10 3727 142
10 3728 217
10 3729 131
10 3730 95
10 3731 117
10 3732 156
10 3733 142
10 3734 140
10 3735 108
10 3736 491
10 3737 401
10 3738 153
10 3739 212
10 3740 180
10 3741 77
10 3742 157
10 3743 88
10 3744 148
10 3745 166
10 3746 82
10 3747 163
10 3748 77
10 3749 73
10 3750 108
10 3751 123
10 3752 158
10 3753 85
10 3754 109
10 3755 118
10 3756 125
10 3757 102
10 3758 63
10 3759 136
10 3760 194
10 3761 154
10 3762 222
10 3763 155
10 3764 179
10 3765 107
10 3766 124
10 3767 4833
10 3768 157
10 3769 139
10 3770 122
10 3771 66
10 3772 99
10 3773 84
10 3774 81
10 3775 124
10 3776 199
10 3777 113
10 3778 93
10 3779 210
10 3780 120
10 3781 157
10 3782 106
10 3783 102
10 3784 80
10 3785 229
10 3786 1595
10 3787 103
10 3788 132
10 3789 155
10 3790 202
10 3791 152
10 3792 204
10 3793 129
10 3794 101
10 3795 224
10 3796 127
10 3797 125
10 3798 69
10 3799 326
10 3800 192
10 3801 187
10 3802 91
10 3803 57
10 3804 71
10 3805 164
10 3806 114
10 3807 94
10 3808 61
10 3809 159
10 3810 95
10 3811 156
10 3812 87
10 3813 248
10 3814 140
10 3815 182
10 3816 140
10 3817 96
10 3818 113
10 3819 216
10 3820 991
10 3821 98
10 3822 151
10 3823 126
10 3824 301
10 3825 154
10 3826 104
10 3827 128
10 3828 91
10 3829 103
10 3830 126
10 3831 347
10 3832 94
10 3833 295
10 3834 86
10 3835 78
10 3836 190
10 3837 117
10 3838 215
10 3839 135
10 3840 103
10 3841 55
10 3842 173
10 3843 211
10 3844 210
10 3845 341
10 3846 113
10 3847 180
10 3848 150
10 3849 69
10 3850 90
10 3851 167
10 3852 119
10 3853 71
10 3854 113
10 3855 94
10 3856 169
10 3857 1844
10 3858 142
10 3859 94
10 3860 145
10 3861 1651
10 3862 109
10 3863 68
10 3864 54
10 3865 56
10 3866 162
10 3867 233
10 3868 265
10 3869 130
10 3870 197
10 3871 146
10 3872 97
10 3873 158
10 3874 35
10 3875 146
10 3876 171
10 3877 182
10 3878 77
10 3879 155
10 3880 17
10 3881 145
10 3882 134
10 3883 117
10 3884 155
10 3885 190
10 3886 9
10 3887 138
10 3888 123
10 3889 275
10 3890 189
10 3891 139
10 3892 160
10 3893 247
10 3894 61
10 3895 67
10 3896 122
10 3897 209
10 3898 116
10 3899 276
10 3900 182
10 3901 63
10 3902 195
10 3903 314
10 3904 306
10 3905 156
10 3906 212
10 3907 1900
10 3908 85
10 3909 83
10 3910 125
10 3911 83
10 3912 137
10 3913 123
10 3914 107
10 3915 139
10 3916 37
10 3917 158
10 3918 208
10 3919 86
10 3920 139
10 3921 122
10 3922 85
10 3923 138
10 3924 280
10 3925 74
10 3926 107
10 3927 89
10 3928 116
10 3929 98
10 3930 81
10 3931 139
10 3932 208
10 3933 124
10 3934 57
10 3935 334
10 3936 188
10 3937 83
10 3938 157
10 3939 76
10 3940 131
10 3941 192
10 3942 69
10 3943 139
10 3944 184
10 3945 88
10 3946 320
10 3947 543
10 3948 116
10 3949 142
10 3950 97
10 3951 175
10 3952 152
10 3953 174
10 3954 131
10 3955 66
10 3956 91
10 3957 152
10 3958 612
10 3959 113
10 3960 68
10 3961 115
10 3962 1404
10 3963 184
10 3964 83
10 3965 106
10 3966 134
10 3967 188
10 3968 89
10 3969 232
10 3970 3407
10 3971 93
10 3972 179
10 3973 73
10 3974 102
10 3975 63
10 3976 161
10 3977 210
10 3978 161
10 3979 133
10 3980 195
10 3981 107
10 3982 198
10 3983 157
10 3984 269
10 3985 240
10 3986 201
10 3987 67
10 3988 129
10 3989 268
10 3990 86
10 3991 68
10 3992 177
10 3993 301
10 3994 124
10 3995 102
10 3996 137
10 3997 449
10 3998 93
10 3999 136
10 4000 172
10 4001 191
10 4002 197
10 4003 96
10 4004 109
10 4005 90
10 4006 267
10 4007 115
10 4008 124
10 4009 129
10 4010 156
10 4011 69
10 4012 123
10 4013 197
10 4014 108
10 4015 512
10 4016 157
10 4017 79
10 4018 188
10 4019 145
10 4020 98
10 4021 86
10 4022 96
10 4023 115
10 4024 127
10 4025 92
10 4026 291
10 4027 89
10 4028 76
10 4029 66
10 4030 138
10 4031 69
10 4032 158
10 4033 60
10 4034 124
10 4035 35
10 4036 163
10 4037 106
10 4038 177
10 4039 149
10 4040 139
10 4041 684
10 4042 103
10 4043 131
10 4044 35
10 4045 77
10 4046 90
10 4047 98
10 4048 135
10 4049 205
10 4050 135
10 4051 114
10 4052 2105
10 4053 174
10 4054 238
10 4055 156
10 4056 141
10 4057 65
10 4058 203
10 4059 52
10 4060 160
10 4061 103
10 4062 127
10 4063 194
10 4064 166
10 4065 224
10 4066 193
10 4067 455
10 4068 286
10 4069 178
10 4070 91
10 4071 190
10 4072 140
10 4073 88
10 4074 257
10 4075 77
10 4076 121
10 4077 160
10 4078 97
10 4079 151
10 4080 102
10 4081 99
10 4082 113
10 4083 154
10 4084 132
10 4085 57
10 4086 151
10 4087 96
10 4088 150
10 4089 171
10 4090 256
10 4091 76
10 4092 121
10 4093 88
10 4094 107
10 4095 140
10 4096 225
10 4097 204
10 4098 121
10 4099 119
10 4100 147
10 4101 59
10 4102 185
10 4103 108
10 4104 113
10 4105 11
10 4106 114
10 4107 125
10 4108 211
10 4109 82
10 4110 140
10 4111 113
10 4112 216
10 4113 154
10 4114 53
10 4115 85
10 4116 84
10 4117 224
10 4118 238
10 4119 124
10 4120 89
10 4121 732
10 4122 57
10 4123 171
10 4124 104
10 4125 179
10 4126 158
10 4127 250
10 4128 127
10 4129 146
10 4130 157
10 4131 165
10 4132 110
10 4133 76
10 4134 96
10 4135 71
10 4136 222
10 4137 50
10 4138 74
10 4139 155
10 4140 83
10 4141 131
10 4142 123
10 4143 78
10 4144 79
10 4145 130
10 4146 234
10 4147 168
10 4148 295
10 4149 75
10 4150 105
10 4151 130
10 4152 195
10 4153 228
10 4154 164
10 4155 83
10 4156 53
10 4157 115
10 4158 86
10 4159 76
10 4160 132
10 4161 188
10 4162 49
10 4163 202
10 4164 223
10 4165 168
10 4166 120
10 4167 155
10 4168 150
10 4169 191
10 4170 39
10 4171 123
10 4172 64
10 4173 77
10 4174 421
10 4175 84
10 4176 126
10 4177 165
10 4178 185
10 4179 62
10 4180 88
10 4181 68
10 4182 38
10 4183 141
10 4184 264
10 4185 140
10 4186 262
10 4187 134
10 4188 97
10 4189 170
10 4190 190
10 4191 102
10 4192 76
10 4193 194
10 4194 194
10 4195 185
10 4196 59
10 4197 108
10 4198 255
10 4199 85
10 4200 142
10 4201 57
10 4202 78
10 4203 73
10 4204 176
10 4205 121
10 4206 171
10 4207 137
10 4208 3227
10 4209 232
10 4210 1101
10 4211 149
10 4212 59
10 4213 262
10 4214 127
10 4215 78
10 4216 118
10 4217 119
10 4218 93
10 4219 147
10 4220 122
10 4221 71
10 4222 212
10 4223 145
10 4224 132
10 4225 225
10 4226 154
10 4227 188
10 4228 104
10 4229 133
10 4230 114
10 4231 161
10 4232 101
10 4233 477
10 4234 372
10 4235 191
10 4236 175
10 4237 93
10 4238 186
10 4239 1009
10 4240 110
10 4241 71
10 4242 190
10 4243 45
10 4244 84
10 4245 110
10 4246 298
10 4247 213
10 4248 119
10 4249 99
10 4250 45
10 4251 244
10 4252 185
10 4253 115
10 4254 174
10 4255 191
10 4256 136
10 4257 112
10 4258 152
10 4259 153
10 4260 435
10 4261 109
10 4262 140
10 4263 101
10 4264 179
10 4265 85
10 4266 92
10 4267 137
10 4268 59
10 4269 94
10 4270 97
10 4271 236
10 4272 129
10 4273 146
10 4274 199
10 4275 19
10 4276 108
10 4277 96
10 4278 224
10 4279 147
10 4280 133
10 4281 224
10 4282 261
10 4283 134
10 4284 98
10 4285 102
10 4286 133
10 4287 128
10 4288 88
10 4289 363
10 4290 88
10 4291 136
10 4292 165
10 4293 44
10 4294 355
10 4295 191
10 4296 53
10 4297 135
10 4298 94
10 4299 111
10 4300 156
10 4301 226
10 4302 20
10 4303 105
10 4304 106
10 4305 143
10 4306 146
10 4307 174
10 4308 83
10 4309 84
10 4310 1490
10 4311 72
10 4312 74
10 4313 168
10 4314 272
10 4315 141
10 4316 186
10 4317 120
10 4318 80
10 4319 285
10 4320 130
10 4321 164
10 4322 128
10 4323 102
10 4324 117
10 4325 58
10 4326 64
10 4327 108
10 4328 138
10 4329 158
10 4330 92
10 4331 250
10 4332 98
10 4333 191
10 4334 57
10 4335 153
10 4336 104
10 4337 130
10 4338 218
10 4339 56
10 4340 134
10 4341 122
10 4342 316
10 4343 102
10 4344 94
10 4345 148
10 4346 150
10 4347 424
10 4348 305
10 4349 190
10 4350 101
10 4351 76
10 4352 107
10 4353 585
10 4354 147
10 4355 171
10 4356 81
10 4357 114
10 4358 81
10 4359 86
10 4360 61
10 4361 73
10 4362 132
10 4363 90
10 4364 162
10 4365 166
10 4366 195
10 4367 153
10 4368 128
10 4369 188
10 4370 157
10 4371 106
10 4372 83
10 4373 214
10 4374 56
10 4375 129
10 4376 112
10 4377 167
10 4378 175
10 4379 239
10 4380 117
10 4381 138
10 4382 121
10 4383 176
10 4384 158
10 4385 234
10 4386 85
10 4387 128
10 4388 111
10 4389 234
10 4390 47
10 4391 240
10 4392 204
10 4393 73
10 4394 159
10 4395 254
10 4396 94
10 4397 104
10 4398 79
10 4399 166
10 4400 361
10 4401 1259
10 4402 152
10 4403 193
10 4404 93
10 4405 195
10 4406 73
10 4407 71
10 4408 136
10 4409 135
10 4410 166
10 4411 140
10 4412 107
10 4413 77
10 4414 389
10 4415 84
10 4416 140
10 4417 73
10 4418 268
10 4419 156
10 4420 155
10 4421 192
10 4422 93
10 4423 96
10 4424 98
10 4425 888
10 4426 823
10 4427 220
10 4428 91
10 4429 92
10 4430 75
10 4431 183
10 4432 96
10 4433 153
10 4434 139
10 4435 99
10 4436 166
10 4437 195
10 4438 303
10 4439 157
10 4440 800
10 4441 85
10 4442 92
10 4443 295
10 4444 107
10 4445 145
10 4446 73
10 4447 908
10 4448 118
10 4449 191
10 4450 88
10 4451 90
10 4452 181
10 4453 57
10 4454 103
10 4455 140
10 4456 221
10 4457 78
10 4458 72
10 4459 151
10 4460 94
10 4461 152
10 4462 155
10 4463 152
10 4464 63
10 4465 110
10 4466 99
10 4467 87
10 4468 116
10 4469 92
10 4470 88
10 4471 215
10 4472 165
10 4473 80
10 4474 18
10 4475 93
10 4476 132
10 4477 65
10 4478 55
10 4479 84
10 4480 131
10 4481 175
10 4482 164
10 4483 95
10 4484 137
10 4485 139
10 4486 108
10 4487 179
10 4488 31
10 4489 2083
10 4490 162
10 4491 33
10 4492 182
10 4493 94
10 4494 88
10 4495 124
10 4496 87
10 4497 99
10 4498 203
10 4499 187
10 4500 350
10 4501 108
10 4502 194
10 4503 119
10 4504 208
10 4505 173
10 4506 251
10 4507 274
10 4508 56
10 4509 94
10 4510 81
10 4511 120
10 4512 111
10 4513 182
10 4514 72
10 4515 134
10 4516 184
10 4517 105
10 4518 94
10 4519 317
10 4520 187
10 4521 114
10 4522 206
10 4523 206
10 4524 206
10 4525 63
10 4526 478
10 4527 92
10 4528 174
10 4529 57
10 4530 146
10 4531 97
10 4532 79
10 4533 98
10 4534 130
10 4535 117
10 4536 104
10 4537 154
10 4538 186
10 4539 172
10 4540 218
10 4541 168
10 4542 75
10 4543 221
10 4544 59
10 4545 74
10 4546 157
10 4547 152
10 4548 136
10 4549 150
10 4550 130
10 4551 46
10 4552 32
10 4553 127
10 4554 166
10 4555 351
10 4556 178
10 4557 82
10 4558 97
10 4559 118
10 4560 165
10 4561 101
10 4562 76
10 4563 62
10 4564 189
10 4565 162
10 4566 90
10 4567 45
10 4568 100
10 4569 67
10 4570 186
10 4571 212
10 4572 206
10 4573 160
10 4574 100
10 4575 94
10 4576 39
10 4577 175
10 4578 152
10 4579 125
10 4580 82
10 4581 139
10 4582 85
10 4583 94
10 4584 105
10 4585 98
10 4586 187
10 4587 155
10 4588 150
10 4589 94
10 4590 69
10 4591 85
10 4592 130
10 4593 162
10 4594 105
10 4595 162
10 4596 95
10 4597 138
10 4598 209
10 4599 189
10 4600 92
10 4601 2
10 4602 133
10 4603 275
10 4604 349
10 4605 52
10 4606 178
10 4607 82
10 4608 143
10 4609 766
10 4610 250
10 4611 138
10 4612 96
10 4613 192
10 4614 112
10 4615 322
10 4616 78
10 4617 148
10 4618 125
10 4619 868
10 4620 81
10 4621 1242
10 4622 154
10 4623 134
10 4624 114
10 4625 124
10 4626 454
10 4627 218
10 4628 165
10 4629 206
10 4630 79
10 4631 79
10 4632 151
10 4633 174
10 4634 106
10 4635 183
10 4636 82
10 4637 166
10 4638 159
10 4639 78
10 4640 100
10 4641 202
10 4642 98
10 4643 240
10 4644 88
10 4645 77
10 4646 105
10 4647 113
10 4648 114
10 4649 103
10 4650 60
10 4651 139
10 4652 83
10 4653 524
10 4654 107
10 4655 163
10 4656 166
10 4657 399
10 4658 202
10 4659 71
10 4660 67
10 4661 132
10 4662 114
10 4663 81
10 4664 212
10 4665 158
10 4666 29
10 4667 95
10 4668 104
10 4669 1120
10 4670 151
10 4671 136
10 4672 86
10 4673 482
10 4674 78
10 4675 105
10 4676 44
10 4677 99
10 4678 316
10 4679 125
10 4680 106
10 4681 168
10 4682 57
10 4683 1106
10 4684 136
10 4685 181
10 4686 90
10 4687 171
10 4688 196
10 4689 227
10 4690 160
10 4691 4
10 4692 172
10 4693 91
10 4694 69
10 4695 61
10 4696 139
10 4697 220
10 4698 93
10 4699 47
10 4700 100
10 4701 77
10 4702 257
10 4703 85
10 4704 99
10 4705 81
10 4706 143
10 4707 104
10 4708 197
10 4709 94
10 4710 178
10 4711 190
10 4712 116
10 4713 220
10 4714 232
10 4715 157
10 4716 82
10 4717 1812
10 4718 70
10 4719 286
10 4720 197
10 4721 130
10 4722 129
10 4723 41
10 4724 113
10 4725 182
10 4726 163
10 4727 169
10 4728 183
10 4729 184
10 4730 106
10 4731 130
10 4732 50
10 4733 163
10 4734 131
10 4735 55
10 4736 138
10 4737 155
10 4738 64
10 4739 205
10 4740 188
10 4741 109
10 4742 167
10 4743 113
10 4744 163
10 4745 124
10 4746 80
10 4747 83
10 4748 86
10 4749 92
10 4750 81
10 4751 59
10 4752 98
10 4753 196
10 4754 70
10 4755 88
10 4756 90
10 4757 40
10 4758 133
10 4759 185
10 4760 101
10 4761 82
10 4762 133
10 4763 124
10 4764 63
10 4765 154
10 4766 126
10 4767 88
10 4768 325
10 4769 67
10 4770 72
10 4771 164
10 4772 110
10 4773 63
10 4774 53
10 4775 58
10 4776 139
10 4777 66
10 4778 113
10 4779 88
10 4780 194
10 4781 193
10 4782 87
10 4783 91
10 4784 119
10 4785 125
10 4786 114
10 4787 83
10 4788 165
10 4789 135
10 4790 159
10 4791 140
10 4792 116
10 4793 115
10 4794 79
10 4795 266
10 4796 510
10 4797 277
10 4798 89
10 4799 171
10 4800 115
10 4801 148
10 4802 113
10 4803 21
10 4804 56
10 4805 222
10 4806 267
10 4807 81
10 4808 163
10 4809 130
10 4810 157
10 4811 192
10 4812 163
10 4813 106
10 4814 88
10 4815 364
10 4816 90
10 4817 69
10 4818 154
10 4819 98
10 4820 116
10 4821 163
10 4822 118
10 4823 283
10 4824 134
10 4825 184
10 4826 67
10 4827 101
10 4828 110
10 4829 121
10 4830 154
10 4831 144
10 4832 1020
10 4833 72
10 4834 131
10 4835 48
10 4836 257
10 4837 93
10 4838 250
10 4839 89
10 4840 27
10 4841 135
10 4842 13
10 4843 157
10 4844 161
10 4845 137
10 4846 134
10 4847 126
10 4848 69
10 4849 49
10 4850 46
10 4851 157
10 4852 277
10 4853 126
10 4854 125
10 4855 28
10 4856 275
10 4857 141
10 4858 124
10 4859 159
10 4860 261
10 4861 163
10 4862 256
10 4863 118
10 4864 141
10 4865 146
10 4866 2091
10 4867 73
10 4868 258
10 4869 194
10 4870 179
10 4871 124
10 4872 86
10 4873 171
10 4874 357
10 4875 151
10 4876 154
10 4877 179
10 4878 83
10 4879 36
10 4880 417
10 4881 106
10 4882 135
10 4883 61
10 4884 166
10 4885 84
10 4886 147
10 4887 183
10 4888 189
10 4889 145
10 4890 180
10 4891 101
10 4892 99
10 4893 123
10 4894 103
10 4895 91
10 4896 76
10 4897 162
10 4898 110
10 4899 203
10 4900 159
10 4901 111
10 4902 104
10 4903 83
10 4904 109
10 4905 135
10 4906 154
10 4907 121
10 4908 98
10 4909 147
10 4910 117
10 4911 88
10 4912 408
10 4913 159
10 4914 145
10 4915 114
10 4916 122
10 4917 100
10 4918 51
10 4919 238
10 4920 373
10 4921 63
10 4922 141
10 4923 87
10 4924 72
10 4925 188
10 4926 111
10 4927 21
10 4928 121
10 4929 185
10 4930 82
10 4931 138
10 4932 107
10 4933 213
10 4934 6
10 4935 83
10 4936 104
10 4937 97
10 4938 102
10 4939 81
10 4940 142
10 4941 89
10 4942 92
10 4943 153
10 4944 180
10 4945 177
10 4946 58
10 4947 162
10 4948 823
10 4949 38
10 4950 120
10 4951 220
10 4952 188
10 4953 179
10 4954 225
10 4955 62
10 4956 115
10 4957 94
10 4958 65
10 4959 132
10 4960 106
10 4961 199
10 4962 131
10 4963 152
10 4964 75
10 4965 69
10 4966 105
10 4967 95
10 4968 196
10 4969 103
10 4970 163
10 4971 119
10 4972 71
10 4973 64
10 4974 63
10 4975 158
10 4976 101
10 4977 99
10 4978 73
10 4979 137
10 4980 1150
10 4981 187
10 4982 118
10 4983 87
10 4984 174
10 4985 63
10 4986 63
10 4987 110
10 4988 115
10 4989 224
10 4990 80
10 4991 99
10 4992 388
10 4993 48
10 4994 53
10 4995 214
10 4996 91
10 4997 58
10 4998 143
10 4999 166
10 5000 294
10 5001 196
10 5002 93
10 5003 284
10 5004 90
10 5005 4
10 5006 68
10 5007 171
10 5008 19
10 5009 47
10 5010 95
10 5011 112
10 5012 154
10 5013 115
10 5014 97
10 5015 109
10 5016 125
10 5017 153
10 5018 100
10 5019 140
10 5020 247
10 5021 103
10 5022 103
10 5023 93
10 5024 72
10 5025 92
10 5026 180
10 5027 350
10 5028 151
10 5029 157
10 5030 63
10 5031 79
10 5032 79
10 5033 191
10 5034 46
10 5035 150
10 5036 62
10 5037 109
10 5038 129
10 5039 100
10 5040 106
10 5041 218
10 5042 150
10 5043 110
10 5044 88
10 5045 179
10 5046 134
10 5047 92
10 5048 103
10 5049 99
10 5050 68
10 5051 113
10 5052 85
10 5053 115
10 5054 68
10 5055 117
10 5056 69
10 5057 89
10 5058 175
10 5059 63
10 5060 51
10 5061 14
10 5062 158
10 5063 148
10 5064 118
10 5065 186
10 5066 161
10 5067 209
10 5068 113
10 5069 207
10 5070 8
10 5071 66
10 5072 194
10 5073 107
10 5074 106
10 5075 45
10 5076 108
10 5077 76
10 5078 109
10 5079 113
10 5080 121
10 5081 153
10 5082 19
10 5083 37
10 5084 175
10 5085 190
10 5086 196
10 5087 94
10 5088 55
10 5089 515
10 5090 241
10 5091 182
10 5092 140
10 5093 93
10 5094 52
10 5095 154
10 5096 58
10 5097 133
10 5098 152
10 5099 66
10 5100 97
10 5101 174
10 5102 135
10 5103 100
10 5104 104
10 5105 75
10 5106 152
10 5107 173
10 5108 102
10 5109 176
10 5110 1260
10 5111 168
10 5112 131
10 5113 112
10 5114 108
10 5115 148
10 5116 154
10 5117 134
10 5118 87
10 5119 207
10 5120 44
10 5121 115
10 5122 241
10 5123 211
10 5124 104
10 5125 195
10 5126 148
10 5127 88
10 5128 70
10 5129 61
10 5130 69
10 5131 87
10 5132 122
10 5133 90
10 5134 90
10 5135 119
10 5136 94
10 5137 101
10 5138 113
10 5139 111
10 5140 126
10 5141 101
10 5142 99
10 5143 83
10 5144 175
10 5145 182
10 5146 165
10 5147 289
10 5148 81
10 5149 164
10 5150 103
10 5151 59
10 5152 82
10 5153 95
10 5154 117
10 5155 111
10 5156 128
10 5157 110
10 5158 129
10 5159 230
10 5160 75
10 5161 158
10 5162 80
10 5163 150
10 5164 70
10 5165 110
10 5166 90
10 5167 101
10 5168 98
10 5169 148
10 5170 83
10 5171 131
10 5172 221
10 5173 26
10 5174 107
10 5175 172
10 5176 72
10 5177 112
10 5178 123
10 5179 3
10 5180 78
10 5181 201
10 5182 96
10 5183 95
10 5184 134
10 5185 132
10 5186 93
10 5187 146
10 5188 50
10 5189 20
10 5190 29
10 5191 96
10 5192 331
10 5193 104
10 5194 80
10 5195 117
10 5196 70
10 5197 120
10 5198 178
10 5199 135
10 5200 37
10 5201 293
10 5202 91
10 5203 135
10 5204 118
10 5205 28
10 5206 108
10 5207 88
10 5208 98
10 5209 1094
10 5210 60
10 5211 85
10 5212 96
10 5213 85
10 5214 189
10 5215 153
10 5216 132
10 5217 55
10 5218 178
10 5219 46
10 5220 120
10 5221 162
10 5222 31
10 5223 2
10 5224 80
10 5225 165
10 5226 185
10 5227 92
10 5228 440
10 5229 101
10 5230 82
10 5231 158
10 5232 114
10 5233 66
10 5234 185
10 5235 186
10 5236 73
10 5237 152
10 5238 129
10 5239 145
10 5240 129
10 5241 104
10 5242 131
10 5243 612
10 5244 223
10 5245 128
10 5246 149
10 5247 111
10 5248 101
10 5249 88
10 5250 118
10 5251 25
10 5252 99
10 5253 195
10 5254 149
10 5255 108
10 5256 158
10 5257 143
10 5258 107
10 5259 93
10 5260 91
10 5261 6
10 5262 172
10 5263 66
10 5264 52
10 5265 111
10 5266 168
10 5267 28
10 5268 76
10 5269 126
10 5270 328
10 5271 113
10 5272 179
10 5273 146
10 5274 96
10 5275 162
10 5276 257
10 5277 100
10 5278 82
10 5279 188
10 5280 164
10 5281 147
10 5282 172
10 5283 218
10 5284 113
10 5285 202
10 5286 97
10 5287 82
10 5288 148
10 5289 181
10 5290 96
10 5291 175
10 5292 164
10 5293 127
10 5294 82
10 5295 155
10 5296 132
10 5297 125
10 5298 205
10 5299 123
10 5300 123
10 5301 67
10 5302 21
10 5303 99
10 5304 79
10 5305 62
10 5306 130
10 5307 108
10 5308 182
10 5309 122
10 5310 89
10 5311 97
10 5312 109
10 5313 116
10 5314 150
10 5315 113
10 5316 146
10 5317 36
10 5318 163
10 5319 177
10 5320 45
10 5321 107
10 5322 83
10 5323 90
10 5324 14
10 5325 60
10 5326 94
10 5327 84
10 5328 123
10 5329 177
10 5330 74
10 5331 113
10 5332 100
10 5333 147
10 5334 261
10 5335 87
10 5336 86
10 5337 155
10 5338 162
10 5339 222
10 5340 30
10 5341 104
10 5342 106
10 5343 153
10 5344 103
10 5345 104
10 5346 119
10 5347 97
10 5348 140
10 5349 111
10 5350 82
10 5351 89
10 5352 114
10 5353 72
10 5354 170
10 5355 59
10 5356 105
10 5357 142
10 5358 234
10 5359 109
10 5360 80
10 5361 105
10 5362 100
10 5363 86
10 5364 99
10 5365 143
10 5366 62
10 5367 130
10 5368 168
10 5369 89
10 5370 51
10 5371 209
10 5372 185
10 5373 60
10 5374 134
10 5375 167
10 5376 83
10 5377 102
10 5378 344
10 5379 134
10 5380 173
10 5381 188
10 5382 14
10 5383 205
10 5384 57
10 5385 134
10 5386 94
10 5387 18
10 5388 66
10 5389 142
10 5390 159
10 5391 149
10 5392 118
10 5393 40
10 5394 172
10 5395 113
10 5396 147
10 5397 135
10 5398 86
10 5399 144
10 5400 86
10 5401 172
10 5402 194
10 5403 85
10 5404 127
10 5405 148
10 5406 89
10 5407 195
10 5408 87
10 5409 115
10 5410 85
10 5411 83
10 5412 90
10 5413 100
10 5414 157
10 5415 11
10 5416 80
10 5417 117
10 5418 33
10 5419 4
10 5420 152
10 5421 94
10 5422 99
10 5423 120
10 5424 33
10 5425 189
10 5426 59
10 5427 124
10 5428 81
10 5429 42
10 5430 162
10 5431 101
10 5432 247
10 5433 105
10 5434 128
10 5435 61
10 5436 71
10 5437 133
10 5438 85
10 5439 53
10 5440 112
10 5441 109
10 5442 124
10 5443 158
10 5444 84
10 5445 69
10 5446 94
10 5447 94
10 5448 145
10 5449 76
10 5450 70
10 5451 153
10 5452 181
10 5453 122
10 5454 27
10 5455 189
10 5456 75
10 5457 135
10 5458 115
10 5459 80
10 5460 109
10 5461 201
10 5462 128
10 5463 87
10 5464 276
10 5465 143
10 5466 130
10 5467 47
10 5468 99
10 5469 112
10 5470 105
10 5471 78
10 5472 113
10 5473 143
10 5474 104
10 5475 107
10 5476 114
10 5477 122
10 5478 148
10 5479 163
10 5480 49
10 5481 102
10 5482 83
10 5483 88
10 5484 85
10 5485 139
10 5486 94
10 5487 70
10 5488 181
10 5489 105
10 5490 176
10 5491 147
10 5492 60
10 5493 159
10 5494 108
10 5495 149
10 5496 142
10 5497 132
10 5498 73
10 5499 179
10 5500 99
10 5501 49
10 5502 110
10 5503 70
10 5504 68
10 5505 54
10 5506 56
10 5507 77
10 5508 100
10 5509 190
10 5510 61
10 5511 187
10 5512 54
10 5513 100
10 5514 66
10 5515 134
10 5516 52
10 5517 124
10 5518 70
10 5519 161
10 5520 156
10 5521 39
10 5522 104
10 5523 103
10 5524 69
10 5525 117
10 5526 76
10 5527 102
10 5528 82
10 5529 224
10 5530 122
10 5531 69
10 5532 71
10 5533 144
10 5534 66
10 5535 68
10 5536 83
10 5537 104
10 5538 117
10 5539 400
10 5540 125
10 5541 58
10 5542 131
10 5543 69
10 5544 180
10 5545 38
10 5546 53
10 5547 100
10 5548 45
10 5549 71
10 5550 119
10 5551 395
10 5552 65
10 5553 53
10 5554 129
10 5555 63
10 5556 446
10 5557 161
10 5558 106
10 5559 54
10 5560 103
10 5561 90
10 5562 123
10 5563 147
10 5564 71
10 5565 101
10 5566 5
10 5567 118
10 5568 132
10 5569 94
10 5570 81
10 5571 78
10 5572 179
10 5573 46
10 5574 172
10 5575 78
10 5576 107
10 5577 110
10 5578 206
10 5579 112
10 5580 174
10 5581 103
10 5582 70
10 5583 100
10 5584 112
10 5585 161
10 5586 61
10 5587 76
10 5588 75
10 5589 172
10 5590 79
10 5591 114
10 5592 105
10 5593 290
10 5594 103
10 5595 185
10 5596 60
10 5597 69
10 5598 59
10 5599 71
10 5600 83
10 5601 118
10 5602 79
10 5603 71
10 5604 117
10 5605 84
10 5606 101
10 5607 33
10 5608 44
10 5609 52
10 5610 58
10 5611 62
10 5612 79
10 5613 159
10 5614 141
10 5615 172
10 5616 16
10 5617 338
10 5618 59
10 5619 64
10 5620 68
10 5621 122
10 5622 67
10 5623 90
10 5624 83
10 5625 65
10 5626 87
10 5627 89
10 5628 107
10 5629 124
10 5630 153
10 5631 98
10 5632 157
10 5633 117
10 5634 167
10 5635 128
10 5636 90
10 5637 85
10 5638 112
10 5639 130
10 5640 19
10 5641 148
10 5642 250
10 5643 101
10 5644 80
10 5645 143
10 5646 114
10 5647 129
10 5648 59
10 5649 105
10 5650 99
10 5651 129
10 5652 81
10 5653 65
10 5654 4
10 5655 60
10 5656 115
10 5657 79
10 5658 34
10 5659 68
10 5660 35
10 5661 42
10 5662 47
10 5663 86
10 5664 68
10 5665 109
10 5666 31
10 5667 9
10 5668 73
10 5669 17
10 5670 38
10 5671 60
10 5672 19
10 5673 103
10 5674 95
10 5675 128
10 5676 86
10 5677 79
10 5678 32
10 5679 35
10 5680 78
10 5681 39
10 5682 43
10 5683 80
10 5684 46
10 5685 18
10 5686 43
10 5687 79
10 5688 232
10 5689 87
10 5690 82
10 5691 38
10 5692 46
10 5693 30
10 5694 25
10 5695 42
10 5696 92
10 5697 84
10 5698 118
10 5699 50
10 5700 5
10 5701 169
10 5702 62
10 5703 1
10 5704 29
10 5705 33
10 5706 12
10 5707 8
10 5708 11
10 5709 19
10 5710 19
10 5711 7
10 5712 4
10 5713 19
10 5714 6
10 5715 16
10 5716 4
10 5717 1
11 1 40
11 2 86
11 3 49
11 4 28
11 5 23
11 6 3335
11 7 11
11 8 5943
11 9 37150
11 10 18
11 11 35
11 12 29
11 13 11805
11 14 15
11 15 14
11 16 17
11 17 16
11 18 37
11 19 16
11 20 34
11 21 22
11 22 46
11 23 27
11 24 37
11 25 26
11 26 31
11 27 14
11 28 35
11 29 23
11 30 15
11 31 21
11 32 10
11 33 41
11 34 46
11 35 10
11 36 35
11 37 31
11 38 32
11 39 29
11 40 20
11 41 22
11 42 111
11 43 30
11 44 29
11 45 3
11 46 54
11 47 32
11 48 31
11 49 30
11 50 29
11 51 1743
11 52 30
11 53 10
11 54 22
11 55 38
11 56 42
11 57 16
11 58 32
11 59 29
11 60 5229
11 61 48
11 62 24
11 63 58
11 64 34
11 65 31
11 66 32
11 67 25
11 68 28
11 69 20
11 70 33
11 71 76
11 72 20
11 73 22
11 74 26
11 75 5354
11 76 21
11 77 66
11 78 26
11 79 82
11 80 22
11 81 67
11 82 26
11 83 47
11 84 44
11 85 50
11 86 18
11 87 27
11 88 39
11 89 22
11 90 41
11 91 34
11 92 30
11 93 38
11 94 20
11 95 23
11 96 21
11 97 25
11 98 29
11 99 2319
11 100 21
11 101 35
11 102 8
11 103 25
11 104 29
11 105 20
11 106 12
11 107 22
11 108 40
11 109 19
11 110 10
11 111 17
11 112 12
11 113 20
11 114 25
11 115 23
11 116 11
11 117 10
11 118 25
11 119 73160
11 120 54
11 121 2068
11 122 30
11 123 27
11 124 40
11 125 37
11 126 10
11 127 33
11 128 31
11 129 20
11 130 36
11 131 21
11 132 1243
11 133 47
11 134 17
11 135 82
11 136 28
11 137 30
11 138 39
11 139 37
11 140 79
11 141 39
11 142 27
11 143 40
11 144 27
11 145 25
11 146 14
11 147 33
11 148 18
11 149 32
11 150 15
11 151 18
11 152 40
11 153 44
11 154 34
11 155 22
11 156 31
11 157 17
11 158 27
11 159 30
11 160 32
11 161 31
11 162 28
11 163 19
11 164 22
11 165 32
11 166 39
11 167 65
11 168 9
11 169 724
11 170 28
11 171 25
11 172 38
11 173 2890
11 174 35
11 175 29
11 176 41
11 177 17
11 178 42
11 179 21
11 180 21
11 181 19
11 182 33
11 183 22
11 184 24
11 185 26
11 186 15
11 187 42
11 188 37
11 189 32
11 190 14684
11 191 28
11 192 19
11 193 21
11 194 24
11 195 13
11 196 171
11 197 8
11 198 32
11 199 12
11 200 32
11 201 25
11 202 35
11 203 27
11 204 16
11 205 40
11 206 25
11 207 44
11 208 5
11 209 36
11 210 34
11 211 29
11 212 18
11 213 28
11 214 18
11 215 47
11 216 36
11 217 25
11 218 13
11 219 35
11 220 1458
11 221 15
11 222 24
11 223 34
11 224 20
11 225 32
11 226 21
11 227 15
11 228 12
11 229 41
11 230 20
11 231 18
11 232 23
11 233 17
11 234 33
11 235 7
11 236 31
11 237 19
11 238 25
11 239 27
11 240 37
11 241 15
11 242 18
11 243 67
11 244 34
11 245 19
11 246 27
11 247 19
11 248 35
11 249 25
11 250 58
11 251 14
11 252 11
11 253 29
11 254 7
11 255 13
11 256 34
11 257 43
11 258 18
11 259 35
11 260 6451
11 261 19
11 262 41
11 263 15
11 264 1619
11 265 31
11 266 5
11 267 7
11 268 44
11 269 43
11 270 27
11 271 37
11 272 31
11 273 17
11 274 26
11 275 12
11 276 41
11 277 31
11 278 29
11 279 31
11 280 17
11 281 21
11 282 38
11 283 43
11 284 29
11 285 32
11 286 21
11 287 48
11 288 30
11 289 3
11 290 7327
11 291 44
11 292 29
11 293 33
11 294 38
11 295 20
11 296 35
11 297 39
11 298 37
11 299 26
11 300 28
11 301 21
11 302 12
11 303 17
11 304 39
11 305 4
11 306 25
11 307 46
11 308 14
11 309 12
11 310 39
11 311 22
11 312 12
11 313 28
11 314 31
11 315 27
11 316 16
11 317 26
11 318 18
11 319 14
11 320 28
11 321 20
11 322 32
11 323 17
11 324 35
11 325 23
11 326 23
11 327 74
11 328 25
11 329 24
11 330 50
11 331 25
11 332 10
11 333 60
11 334 7
11 335 59
11 336 17
11 337 29
11 338 10
11 339 27
11 340 25
11 341 44
11 342 1224
11 343 17
11 344 14
11 345 29
11 346 14
11 347 17
11 348 16
11 349 28
11 350 23
11 351 21
11 352 31
11 353 20
11 354 11
11 355 18
11 356 46
11 357 17
11 358 27
11 359 51
11 360 30
11 361 26
11 362 39
11 363 25
11 364 14
11 365 18
11 366 14
11 367 23
11 368 15
11 369 1326
11 370 21
11 371 11
11 372 11
11 373 40
11 374 32
11 375 17
11 376 33
11 377 13
11 378 33
11 379 30
11 380 15
11 381 22
11 382 54
11 383 21
11 384 18
11 385 33
11 386 11
11 387 19
11 388 18
11 389 36
11 390 15
11 391 14
11 392 45
11 393 23
11 394 42
11 395 24
11 396 37
11 397 29
11 398 23
11 399 40
11 400 24
11 401 85
11 402 17
11 403 30
11 404 27
11 405 29
11 406 15
11 407 40
11 408 41
11 409 33
11 410 21
11 411 22
11 412 31
11 413 22
11 414 16
11 415 55
11 416 15
11 417 22
11 418 27
11 419 25
11 420 17
11 421 11
11 422 16
11 423 18
11 424 17
11 425 45
11 426 30
11 427 43491
11 428 41
11 429 49
11 430 19
11 431 19
11 432 44
11 433 37
11 434 26
11 435 17
11 436 37
11 437 9
11 438 20
11 439 15
11 440 32
11 441 49
11 442 51
11 443 27
11 444 186
11 445 12
11 446 39
11 447 18
11 448 34
11 449 25
11 450 22
11 451 35
11 452 35
11 453 6950
11 454 31
11 455 20
11 456 31
11 457 18
11 458 30
11 459 15
11 460 35
11 461 38
11 462 56
11 463 29
11 464 18
11 465 23
11 466 22
11 467 23
11 468 20
11 469 18
11 470 31
11 471 22
11 472 6111
11 473 49
11 474 15
11 475 26
11 476 15
11 477 25
11 478 45
11 479 18
11 480 28
11 481 21
11 482 30
11 483 21
11 484 23
11 485 20
11 486 30
11 487 42
11 488 12
11 489 35
11 490 19
11 491 24
11 492 23
11 493 10
11 494 23
11 495 18
11 496 5298
11 497 31
11 498 13
11 499 28
11 500 1754
11 501 38
11 502 16
11 503 15
11 504 7
11 505 16
11 506 25
11 507 29
11 508 35
11 509 3527
11 510 30
11 511 13
11 512 17
11 513 37
11 514 19
11 515 51
11 516 33
11 517 4172
11 518 26
11 519 24
11 520 37
11 521 14
11 522 39
11 523 14113
11 524 21
11 525 42
11 526 29
11 527 24
11 528 24
11 529 38
11 530 27
11 531 36
11 532 17
11 533 28
11 534 28
11 535 33
11 536 20
11 537 42
11 538 14
11 539 29
11 540 14
11 541 21
11 542 22
11 543 33
11 544 42
11 545 8556
11 546 16
11 547 12
11 548 24
11 549 23
11 550 17
11 551 46
11 552 45
11 553 37
11 554 22
11 555 14
11 556 9
11 557 17
11 558 33
11 559 25
11 560 32
11 561 20
11 562 29
11 563 90
11 564 18
11 565 23
11 566 21
11 567 18
11 568 14
11 569 23
11 570 24
11 571 29
11 572 18
11 573 13
11 574 32
11 575 21
11 576 4698
11 577 40
11 578 30
11 579 23
11 580 31
11 581 25
11 582 11
11 583 24
11 584 18
11 585 17
11 586 16
11 587 7
11 588 26
11 589 31
11 590 19
11 591 34
11 592 21
11 593 16
11 594 13
11 595 29
11 596 1545
11 597 30
11 598 9
11 599 21
11 600 24
11 601 18
11 602 113
11 603 21
11 604 19
11 605 23
11 606 35
11 607 11
11 608 16
11 609 26
11 610 33
11 611 37
11 612 43
11 613 526
11 614 4654
11 615 20
11 616 16
11 617 21
11 618 22
11 619 23
11 620 13
11 621 25
11 622 24
11 623 22
11 624 20
11 625 34
11 626 29
11 627 33
11 628 22
11 629 27
11 630 18
11 631 17
11 632 45
11 633 30
11 634 48
11 635 23
11 636 23
11 637 14
11 638 9
11 639 19
11 640 20
11 641 37
11 642 30
11 643 54
11 644 41
11 645 16
11 646 24
11 647 32
11 648 38
11 649 19
11 650 45
11 651 29
11 652 48
11 653 21
11 654 29
11 655 10
11 656 7
11 657 22
11 658 25
11 659 47
11 660 5
11 661 20
11 662 23
11 663 7428
11 664 13
11 665 14
11 666 26
11 667 38
11 668 42
11 669 26
11 670 14
11 671 23
11 672 41
11 673 20
11 674 16
11 675 25
11 676 7
11 677 23
11 678 24
11 679 23
11 680 28
11 681 26
11 682 22
11 683 29
11 684 19
11 685 27
11 686 28
11 687 52
11 688 40
11 689 21
11 690 5
11 691 20
11 692 13
11 693 13
11 694 34
11 695 21
11 696 17
11 697 22
11 698 22
11 699 4727
11 700 34
11 701 24
11 702 15
11 703 26
11 704 18
11 705 33
11 706 1045
11 707 19
11 708 16
11 709 30
11 710 18
11 711 49
11 712 20
11 713 30
11 714 42
11 715 22
11 716 34
11 717 11
11 718 3564
11 719 27
11 720 14
11 721 18
11 722 73
11 723 16
11 724 38
11 725 20
11 726 21
11 727 8377
11 728 22
11 729 29
11 730 19
11 731 39
11 732 16
11 733 24
11 734 11
11 735 27
11 736 26
11 737 38
11 738 9
11 739 24
11 740 28
11 741 53
11 742 14
11 743 28
11 744 34
11 745 18
11 746 15
11 747 32
11 748 31
11 749 11
11 750 37
11 751 22
11 752 21
11 753 17
11 754 29
11 755 16
11 756 32
11 757 31
11 758 40
11 759 24
11 760 22
11 761 5
11 762 41
11 763 15
11 764 28
11 765 1
11 766 40
11 767 21
11 768 39
11 769 16
11 770 22
11 771 15
11 772 20
11 773 14
11 774 29
11 775 19
11 776 33
11 777 25
11 778 31
11 779 27
11 780 21
11 781 12
11 782 36
11 783 27
11 784 20
11 785 23
11 786 20
11 787 21
11 788 35
11 789 28
11 790 21
11 791 29
11 792 36
11 793 17
11 794 8486
11 795 18
11 796 27
11 797 2097
11 798 28
11 799 25
11 800 10
11 801 25
11 802 28
11 803 26
11 804 37
11 805 15
11 806 10929
11 807 17
11 808 30
11 809 63
11 810 39
11 811 17
11 812 17
11 813 31
11 814 16
11 815 16
11 816 27
11 817 15
11 818 35
11 819 40
11 820 43
11 821 37
11 822 14
11 823 18
11 824 39
11 825 28
11 826 31
11 827 25
11 828 47
11 829 18
11 830 30
11 831 31
11 832 22
11 833 21
11 834 28
11 835 18
11 836 31
11 837 14
11 838 21
11 839 50
11 840 15
11 841 1333
11 842 10
11 843 29
11 844 27
11 845 14
11 846 15
11 847 17
11 848 33
11 849 26
11 850 38
11 851 25
11 852 18
11 853 826
11 854 28
11 855 24
11 856 45
11 857 17
11 858 24
11 859 20
11 860 2444
11 861 30
11 862 6
11 863 35
11 864 25
11 865 28
11 866 15
11 867 14
11 868 15
11 869 22
11 870 71
11 871 24
11 872 32
11 873 8
11 874 27
11 875 27
11 876 35
11 877 14
11 878 24
11 879 22
11 880 37
11 881 5302
11 882 19
11 883 15
11 884 29
11 885 33
11 886 33
11 887 14
11 888 23
11 889 28
11 890 3071
11 891 22
11 892 37
11 893 21
11 894 17
11 895 24
11 896 26
11 897 26
11 898 32
11 899 21
11 900 28
11 901 22
11 902 40
11 903 34
11 904 24
11 905 38
11 906 20
11 907 9212
11 908 45
11 909 25
11 910 29
11 911 25
11 912 26
11 913 21
11 914 46
11 915 28
11 916 31
11 917 26
11 918 39
11 919 23
11 920 35
11 921 106
11 922 16
11 923 335
11 924 52
11 925 12
11 926 8412
11 927 29
11 928 20
11 929 10
11 930 23
11 931 24
11 932 19
11 933 21
11 934 24
11 935 54
11 936 21
11 937 29
11 938 24
11 939 17
11 940 22
11 941 20
11 942 66
11 943 16
11 944 26
11 945 14
11 946 10
11 947 29
11 948 139
11 949 10
11 950 12
11 951 21
11 952 19
11 953 21
11 954 24
11 955 35
11 956 23
11 957 20
11 958 7121
11 959 28
11 960 20
11 961 28
11 962 17
11 963 35
11 964 531
11 965 27
11 966 38
11 967 29
11 968 40
11 969 16
11 970 32
11 971 35
11 972 30
11 973 44
11 974 33
11 975 48
11 976 13
11 977 13
11 978 16
11 979 15
11 980 23
11 981 18
11 982 7
11 983 26
11 984 19
11 985 33
11 986 41
11 987 18
11 988 13
11 989 28
11 990 8
11 991 20
11 992 25
11 993 16
11 994 39
11 995 19
11 996 26
11 997 16
11 998 18
11 999 11
11 1000 42
11 1001 630
11 1002 46
11 1003 21
11 1004 22
11 1005 13
11 1006 9
11 1007 42
11 1008 22
11 1009 36
11 1010 20
11 1011 21
11 1012 6650
11 1013 20
11 1014 100
11 1015 45
11 1016 1524
11 1017 28
11 1018 2051
11 1019 27
11 1020 17
11 1021 15
11 1022 46
11 1023 33
11 1024 30
11 1025 1448
11 1026 25
11 1027 18
11 1028 23
11 1029 10068
11 1030 37
11 1031 27
11 1032 12
11 1033 31
11 1034 34
11 1035 20
11 1036 14
11 1037 27
11 1038 41
11 1039 29
11 1040 20
11 1041 50
11 1042 27
11 1043 26
11 1044 27
11 1045 3623
11 1046 11
11 1047 24
11 1048 27
11 1049 23
11 1050 33
11 1051 15
11 1052 22
11 1053 31
11 1054 37
11 1055 13
11 1056 32
11 1057 16
11 1058 28
11 1059 35
11 1060 18
11 1061 31
11 1062 149
11 1063 25
11 1064 15
11 1065 19
11 1066 19
11 1067 21
11 1068 23
11 1069 53
11 1070 10
11 1071 16
11 1072 13
11 1073 16
11 1074 19
11 1075 29
11 1076 17
11 1077 48
11 1078 25
11 1079 25
11 1080 34
11 1081 22
11 1082 31
11 1083 21
11 1084 11
11 1085 36
11 1086 35
11 1087 39
11 1088 9
11 1089 23
11 1090 10
11 1091 29
11 1092 11
11 1093 34
11 1094 32
11 1095 25
11 1096 20
11 1097 21
11 1098 11
11 1099 30
11 1100 795
11 1101 208
11 1102 20
11 1103 28
11 1104 22
11 1105 26
11 1106 24
11 1107 22
11 1108 28
11 1109 26
11 1110 30
11 1111 16
11 1112 27
11 1113 24
11 1114 18
11 1115 36
11 1116 17
11 1117 26
11 1118 2842
11 1119 24
11 1120 30
11 1121 21
11 1122 19
11 1123 38
11 1124 17
11 1125 21
11 1126 9
11 1127 40
11 1128 25
11 1129 21
11 1130 27
11 1131 48
11 1132 18
11 1133 25
11 1134 2335
11 1135 44
11 1136 17
11 1137 19
11 1138 35
11 1139 81
11 1140 27
11 1141 25
11 1142 23
11 1143 23
11 1144 20
11 1145 40
11 1146 25
11 1147 24
11 1148 23
11 1149 21
11 1150 38
11 1151 6191
11 1152 15
11 1153 20
11 1154 20
11 1155 6
11 1156 13
11 1157 15
11 1158 28
11 1159 42
11 1160 15
11 1161 20
11 1162 19
11 1163 27
11 1164 31
11 1165 45
11 1166 17
11 1167 11
11 1168 26
11 1169 22
11 1170 21
11 1171 40
11 1172 9
11 1173 32
11 1174 12
11 1175 48
11 1176 13
11 1177 26
11 1178 28
11 1179 16
11 1180 40
11 1181 26
11 1182 17
11 1183 22
11 1184 26
11 1185 17
11 1186 23
11 1187 29
11 1188 21
11 1189 14
11 1190 25
11 1191 21
11 1192 15
11 1193 28
11 1194 16
11 1195 27
11 1196 103
11 1197 19
11 1198 28
11 1199 29
11 1200 32
11 1201 23
11 1202 38
11 1203 17
11 1204 12
11 1205 22
11 1206 20
11 1207 32
11 1208 12
11 1209 13
11 1210 20
11 1211 7761
11 1212 26
11 1213 20
11 1214 12
11 1215 4468
11 1216 26
11 1217 25
11 1218 20
11 1219 23
11 1220 8339
11 1221 16
11 1222 29
11 1223 12
11 1224 18
11 1225 15
11 1226 10
11 1227 18
11 1228 19
11 1229 53
11 1230 19
11 1231 45
11 1232 27
11 1233 160
11 1234 9264
11 1235 26
11 1236 24
11 1237 15
11 1238 52
11 1239 42
11 1240 29
11 1241 28
11 1242 34
11 1243 19
11 1244 45
11 1245 24
11 1246 25
11 1247 20
11 1248 20
11 1249 22
11 1250 27
11 1251 24
11 1252 23
11 1253 20
11 1254 38
11 1255 18
11 1256 12
11 1257 16
11 1258 4274
11 1259 24
11 1260 33
11 1261 16
11 1262 26
11 1263 27
11 1264 49
11 1265 19
11 1266 23
11 1267 25
11 1268 27
11 1269 30
11 1270 25
11 1271 9
11 1272 21
11 1273 28
11 1274 34
11 1275 20
11 1276 10
11 1277 22
11 1278 5129
11 1279 10
11 1280 28
11 1281 7
11 1282 21
11 1283 19
11 1284 23
11 1285 19
11 1286 37
11 1287 24
11 1288 48
11 1289 25
11 1290 31
11 1291 18
11 1292 11
11 1293 26
11 1294 9
11 1295 14
11 1296 8
11 1297 14
11 1298 28
11 1299 37
11 1300 63
11 1301 26
11 1302 38
11 1303 17
11 1304 13
11 1305 21
11 1306 3484
11 1307 33
11 1308 20
11 1309 39
11 1310 46
11 1311 15
11 1312 34
11 1313 14
11 1314 6111
11 1315 3652
11 1316 24
11 1317 32
11 1318 27
11 1319 37
11 1320 865
11 1321 19
11 1322 22
11 1323 25
11 1324 36
11 1325 13
11 1326 33
11 1327 35
11 1328 28
11 1329 14
11 1330 14
11 1331 30
11 1332 19
11 1333 18
11 1334 13
11 1335 40
11 1336 25
11 1337 16
11 1338 25
11 1339 11
11 1340 30
11 1341 44
11 1342 43
11 1343 38
11 1344 33
11 1345 10
11 1346 44
11 1347 3281
11 1348 5
11 1349 20
11 1350 42
11 1351 41
11 1352 17958
11 1353 22
11 1354 25
11 1355 26
11 1356 30
11 1357 3783
11 1358 22
11 1359 26
11 1360 12
11 1361 432
11 1362 27
11 1363 15
11 1364 3
11 1365 35
11 1366 2602
11 1367 30
11 1368 26
11 1369 22
11 1370 41
11 1371 39
11 1372 18
11 1373 18
11 1374 22
11 1375 35
11 1376 22
11 1377 45
11 1378 24
11 1379 22
11 1380 20
11 1381 33
11 1382 35
11 1383 35
11 1384 23
11 1385 25
11 1386 822
11 1387 708
11 1388 24
11 1389 29
11 1390 9
11 1391 24
11 1392 44
11 1393 19
11 1394 18
11 1395 28
11 1396 25
11 1397 7
11 1398 1642
11 1399 5
11 1400 45
11 1401 33
11 1402 12
11 1403 4771
11 1404 18
11 1405 27
11 1406 19
11 1407 22
11 1408 8756
11 1409 23
11 1410 56
11 1411 26
11 1412 26
11 1413 27
11 1414 19
11 1415 23
11 1416 27
11 1417 27
11 1418 13
11 1419 20
11 1420 15
11 1421 17
11 1422 32
11 1423 15
11 1424 30
11 1425 44
11 1426 27
11 1427 42
11 1428 9
11 1429 15
11 1430 18
11 1431 37
11 1432 21
11 1433 19
11 1434 188
11 1435 27
11 1436 29
11 1437 16
11 1438 20
11 1439 7
11 1440 22
11 1441 12
11 1442 34
11 1443 28
11 1444 23
11 1445 42
11 1446 8
11 1447 45
11 1448 20
11 1449 23
11 1450 21
11 1451 29
11 1452 19
11 1453 29
11 1454 13
11 1455 14
11 1456 18
11 1457 53
11 1458 14
11 1459 22
11 1460 18
11 1461 10
11 1462 28
11 1463 21
11 1464 26
11 1465 42
11 1466 12
11 1467 57
11 1468 26
11 1469 3
11 1470 21
11 1471 13
11 1472 23
11 1473 21
11 1474 24
11 1475 11220
11 1476 2050
11 1477 25
11 1478 12
11 1479 38
11 1480 26
11 1481 15
11 1482 27
11 1483 27
11 1484 21
11 1485 17
11 1486 33
11 1487 20
11 1488 17
11 1489 24
11 1490 33
11 1491 26
11 1492 24
11 1493 16
11 1494 40
11 1495 19
11 1496 21
11 1497 24
11 1498 25
11 1499 38
11 1500 19
11 1501 19
11 1502 2736
11 1503 4540
11 1504 49
11 1505 20
11 1506 19
11 1507 12
11 1508 15
11 1509 15
11 1510 20
11 1511 21
11 1512 24
11 1513 29
11 1514 27
11 1515 37
11 1516 6716
11 1517 15
11 1518 20
11 1519 19
11 1520 34
11 1521 19
11 1522 24
11 1523 22
11 1524 43
11 1525 21
11 1526 17
11 1527 28
11 1528 24
11 1529 2645
11 1530 26
11 1531 30
11 1532 25
11 1533 35
11 1534 39
11 1535 21
11 1536 15
11 1537 13
11 1538 16
11 1539 6
11 1540 25
11 1541 296
11 1542 27
11 1543 25
11 1544 16
11 1545 27
11 1546 27
11 1547 24
11 1548 23
11 1549 17
11 1550 27
11 1551 24
11 1552 14
11 1553 14
11 1554 29
11 1555 26
11 1556 15
11 1557 25
11 1558 18001
11 1559 24
11 1560 14
11 1561 34
11 1562 11
11 1563 35
11 1564 18
11 1565 21
11 1566 19
11 1567 27
11 1568 24
11 1569 19
11 1570 22
11 1571 22
11 1572 24
11 1573 26
11 1574 22
11 1575 21
11 1576 20
11 1577 38
11 1578 23
11 1579 24
11 1580 21
11 1581 6
11 1582 26
11 1583 32
11 1584 16
11 1585 31
11 1586 8
11 1587 40
11 1588 26
11 1589 24
11 1590 7
11 1591 23
11 1592 26
11 1593 23
11 1594 19
11 1595 12
11 1596 30
11 1597 14
11 1598 13
11 1599 54
11 1600 21
11 1601 15
11 1602 18
11 1603 29
11 1604 3799
11 1605 19
11 1606 20
11 1607 1106
11 1608 32
11 1609 21
11 1610 17
11 1611 37
11 1612 22
11 1613 18
11 1614 31
11 1615 27
11 1616 25
11 1617 19
11 1618 25
11 1619 35
11 1620 27
11 1621 27
11 1622 29
11 1623 20
11 1624 21
11 1625 18
11 1626 26
11 1627 25
11 1628 45
11 1629 34
11 1630 27
11 1631 18
11 1632 27
11 1633 10
11 1634 13
11 1635 18
11 1636 27
11 1637 12
11 1638 26
11 1639 29
11 1640 30
11 1641 27
11 1642 17
11 1643 30
11 1644 9
11 1645 27
11 1646 39
11 1647 22
11 1648 12
11 1649 20
11 1650 406
11 1651 9
11 1652 27
11 1653 26
11 1654 29
11 1655 48
11 1656 26
11 1657 16
11 1658 11
11 1659 55
11 1660 17
11 1661 24
11 1662 22
11 1663 21
11 1664 7144
11 1665 21907
11 1666 29
11 1667 34
11 1668 30
11 1669 10
11 1670 18
11 1671 4
11 1672 32
11 1673 13
11 1674 26
11 1675 30
11 1676 20
11 1677 11
11 1678 14
11 1679 22
11 1680 17
11 1681 26
11 1682 17
11 1683 15
11 1684 20
11 1685 66
11 1686 18
11 1687 20
11 1688 26
11 1689 17
11 1690 8
11 1691 5052
11 1692 2212
11 1693 30
11 1694 22
11 1695 19
11 1696 11
11 1697 39
11 1698 20
11 1699 6
11 1700 21
11 1701 30
11 1702 17
11 1703 18
11 1704 23
11 1705 1237
11 1706 23
11 1707 13
11 1708 24
11 1709 24
11 1710 26
11 1711 8
11 1712 40
11 1713 26
11 1714 16
11 1715 17
11 1716 17
11 1717 8
11 1718 22
11 1719 24
11 1720 32
11 1721 4088
11 1722 17
11 1723 13
11 1724 27
11 1725 25
11 1726 9
11 1727 15
11 1728 24
11 1729 13
11 1730 42
11 1731 28
11 1732 15
11 1733 38
11 1734 18
11 1735 46
11 1736 17
11 1737 23
11 1738 20
11 1739 13
11 1740 27
11 1741 20
11 1742 19
11 1743 4304
11 1744 14
11 1745 22
11 1746 45
11 1747 15
11 1748 20
11 1749 36
11 1750 32
11 1751 19
11 1752 25
11 1753 23
11 1754 40
11 1755 22
11 1756 20
11 1757 46
11 1758 21
11 1759 16
11 1760 30
11 1761 8336
11 1762 21
11 1763 17
11 1764 21
11 1765 8
11 1766 10
11 1767 15
11 1768 40
11 1769 17904
11 1770 29
11 1771 14
11 1772 19
11 1773 10
11 1774 7
11 1775 15
11 1776 15
11 1777 16
11 1778 32
11 1779 34
11 1780 7
11 1781 24
11 1782 23
11 1783 18
11 1784 17
11 1785 17
11 1786 22
11 1787 25
11 1788 14
11 1789 71
11 1790 34
11 1791 18
11 1792 23
11 1793 28
11 1794 23
11 1795 38
11 1796 7
11 1797 12
11 1798 27
11 1799 11
11 1800 5201
11 1801 21
11 1802 1641
11 1803 29
11 1804 30
11 1805 1296
11 1806 27
11 1807 24
11 1808 15
11 1809 33
11 1810 14
11 1811 17
11 1812 24
11 1813 22
11 1814 28
11 1815 34
11 1816 14
11 1817 14
11 1818 12
11 1819 21
11 1820 2861
11 1821 10
11 1822 2851
11 1823 26
11 1824 16
11 1825 39
11 1826 25
11 1827 20
11 1828 17
11 1829 46
11 1830 69
11 1831 16
11 1832 19
11 1833 29
11 1834 19
11 1835 10
11 1836 12
11 1837 27
11 1838 15
11 1839 5820
11 1840 742
11 1841 115
11 1842 16
11 1843 44
11 1844 42
11 1845 53
11 1846 439
11 1847 13
11 1848 37
11 1849 11
11 1850 13
11 1851 24
11 1852 21
11 1853 34
11 1854 53
11 1855 25
11 1856 28
11 1857 22
11 1858 15
11 1859 29
11 1860 27
11 1861 12
11 1862 12
11 1863 21
11 1864 3649
11 1865 23
11 1866 39
11 1867 16
11 1868 18
11 1869 22
11 1870 22
11 1871 29
11 1872 28
11 1873 10
11 1874 35
11 1875 33
11 1876 15
11 1877 28
11 1878 13
11 1879 20
11 1880 15
11 1881 29
11 1882 18
11 1883 20
11 1884 31
11 1885 25
11 1886 25
11 1887 13
11 1888 14
11 1889 14
11 1890 18
11 1891 27
11 1892 21
11 1893 18
11 1894 8
11 1895 15
11 1896 20
11 1897 29
11 1898 23
11 1899 13
11 1900 28
11 1901 35
11 1902 24
11 1903 599
11 1904 2544
11 1905 6
11 1906 27
11 1907 34
11 1908 34
11 1909 22
11 1910 36
11 1911 18
11 1912 18
11 1913 17
11 1914 15
11 1915 10
11 1916 2584
11 1917 18
11 1918 14
11 1919 18
11 1920 15
11 1921 18
11 1922 12
11 1923 7
11 1924 11
11 1925 33
11 1926 2035
11 1927 21
11 1928 29
11 1929 9
11 1930 27
11 1931 15
11 1932 16
11 1933 24
11 1934 24
11 1935 34
11 1936 18
11 1937 33
11 1938 52
11 1939 56
11 1940 33
11 1941 44
11 1942 28
11 1943 18
11 1944 18
11 1945 4099
11 1946 31
11 1947 34
11 1948 21
11 1949 32
11 1950 19
11 1951 20
11 1952 23
11 1953 24
11 1954 41
11 1955 16
11 1956 24
11 1957 7
11 1958 17
11 1959 16
11 1960 18
11 1961 24
11 1962 15
11 1963 14
11 1964 15
11 1965 46
11 1966 11
11 1967 13
11 1968 27
11 1969 20
11 1970 38
11 1971 23
11 1972 15
11 1973 17
11 1974 21
11 1975 20
11 1976 4
11 1977 40
11 1978 29
11 1979 19
11 1980 26
11 1981 37
11 1982 24
11 1983 19
11 1984 25
11 1985 14
11 1986 19
11 1987 20
11 1988 4827
11 1989 19
11 1990 3607
11 1991 35
11 1992 32
11 1993 28
11 1994 32
11 1995 21
11 1996 25
11 1997 25
11 1998 18
11 1999 18
11 2000 20
11 2001 44
11 2002 31
11 2003 12
11 2004 12
11 2005 28
11 2006 28
11 2007 14
11 2008 18
11 2009 22
11 2010 28
11 2011 749
11 2012 25
11 2013 334
11 2014 2487
11 2015 34
11 2016 19
11 2017 33
11 2018 11
11 2019 21
11 2020 28
11 2021 22
11 2022 15
11 2023 27
11 2024 1399
11 2025 21
11 2026 29
11 2027 34
11 2028 18
11 2029 14
11 2030 4382
11 2031 13
11 2032 24
11 2033 25
11 2034 16
11 2035 1585
11 2036 18
11 2037 8
11 2038 17
11 2039 46
11 2040 24
11 2041 24
11 2042 28
11 2043 23
11 2044 21
11 2045 26
11 2046 15
11 2047 24
11 2048 23
11 2049 24
11 2050 15
11 2051 29
11 2052 17
11 2053 64
11 2054 28
11 2055 9
11 2056 27
11 2057 31
11 2058 13
11 2059 21
11 2060 28
11 2061 21
11 2062 30
11 2063 28
11 2064 9
11 2065 23
11 2066 18
11 2067 35
11 2068 38
11 2069 24
11 2070 27
11 2071 18
11 2072 17
11 2073 22
11 2074 25
11 2075 27
11 2076 14
11 2077 29
11 2078 17
11 2079 16
11 2080 24
11 2081 18
11 2082 32
11 2083 8
11 2084 18
11 2085 11716
11 2086 29
11 2087 25
11 2088 22
11 2089 21
11 2090 9
11 2091 31
11 2092 14
11 2093 48
11 2094 20
11 2095 3
11 2096 34
11 2097 37
11 2098 23
11 2099 23
11 2100 34
11 2101 17
11 2102 23
11 2103 21
11 2104 13
11 2105 15
11 2106 3845
11 2107 1767
11 2108 31
11 2109 14
11 2110 24
11 2111 27
11 2112 20
11 2113 4382
11 2114 42
11 2115 14
11 2116 2700
11 2117 26
11 2118 23
11 2119 27
11 2120 35
11 2121 17
11 2122 12
11 2123 34
11 2124 21
11 2125 21
11 2126 29
11 2127 153
11 2128 13
11 2129 36
11 2130 25
11 2131 37
11 2132 23
11 2133 30
11 2134 15
11 2135 26
11 2136 26
11 2137 12
11 2138 25
11 2139 25
11 2140 17
11 2141 18
11 2142 25
11 2143 23
11 2144 50
11 2145 34
11 2146 17
11 2147 89
11 2148 6350
11 2149 29
11 2150 25
11 2151 30
11 2152 16
11 2153 30
11 2154 15
11 2155 7
11 2156 18
11 2157 32
11 2158 14
11 2159 24
11 2160 7
11 2161 4
11 2162 21
11 2163 18
11 2164 18
11 2165 20
11 2166 35
11 2167 54
11 2168 9
11 2169 64
11 2170 16
11 2171 47
11 2172 44
11 2173 44
11 2174 29
11 2175 14
11 2176 25
11 2177 19
11 2178 10
11 2179 17
11 2180 21
11 2181 23
11 2182 9
11 2183 36
11 2184 664
11 2185 21
11 2186 28
11 2187 23
11 2188 19
11 2189 24
11 2190 29
11 2191 34
11 2192 13
11 2193 27
11 2194 26
11 2195 4403
11 2196 28
11 2197 17
11 2198 9
11 2199 18
11 2200 28
11 2201 21
11 2202 27
11 2203 17
11 2204 23
11 2205 34
11 2206 22
11 2207 20
11 2208 8
11 2209 4
11 2210 21
11 2211 27
11 2212 19
11 2213 16
11 2214 29
11 2215 20
11 2216 27
11 2217 11
11 2218 26
11 2219 34
11 2220 35
11 2221 17
11 2222 27
11 2223 13
11 2224 21
11 2225 16
11 2226 340
11 2227 13
11 2228 12
11 2229 10
11 2230 37
11 2231 35
11 2232 13
11 2233 23
11 2234 22
11 2235 21
11 2236 19
11 2237 3626
11 2238 38
11 2239 34
11 2240 16
11 2241 5
11 2242 24
11 2243 18
11 2244 40
11 2245 20
11 2246 23
11 2247 15
11 2248 28
11 2249 34
11 2250 67
11 2251 21
11 2252 21
11 2253 19
11 2254 14
11 2255 21
11 2256 47
11 2257 19
11 2258 12
11 2259 30
11 2260 25
11 2261 16
11 2262 37
11 2263 6492
11 2264 12
11 2265 24
11 2266 31
11 2267 30
11 2268 15
11 2269 51
11 2270 6
11 2271 34
11 2272 24
11 2273 32
11 2274 18
11 2275 25
11 2276 26
11 2277 14
11 2278 23
11 2279 15
11 2280 17
11 2281 21
11 2282 14
11 2283 4111
11 2284 8
11 2285 21
11 2286 4567
11 2287 26
11 2288 14
11 2289 29
11 2290 27
11 2291 9
11 2292 41
11 2293 17
11 2294 5
11 2295 34
11 2296 27
11 2297 31
11 2298 17
11 2299 29
11 2300 23
11 2301 19
11 2302 21
11 2303 16
11 2304 22
11 2305 26
11 2306 11
11 2307 19
11 2308 14
11 2309 26
11 2310 22
11 2311 29
11 2312 31
11 2313 14
11 2314 10
11 2315 31
11 2316 29
11 2317 30
11 2318 14
11 2319 19
11 2320 6083
11 2321 23
11 2322 47
11 2323 27
11 2324 61
11 2325 17
11 2326 28
11 2327 33
11 2328 37
11 2329 30
11 2330 2048
11 2331 26
11 2332 8741
11 2333 21
11 2334 65
11 2335 6
11 2336 15
11 2337 11
11 2338 11
11 2339 19
11 2340 24
11 2341 24
11 2342 35
11 2343 19
11 2344 40
11 2345 15
11 2346 29
11 2347 20
11 2348 28
11 2349 20
11 2350 28
11 2351 22
11 2352 22
11 2353 3983
11 2354 34
11 2355 29
11 2356 10
11 2357 26
11 2358 17
11 2359 34
11 2360 20
11 2361 10
11 2362 17
11 2363 17
11 2364 7
11 2365 23
11 2366 14
11 2367 7
11 2368 14
11 2369 15
11 2370 17
11 2371 26
11 2372 6161
11 2373 19
11 2374 39
11 2375 4374
11 2376 24
11 2377 21
11 2378 15
11 2379 25
11 2380 25
11 2381 46
11 2382 25
11 2383 9
11 2384 9
11 2385 27
11 2386 33
11 2387 19
11 2388 16
11 2389 13
11 2390 3355
11 2391 29
11 2392 18
11 2393 24
11 2394 19
11 2395 32
11 2396 24
11 2397 16
11 2398 26
11 2399 37
11 2400 27
11 2401 27
11 2402 19
11 2403 129
11 2404 17
11 2405 27
11 2406 27
11 2407 22
11 2408 18
11 2409 12
11 2410 15
11 2411 20
11 2412 17
11 2413 22
11 2414 26
11 2415 23
11 2416 26
11 2417 8
11 2418 4
11 2419 28
11 2420 21
11 2421 36
11 2422 14
11 2423 18
11 2424 24
11 2425 288
11 2426 39
11 2427 33
11 2428 28
11 2429 21
11 2430 16
11 2431 30
11 2432 14
11 2433 26
11 2434 27
11 2435 18
11 2436 15
11 2437 7
11 2438 29
11 2439 1380
11 2440 31
11 2441 30
11 2442 28
11 2443 25
11 2444 25
11 2445 13
11 2446 27
11 2447 11
11 2448 42
11 2449 17
11 2450 23
11 2451 26
11 2452 1478
11 2453 1762
11 2454 20
11 2455 65
11 2456 23
11 2457 22
11 2458 12
11 2459 8
11 2460 14
11 2461 10
11 2462 17
11 2463 13
11 2464 22
11 2465 23
11 2466 17
11 2467 17
11 2468 22
11 2469 17
11 2470 21
11 2471 30
11 2472 22
11 2473 22
11 2474 346
11 2475 32
11 2476 12
11 2477 22
11 2478 16
11 2479 35
11 2480 27
11 2481 19
11 2482 22
11 2483 26
11 2484 35
11 2485 15
11 2486 18
11 2487 4149
11 2488 24
11 2489 40
11 2490 12
11 2491 9
11 2492 11
11 2493 19
11 2494 28
11 2495 17
11 2496 11
11 2497 33
11 2498 19
11 2499 17
11 2500 14
11 2501 38
11 2502 34
11 2503 7
11 2504 22
11 2505 44
11 2506 18
11 2507 13
11 2508 28
11 2509 33
11 2510 25
11 2511 10
11 2512 11
11 2513 22
11 2514 3340
11 2515 20
11 2516 17
11 2517 13
11 2518 20
11 2519 49
11 2520 27
11 2521 24
11 2522 18
11 2523 8
11 2524 31
11 2525 22
11 2526 8
11 2527 22
11 2528 11
11 2529 27
11 2530 19
11 2531 14
11 2532 44
11 2533 9
11 2534 21
11 2535 27
11 2536 34
11 2537 18
11 2538 23
11 2539 18
11 2540 11
11 2541 45
11 2542 34
11 2543 7
11 2544 23
11 2545 6
11 2546 23
11 2547 29
11 2548 17
11 2549 21
11 2550 24
11 2551 17
11 2552 26
11 2553 26
11 2554 32
11 2555 16
11 2556 19
11 2557 20
11 2558 13
11 2559 10
11 2560 29
11 2561 11
11 2562 16
11 2563 24
11 2564 26
11 2565 16
11 2566 10
11 2567 16
11 2568 20
11 2569 23
11 2570 27
11 2571 14
11 2572 18
11 2573 17
11 2574 13
11 2575 28
11 2576 15
11 2577 12
11 2578 20
11 2579 16
11 2580 30
11 2581 30
11 2582 38
11 2583 47
11 2584 21
11 2585 9
11 2586 33
11 2587 23
11 2588 23
11 2589 4057
11 2590 22
11 2591 7
11 2592 15
11 2593 22
11 2594 765
11 2595 20
11 2596 17
11 2597 36
11 2598 18
11 2599 25
11 2600 23
11 2601 38
11 2602 22
11 2603 11
11 2604 14
11 2605 15
11 2606 50
11 2607 2555
11 2608 10
11 2609 10
11 2610 16
11 2611 28
11 2612 21
11 2613 16
11 2614 23
11 2615 20
11 2616 22
11 2617 9
11 2618 18
11 2619 32
11 2620 22
11 2621 6
11 2622 9
11 2623 11
11 2624 15
11 2625 22
11 2626 29
11 2627 11
11 2628 743
11 2629 30
11 2630 35
11 2631 18
11 2632 18
11 2633 35
11 2634 21
11 2635 37
11 2636 16
11 2637 20
11 2638 62
11 2639 913
11 2640 15
11 2641 37
11 2642 16
11 2643 78
11 2644 19
11 2645 44
11 2646 21
11 2647 20
11 2648 14
11 2649 25
11 2650 11
11 2651 27
11 2652 26
11 2653 15
11 2654 17
11 2655 25
11 2656 13
11 2657 24
11 2658 32
11 2659 27
11 2660 13
11 2661 18
11 2662 25
11 2663 21
11 2664 717
11 2665 3
11 2666 32
11 2667 23
11 2668 1
11 2669 15
11 2670 23
11 2671 18
11 2672 21
11 2673 23
11 2674 9
11 2675 27
11 2676 24
11 2677 18
11 2678 20
11 2679 20
11 2680 17
11 2681 27
11 2682 34
11 2683 20
11 2684 21
11 2685 35
11 2686 33
11 2687 38
11 2688 20
11 2689 11
11 2690 19
11 2691 34
11 2692 40
11 2693 23
11 2694 21
11 2695 11
11 2696 19
11 2697 18
11 2698 16
11 2699 33
11 2700 21
11 2701 5
11 2702 18
11 2703 24
11 2704 1788
11 2705 15
11 2706 15
11 2707 20
11 2708 14
11 2709 21
11 2710 12
11 2711 31
11 2712 30
11 2713 25
11 2714 16
11 2715 36
11 2716 38
11 2717 25
11 2718 1367
11 2719 39
11 2720 15
11 2721 19
11 2722 23
11 2723 24
11 2724 24
11 2725 638
11 2726 300
11 2727 28
11 2728 42
11 2729 18
11 2730 52
11 2731 17
11 2732 18
11 2733 27
11 2734 30
11 2735 2703
11 2736 11
11 2737 89
11 2738 11
11 2739 24
11 2740 17
11 2741 33
11 2742 23
11 2743 14
11 2744 27
11 2745 14
11 2746 10
11 2747 15
11 2748 30
11 2749 23
11 2750 26
11 2751 15
11 2752 11
11 2753 21
11 2754 19
11 2755 10
11 2756 10
11 2757 14
11 2758 12
11 2759 29
11 2760 27
11 2761 46
11 2762 22
11 2763 12
11 2764 20
11 2765 16
11 2766 11
11 2767 37
11 2768 25
11 2769 16
11 2770 18
11 2771 33
11 2772 12
11 2773 6313
11 2774 9
11 2775 6
11 2776 25
11 2777 36
11 2778 17
11 2779 18
11 2780 38
11 2781 16
11 2782 11
11 2783 14
11 2784 892
11 2785 2902
11 2786 9
11 2787 15
11 2788 17
11 2789 24
11 2790 9
11 2791 33
11 2792 15
11 2793 17
11 2794 17
11 2795 24
11 2796 31
11 2797 20
11 2798 43
11 2799 16
11 2800 32
11 2801 26
11 2802 27
11 2803 18
11 2804 6
11 2805 22
11 2806 24
11 2807 6
11 2808 27
11 2809 36
11 2810 26
11 2811 15
11 2812 28
11 2813 19
11 2814 24
11 2815 23
11 2816 13
11 2817 9
11 2818 1
11 2819 26
11 2820 14
11 2821 28
11 2822 14
11 2823 19
11 2824 17
11 2825 13
11 2826 10
11 2827 22
11 2828 226
11 2829 24
11 2830 20
11 2831 15
11 2832 172
11 2833 18
11 2834 10
11 2835 30
11 2836 15
11 2837 27
11 2838 32
11 2839 39
11 2840 9
11 2841 6450
11 2842 21
11 2843 2027
11 2844 35
11 2845 19
11 2846 25
11 2847 11
11 2848 11
11 2849 20
11 2850 27
11 2851 18
11 2852 9
11 2853 25
11 2854 21
11 2855 27
11 2856 26
11 2857 17
11 2858 18
11 2859 13
11 2860 26
11 2861 29
11 2862 15
11 2863 17
11 2864 28
11 2865 20
11 2866 25
11 2867 3645
11 2868 23
11 2869 16
11 2870 4497
11 2871 481
11 2872 11
11 2873 7
11 2874 35
11 2875 14
11 2876 10
11 2877 34
11 2878 19
11 2879 19
11 2880 35
11 2881 2080
11 2882 20
11 2883 28
11 2884 16
11 2885 12
11 2886 26
11 2887 28
11 2888 22
11 2889 2365
11 2890 30
11 2891 20
11 2892 22
11 2893 9
11 2894 31
11 2895 20
11 2896 26
11 2897 18
11 2898 27
11 2899 15
11 2900 19
11 2901 15
11 2902 25
11 2903 28
11 2904 22
11 2905 1228
11 2906 26
11 2907 16
11 2908 29
11 2909 10
11 2910 15
11 2911 40
11 2912 25
11 2913 16
11 2914 33
11 2915 18
11 2916 31
11 2917 27
11 2918 23
11 2919 18
11 2920 38
11 2921 43
11 2922 36
11 2923 4
11 2924 29
11 2925 11
11 2926 38
11 2927 21
11 2928 22
11 2929 30
11 2930 30
11 2931 15
11 2932 17
11 2933 20
11 2934 19
11 2935 51
11 2936 10
11 2937 49
11 2938 18
11 2939 11
11 2940 18
11 2941 31
11 2942 15
11 2943 24
11 2944 19
11 2945 9
11 2946 595
11 2947 20
11 2948 17
11 2949 10
11 2950 24
11 2951 25
11 2952 21
11 2953 14
11 2954 17
11 2955 18
11 2956 11
11 2957 14
11 2958 25
11 2959 25
11 2960 22
11 2961 87
11 2962 16
11 2963 9
11 2964 13
11 2965 22
11 2966 10
11 2967 19
11 2968 9
11 2969 20
11 2970 23
11 2971 13
11 2972 17
11 2973 15
11 2974 19
11 2975 14
11 2976 16
11 2977 9
11 2978 22
11 2979 21
11 2980 1090
11 2981 13
11 2982 17
11 2983 12
11 2984 15
11 2985 9
11 2986 15
11 2987 2
11 2988 10
11 2989 3
11 2990 24
11 2991 20
11 2992 39
11 2993 9
11 2994 32
11 2995 11
11 2996 20
11 2997 19
11 2998 19
11 2999 7
11 3000 20
11 3001 22
11 3002 14
11 3003 19
11 3004 20
11 3005 44
11 3006 15
11 3007 22
11 3008 27
11 3009 11
11 3010 18
11 3011 8
11 3012 48
11 3013 22
11 3014 16
11 3015 30
11 3016 12
11 3017 27
11 3018 17
11 3019 37
11 3020 19
11 3021 22
11 3022 17
11 3023 18
11 3024 1461
11 3025 19
11 3026 23
11 3027 16
11 3028 8
11 3029 9
11 3030 28
11 3031 43
11 3032 24
11 3033 46
11 3034 17
11 3035 24
11 3036 29
11 3037 22
11 3038 26
11 3039 12
11 3040 10
11 3041 25
11 3042 29
11 3043 26
11 3044 28
11 3045 28
11 3046 13
11 3047 143
11 3048 14
11 3049 18
11 3050 17
11 3051 33
11 3052 25
11 3053 15
11 3054 13
11 3055 27
11 3056 20
11 3057 11
11 3058 23
11 3059 25
11 3060 20
11 3061 18
11 3062 25
11 3063 48
11 3064 39
11 3065 136
11 3066 10
11 3067 20
11 3068 15
11 3069 30
11 3070 17
11 3071 32
11 3072 17
11 3073 1272
11 3074 15
11 3075 10
11 3076 30
11 3077 9
11 3078 32
11 3079 16
11 3080 19
11 3081 62
11 3082 16
11 3083 27
11 3084 4392
11 3085 3155
11 3086 27
11 3087 11
11 3088 2
11 3089 8
11 3090 16
11 3091 24
11 3092 14
11 3093 23
11 3094 11
11 3095 13
11 3096 16
11 3097 25
11 3098 16
11 3099 13
11 3100 28
11 3101 24
11 3102 26
11 3103 22
11 3104 15
11 3105 6819
11 3106 13
11 3107 15
11 3108 21
11 3109 22
11 3110 20
11 3111 23
11 3112 22
11 3113 26
11 3114 26
11 3115 23
11 3116 16
11 3117 28
11 3118 15
11 3119 20
11 3120 19
11 3121 10
11 3122 46
11 3123 14
11 3124 57
11 3125 15
11 3126 17
11 3127 4964
11 3128 31
11 3129 13
11 3130 37
11 3131 29
11 3132 29
11 3133 28
11 3134 21
11 3135 22
11 3136 32
11 3137 29
11 3138 12
11 3139 22
11 3140 20
11 3141 20
11 3142 33
11 3143 47
11 3144 22
11 3145 17
11 3146 30
11 3147 14
11 3148 39
11 3149 30
11 3150 280
11 3151 19
11 3152 22
11 3153 110
11 3154 11
11 3155 24
11 3156 3
11 3157 19
11 3158 18
11 3159 18
11 3160 764
11 3161 21
11 3162 19
11 3163 33
11 3164 38
11 3165 15
11 3166 28
11 3167 12
11 3168 2194
11 3169 21
11 3170 555
11 3171 18
11 3172 13
11 3173 30
11 3174 33
11 3175 15
11 3176 11
11 3177 11
11 3178 17
11 3179 12
11 3180 16
11 3181 20
11 3182 35
11 3183 12
11 3184 19
11 3185 21
11 3186 6
11 3187 26
11 3188 16
11 3189 20
11 3190 28
11 3191 27
11 3192 23
11 3193 32
11 3194 16
11 3195 12
11 3196 38
11 3197 21
11 3198 24
11 3199 20
11 3200 33
11 3201 46
11 3202 20
11 3203 11
11 3204 19
11 3205 12
11 3206 33
11 3207 7
11 3208 29
11 3209 7
11 3210 21
11 3211 28
11 3212 18
11 3213 22
11 3214 10
11 3215 7
11 3216 17
11 3217 26
11 3218 27
11 3219 24
11 3220 22
11 3221 20
11 3222 30
11 3223 18
11 3224 18
11 3225 16
11 3226 7
11 3227 19
11 3228 26
11 3229 10
11 3230 13
11 3231 32
11 3232 16
11 3233 25
11 3234 10
11 3235 41
11 3236 23
11 3237 20
11 3238 9
11 3239 28
11 3240 20
11 3241 30
11 3242 28
11 3243 16
11 3244 49
11 3245 18
11 3246 23
11 3247 23
11 3248 17
11 3249 47
11 3250 23
11 3251 25
11 3252 23
11 3253 13
11 3254 16
11 3255 24
11 3256 14
11 3257 14
11 3258 10
11 3259 13
11 3260 14
11 3261 22
11 3262 17
11 3263 26
11 3264 17
11 3265 395
11 3266 51
11 3267 30
11 3268 18
11 3269 24
11 3270 11
11 3271 11
11 3272 30
11 3273 10
11 3274 15
11 3275 9
11 3276 26
11 3277 13
11 3278 28
11 3279 16
11 3280 10
11 3281 28
11 3282 20
11 3283 23
11 3284 31
11 3285 13
11 3286 17
11 3287 37
11 3288 27
11 3289 15
11 3290 58
11 3291 11
11 3292 27
11 3293 22
11 3294 42
11 3295 20
11 3296 32
11 3297 21
11 3298 36
11 3299 8
11 3300 30
11 3301 27
11 3302 41
11 3303 29
11 3304 19
11 3305 16
11 3306 20
11 3307 11
11 3308 12
11 3309 17
11 3310 11
11 3311 9
11 3312 53
11 3313 13
11 3314 23
11 3315 24
11 3316 20
11 3317 21
11 3318 26
11 3319 13
11 3320 27
11 3321 25
11 3322 6632
11 3323 19
11 3324 15
11 3325 38
11 3326 8
11 3327 302
11 3328 16
11 3329 17
11 3330 25
11 3331 31
11 3332 11
11 3333 45
11 3334 16
11 3335 22
11 3336 26
11 3337 1457
11 3338 16
11 3339 23
11 3340 25
11 3341 25
11 3342 15
11 3343 16
11 3344 10
11 3345 16
11 3346 17
11 3347 16
11 3348 15
11 3349 22
11 3350 898
11 3351 27
11 3352 20
11 3353 28
11 3354 1924
11 3355 28
11 3356 23
11 3357 15
11 3358 10
11 3359 21
11 3360 28
11 3361 26
11 3362 26
11 3363 26
11 3364 12
11 3365 23
11 3366 17
11 3367 14
11 3368 18
11 3370 21
11 3371 16
11 3372 32
11 3373 22
11 3374 16
11 3375 32
11 3376 21
11 3377 11
11 3378 13
11 3379 10
11 3380 17
11 3381 26
11 3382 18
11 3383 23
11 3384 28
11 3385 30
11 3386 12
11 3387 27
11 3388 23
11 3389 8
11 3390 31
11 3391 12
11 3392 157
11 3393 5
11 3394 31
11 3395 49
11 3396 13
11 3397 12
11 3398 46
11 3399 15
11 3400 26
11 3401 37
11 3402 11
11 3403 26
11 3404 6
11 3405 41
11 3406 20
11 3407 36
11 3408 18
11 3409 13
11 3410 2021
11 3411 4
11 3412 25
11 3413 10
11 3414 24
11 3415 19
11 3416 13
11 3417 10
11 3418 22
11 3419 6
11 3420 10
11 3421 25
11 3422 61
11 3423 783
11 3424 8
11 3425 20
11 3426 158
11 3427 7
11 3428 13
11 3429 19
11 3430 18
11 3431 23
11 3432 22
11 3433 29
11 3434 14
11 3435 18
11 3436 17
11 3437 19
11 3438 18
11 3439 41
11 3440 19
11 3441 32
11 3442 20
11 3443 21
11 3444 1130
11 3445 969
11 3446 2895
11 3447 28
11 3448 10
11 3449 11
11 3450 29
11 3451 12
11 3452 4
11 3453 18
11 3454 9
11 3455 15
11 3456 26
11 3457 32
11 3458 21
11 3459 5
11 3460 30
11 3461 12
11 3462 2854
11 3463 10
11 3464 18
11 3465 11
11 3466 26
11 3467 31
11 3468 14
11 3469 22
11 3470 16
11 3471 15
11 3472 10
11 3473 10
11 3474 15
11 3475 11
11 3476 12
11 3477 4
11 3478 12
11 3479 4
11 3480 15
11 3481 18
11 3482 28
11 3483 21
11 3484 14
11 3485 15
11 3486 16
11 3487 92
11 3488 20
11 3489 22
11 3490 18
11 3491 25
11 3492 11
11 3493 23
11 3494 9
11 3495 35
11 3496 14
11 3497 17
11 3498 18
11 3499 33
11 3500 19
11 3501 17
11 3502 21
11 3503 19
11 3504 19
11 3505 15
11 3506 11
11 3507 14
11 3508 45
11 3509 19
11 3510 19
11 3511 11
11 3512 33
11 3513 13
11 3514 28
11 3515 33
11 3516 26
11 3517 14
11 3518 16
11 3519 18
11 3520 16
11 3521 17
11 3522 24
11 3523 12
11 3524 1694
11 3525 1307
11 3526 25
11 3527 12
11 3528 11
11 3529 8
11 3530 27
11 3531 15
11 3532 20
11 3533 19
11 3534 22
11 3535 13
11 3536 26
11 3537 12
11 3538 26
11 3539 34
11 3540 18
11 3541 16
11 3542 22
11 3543 11
11 3544 23
11 3545 16
11 3546 9
11 3547 13
11 3548 585
11 3549 20
11 3550 37
11 3551 36
11 3552 18
11 3553 26
11 3554 25
11 3555 26
11 3556 19
11 3557 17
11 3558 18
11 3559 30
11 3560 11
11 3561 7
11 3562 30
11 3563 32
11 3564 3883
11 3565 43
11 3566 21
11 3567 34
11 3568 14
11 3569 46
11 3570 8
11 3571 28
11 3572 459
11 3573 15
11 3574 38
11 3575 21
11 3576 21
11 3577 23
11 3578 1052
11 3579 8
11 3580 38
11 3581 26
11 3582 9
11 3583 30
11 3584 31
11 3585 60
11 3586 24
11 3587 4
11 3588 993
11 3589 17
11 3590 36
11 3591 17
11 3592 27
11 3593 36
11 3594 16
11 3595 14
11 3596 26
11 3597 26
11 3598 17
11 3599 58
11 3600 378
11 3601 2157
11 3602 22
11 3603 17
11 3604 20
11 3605 22
11 3606 18
11 3607 25
11 3608 23
11 3609 16
11 3610 11
11 3611 17
11 3612 31
11 3613 20
11 3614 14
11 3615 17
11 3616 18
11 3617 18
11 3618 21
11 3619 2046
11 3620 14
11 3621 14
11 3622 35
11 3623 8
11 3624 22
11 3625 19
11 3626 44
11 3627 20
11 3628 20
11 3629 27
11 3630 15
11 3631 20
11 3632 21
11 3633 28
11 3634 19
11 3635 13
11 3636 14
11 3637 23
11 3638 2058
11 3639 16
11 3640 23
11 3641 20
11 3642 16
11 3643 10
11 3644 24
11 3645 20
11 3646 13
11 3647 17
11 3648 27
11 3649 11
11 3650 26
11 3651 43
11 3652 13
11 3653 1952
11 3654 15
11 3655 21
11 3656 39
11 3657 25
11 3658 21
11 3659 21
11 3660 17
11 3661 23
11 3662 26
11 3663 17
11 3664 25
11 3665 207
11 3666 24
11 3667 5
11 3668 12
11 3669 8
11 3670 32
11 3671 20
11 3672 46
11 3673 34
11 3674 13
11 3675 6
11 3676 11
11 3677 610
11 3678 11
11 3679 20
11 3680 9
11 3681 48
11 3682 18
11 3683 8
11 3684 13
11 3685 34
11 3686 12
11 3687 21
11 3688 20
11 3689 40
11 3690 23
11 3691 13
11 3692 26
11 3693 22
11 3694 717
11 3695 16
11 3696 29
11 3697 18
11 3698 4
11 3699 19
11 3700 27
11 3701 27
11 3702 33
11 3703 26
11 3704 9
11 3705 34
11 3706 9
11 3707 23
11 3708 15
11 3709 15
11 3710 28
11 3711 46
11 3712 15
11 3713 21
11 3714 30
11 3715 11
11 3716 40
11 3717 21
11 3718 17
11 3719 7
11 3720 2103
11 3721 12
11 3722 23
11 3723 3
11 3724 11
11 3725 7
11 3726 31
11 3727 17
11 3728 21
11 3729 14
11 3730 15
11 3731 3225
11 3732 36
11 3733 20
11 3734 26
11 3735 13
11 3736 15
11 3737 15
11 3738 17
11 3739 16
11 3740 34
11 3741 15
11 3742 33
11 3743 2357
11 3744 30
11 3745 32
11 3746 19
11 3747 21
11 3748 8
11 3749 15
11 3750 14
11 3751 1141
11 3752 17
11 3753 11
11 3754 5
11 3755 13
11 3756 31
11 3757 12
11 3758 586
11 3759 12
11 3760 26
11 3761 16
11 3762 31
11 3763 33
11 3764 2205
11 3765 21
11 3766 12
11 3767 11
11 3768 89
11 3769 29
11 3770 33
11 3771 11
11 3772 1411
11 3773 14
11 3774 1570
11 3775 27
11 3776 28
11 3777 16
11 3778 22
11 3779 11
11 3780 19
11 3781 19
11 3782 18
11 3783 22
11 3784 13
11 3785 12
11 3786 13
11 3787 16
11 3788 29
11 3789 21
11 3790 19
11 3791 10
11 3792 2528
11 3793 20
11 3794 16
11 3795 28
11 3796 20
11 3797 19
11 3798 14
11 3799 48
11 3800 22
11 3801 27
11 3802 14
11 3803 7
11 3804 10
11 3805 26
11 3806 16
11 3807 16
11 3808 10
11 3809 19
11 3810 21
11 3811 20
11 3812 1054
11 3813 13
11 3814 26
11 3815 18
11 3816 15
11 3817 17
11 3818 18
11 3819 19
11 3820 14
11 3821 19
11 3822 1448
11 3823 21
11 3824 25
11 3825 25
11 3826 22
11 3827 17
11 3828 8
11 3829 14
11 3830 20
11 3831 18
11 3832 16
11 3833 14
11 3834 17
11 3835 12
11 3836 17
11 3837 24
11 3838 28
11 3839 7
11 3840 16
11 3841 7
11 3842 12
11 3843 25
11 3844 34
11 3845 25
11 3846 21
11 3847 28
11 3848 17
11 3849 8
11 3850 20
11 3851 36
11 3852 12
11 3853 20
11 3854 25
11 3855 26
11 3856 35
11 3857 19
11 3858 22
11 3859 16
11 3860 27
11 3861 23
11 3862 11
11 3863 12
11 3864 16
11 3865 11
11 3866 37
11 3867 20
11 3868 37
11 3869 18
11 3870 27
11 3871 25
11 3872 15
11 3873 26
11 3874 6
11 3875 14
11 3876 21
11 3877 20
11 3878 22
11 3879 382
11 3881 23
11 3882 31
11 3883 16
11 3884 46
11 3885 30
11 3886 1
11 3887 33
11 3888 20
11 3889 26
11 3890 24
11 3891 12
11 3892 21
11 3893 31
11 3894 18
11 3895 3337
11 3896 19
11 3897 31
11 3898 15
11 3899 69
11 3900 24
11 3901 5
11 3902 33
11 3903 28
11 3904 35
11 3905 23
11 3906 31
11 3907 19
11 3908 14
11 3909 20
11 3910 1146
11 3911 14
11 3912 6
11 3913 9
11 3914 19
11 3915 21
11 3916 3
11 3917 189
11 3918 385
11 3919 23
11 3920 874
11 3921 13
11 3922 11
11 3923 29
11 3924 14
11 3925 6
11 3926 21
11 3927 12
11 3928 1081
11 3929 17
11 3930 8
11 3931 29
11 3932 19
11 3933 12
11 3934 786
11 3935 36
11 3936 22
11 3937 11
11 3938 34
11 3939 14
11 3940 22
11 3941 18
11 3942 12
11 3943 16
11 3944 1293
11 3945 17
11 3946 23
11 3947 14
11 3948 745
11 3949 36
11 3950 1407
11 3951 21
11 3952 22
11 3953 27
11 3954 13
11 3955 9
11 3956 23
11 3957 32
11 3958 31
11 3959 13
11 3960 26
11 3961 15
11 3962 16
11 3963 33
11 3964 12
11 3965 23
11 3966 18
11 3967 28
11 3968 11
11 3969 19
11 3970 17
11 3971 12
11 3972 21
11 3973 9
11 3974 23
11 3975 11
11 3976 126
11 3977 28
11 3978 32
11 3979 19
11 3980 23
11 3981 14
11 3982 24
11 3983 50
11 3984 211
11 3985 11
11 3986 19
11 3987 7
11 3988 13
11 3989 51
11 3990 14
11 3991 11
11 3992 37
11 3993 48
11 3994 21
11 3995 9
11 3996 14
11 3997 28
11 3998 16
11 3999 14
11 4000 12
11 4001 26
11 4002 22
11 4003 1928
11 4004 16
11 4005 18
11 4006 24
11 4007 22
11 4008 29
11 4009 23
11 4010 10
11 4011 11
11 4012 16
11 4013 20
11 4014 14
11 4015 60
11 4016 22
11 4017 15
11 4018 27
11 4019 32
11 4020 16
11 4021 9
11 4022 10
11 4023 110
11 4024 26
11 4025 298
11 4026 79
11 4027 8
11 4028 12
11 4029 10
11 4030 37
11 4031 12
11 4032 25
11 4033 15
11 4034 16
11 4035 3
11 4036 22
11 4037 13
11 4038 28
11 4039 21
11 4040 27
11 4041 43
11 4042 6
11 4043 104
11 4044 10
11 4045 22
11 4046 18
11 4047 35
11 4048 26
11 4049 39
11 4050 16
11 4051 1231
11 4052 21
11 4053 12
11 4054 14
11 4055 19
11 4056 20
11 4057 13
11 4058 19
11 4059 9
11 4060 21
11 4061 25
11 4062 19
11 4063 25
11 4064 458
11 4065 19
11 4066 209
11 4067 12
11 4068 19
11 4069 43
11 4070 15
11 4071 15
11 4072 20
11 4073 7
11 4074 22
11 4075 19
11 4076 13
11 4077 18
11 4078 18
11 4079 23
11 4080 16
11 4081 12
11 4082 21
11 4083 48
11 4084 32
11 4085 15
11 4086 164
11 4087 13
11 4088 1719
11 4089 24
11 4090 34
11 4091 10
11 4092 25
11 4093 1348
11 4094 47
11 4095 13
11 4096 27
11 4097 42
11 4098 15
11 4099 17
11 4100 16
11 4101 860
11 4102 17
11 4103 42
11 4104 13
11 4105 180
11 4106 23
11 4107 14
11 4108 29
11 4109 19
11 4110 18
11 4111 12
11 4112 10
11 4113 12
11 4114 22
11 4115 10
11 4116 20
11 4117 16
11 4118 25
11 4119 22
11 4120 13
11 4121 27
11 4122 12
11 4123 15
11 4124 11
11 4125 15
11 4126 19
11 4127 21
11 4128 12
11 4129 27
11 4130 22
11 4131 27
11 4132 15
11 4133 14
11 4134 11
11 4135 23
11 4136 225
11 4137 488
11 4138 14
11 4139 34
11 4140 11
11 4141 14
11 4142 12
11 4143 7
11 4144 10
11 4145 24
11 4146 15
11 4147 15
11 4148 18
11 4149 25
11 4150 19
11 4151 30
11 4152 29
11 4153 7
11 4154 16
11 4155 10
11 4156 5
11 4157 19
11 4158 10
11 4159 9
11 4160 32
11 4161 15
11 4162 11
11 4163 45
11 4164 34
11 4165 32
11 4166 21
11 4167 23
11 4168 28
11 4169 21
11 4170 7
11 4171 14
11 4172 8
11 4173 28
11 4174 23
11 4175 17
11 4176 9
11 4177 21
11 4178 34
11 4179 15
11 4180 23
11 4181 14
11 4182 7
11 4183 9
11 4184 21
11 4185 17
11 4186 54
11 4187 17
11 4188 25
11 4189 43
11 4190 22
11 4191 12
11 4192 15
11 4193 25
11 4194 32
11 4195 2360
11 4196 8
11 4197 15
11 4198 19
11 4199 16
11 4200 31
11 4201 870
11 4202 15
11 4203 6
11 4204 27
11 4205 22
11 4206 24
11 4207 25
11 4208 17
11 4209 35
11 4210 17
11 4211 29
11 4212 3
11 4213 16
11 4214 18
11 4215 7
11 4216 19
11 4217 20
11 4218 12
11 4219 24
11 4220 18
11 4221 11
11 4222 13
11 4223 35
11 4224 21
11 4225 22
11 4226 21
11 4227 1559
11 4228 32
11 4229 10
11 4230 15
11 4231 21
11 4232 24
11 4233 26
11 4234 15
11 4235 27
11 4236 22
11 4237 11
11 4238 31
11 4239 30
11 4240 10
11 4241 14
11 4242 17
11 4243 8
11 4244 16
11 4245 8
11 4246 14
11 4247 42
11 4248 12
11 4249 13
11 4250 5
11 4251 22
11 4252 22
11 4253 17
11 4254 18
11 4255 26
11 4256 17
11 4257 18
11 4258 30
11 4259 25
11 4260 10
11 4261 16
11 4262 18
11 4263 10
11 4264 592
11 4265 10
11 4266 12
11 4267 10
11 4268 10
11 4269 12
11 4270 14
11 4271 18
11 4272 37
11 4273 18
11 4274 52
11 4275 5
11 4276 16
11 4277 13
11 4278 31
11 4279 35
11 4280 29
11 4281 21
11 4282 29
11 4283 10
11 4284 36
11 4285 16
11 4286 562
11 4287 20
11 4288 1392
11 4289 17
11 4290 15
11 4291 22
11 4292 31
11 4293 778
11 4294 22
11 4295 35
11 4296 7
11 4297 28
11 4298 18
11 4299 22
11 4300 11
11 4301 24
11 4302 3
11 4303 13
11 4304 12
11 4305 23
11 4306 698
11 4307 32
11 4308 13
11 4309 14
11 4310 16
11 4311 6
11 4312 20
11 4313 24
11 4314 44
11 4315 10
11 4316 20
11 4317 25
11 4318 12
11 4319 9
11 4320 20
11 4321 38
11 4322 18
11 4323 12
11 4324 38
11 4325 11
11 4326 18
11 4327 27
11 4328 25
11 4329 19
11 4330 13
11 4331 28
11 4332 10
11 4333 17
11 4334 6
11 4335 24
11 4336 11
11 4337 8
11 4338 52
11 4339 721
11 4340 23
11 4341 22
11 4342 20
11 4343 14
11 4344 15
11 4345 22
11 4346 19
11 4347 26
11 4348 22
11 4349 32
11 4350 38
11 4351 14
11 4352 20
11 4353 18
11 4354 18
11 4355 24
11 4356 16
11 4357 20
11 4358 13
11 4359 10
11 4360 806
11 4361 12
11 4362 38
11 4363 28
11 4364 21
11 4365 32
11 4366 15
11 4367 13
11 4368 21
11 4369 10
11 4370 23
11 4371 11
11 4372 16
11 4373 29
11 4374 6
11 4375 24
11 4376 15
11 4377 16
11 4378 13
11 4379 33
11 4380 12
11 4381 27
11 4382 13
11 4383 27
11 4384 26
11 4385 24
11 4386 8
11 4387 28
11 4388 8
11 4389 18
11 4390 10
11 4391 18
11 4392 32
11 4393 10
11 4394 30
11 4395 9
11 4396 12
11 4397 8
11 4398 21
11 4399 19
11 4400 28
11 4401 22
11 4402 17
11 4403 34
11 4404 17
11 4405 27
11 4406 23
11 4407 12
11 4408 20
11 4409 26
11 4410 13
11 4411 38
11 4412 19
11 4413 11
11 4414 20
11 4415 11
11 4416 19
11 4417 20
11 4418 12
11 4419 37
11 4420 35
11 4421 22
11 4422 9
11 4423 18
11 4424 14
11 4425 19
11 4426 20
11 4427 29
11 4428 456
11 4429 8
11 4430 19
11 4431 20
11 4432 12
11 4433 22
11 4434 24
11 4435 11
11 4436 31
11 4437 13
11 4438 11
11 4439 18
11 4440 15
11 4441 13
11 4442 10
11 4443 16
11 4444 3
11 4445 13
11 4446 21
11 4447 19
11 4448 14
11 4449 24
11 4450 17
11 4451 14
11 4452 20
11 4453 7
11 4454 6
11 4455 23
11 4456 38
11 4457 7
11 4458 10
11 4459 598
11 4460 13
11 4461 150
11 4462 17
11 4463 25
11 4464 17
11 4465 13
11 4466 14
11 4467 39
11 4468 19
11 4469 12
11 4470 22
11 4471 31
11 4472 14
11 4473 22
11 4474 4
11 4475 8
11 4476 19
11 4477 13
11 4478 9
11 4479 11
11 4480 10
11 4481 29
11 4482 9
11 4483 24
11 4484 10
11 4485 37
11 4486 17
11 4487 20
11 4488 9
11 4489 15
11 4490 17
11 4491 11
11 4492 37
11 4493 17
11 4494 18
11 4495 30
11 4496 12
11 4497 24
11 4498 48
11 4499 29
11 4500 17
11 4501 11
11 4502 29
11 4503 17
11 4504 20
11 4505 86
11 4506 22
11 4507 28
11 4508 13
11 4509 11
11 4510 13
11 4511 21
11 4512 1016
11 4513 33
11 4514 19
11 4515 70
11 4516 29
11 4517 22
11 4518 20
11 4519 47
11 4520 31
11 4521 26
11 4522 26
11 4523 31
11 4524 26
11 4525 15
11 4526 26
11 4527 15
11 4528 30
11 4529 8
11 4530 16
11 4531 19
11 4532 16
11 4533 735
11 4534 19
11 4535 16
11 4536 7
11 4537 9
11 4538 25
11 4539 23
11 4540 19
11 4541 24
11 4542 14
11 4543 18
11 4544 9
11 4545 14
11 4546 18
11 4547 23
11 4548 22
11 4549 23
11 4550 13
11 4551 10
11 4552 9
11 4553 31
11 4554 22
11 4555 43
11 4556 24
11 4557 15
11 4558 12
11 4559 18
11 4560 27
11 4561 17
11 4562 11
11 4563 13
11 4564 29
11 4565 12
11 4566 15
11 4567 5
11 4568 1010
11 4569 18
11 4570 24
11 4571 41
11 4572 30
11 4573 29
11 4574 26
11 4575 24
11 4576 4
11 4577 19
11 4578 19
11 4579 39
11 4580 12
11 4581 3
11 4582 9
11 4583 21
11 4584 22
11 4585 9
11 4586 27
11 4587 26
11 4588 26
11 4589 26
11 4590 10
11 4591 12
11 4592 24
11 4593 23
11 4594 7
11 4595 30
11 4596 17
11 4597 18
11 4598 23
11 4599 21
11 4600 4
11 4601 3
11 4602 22
11 4603 25
11 4604 25
11 4605 10
11 4606 25
11 4607 5
11 4608 1083
11 4609 22
11 4610 46
11 4611 31
11 4612 8
11 4613 32
11 4614 19
11 4615 15
11 4616 8
11 4617 29
11 4618 26
11 4619 20
11 4620 25
11 4621 16
11 4622 24
11 4623 20
11 4624 12
11 4625 16
11 4626 21
11 4627 17
11 4628 20
11 4629 10
11 4630 266
11 4631 16
11 4632 18
11 4633 26
11 4634 22
11 4635 31
11 4636 13
11 4637 37
11 4638 47
11 4639 11
11 4640 15
11 4641 24
11 4642 20
11 4643 29
11 4644 14
11 4645 27
11 4646 7
11 4647 30
11 4648 21
11 4649 21
11 4650 11
11 4651 16
11 4652 58
11 4653 11
11 4654 12
11 4655 16
11 4656 11
11 4657 24
11 4658 28
11 4659 9
11 4660 11
11 4661 16
11 4662 16
11 4663 28
11 4664 29
11 4665 24
11 4666 2
11 4667 32
11 4668 24
11 4669 15
11 4670 42
11 4671 20
11 4672 21
11 4673 26
11 4674 24
11 4675 16
11 4676 8
11 4677 18
11 4678 27
11 4679 24
11 4680 18
11 4681 26
11 4682 13
11 4683 14
11 4684 50
11 4685 22
11 4686 12
11 4687 32
11 4688 14
11 4689 29
11 4690 21
11 4692 31
11 4693 11
11 4694 11
11 4695 4
11 4696 23
11 4697 16
11 4698 9
11 4699 13
11 4700 16
11 4701 8
11 4702 22
11 4703 9
11 4704 11
11 4705 13
11 4706 24
11 4707 14
11 4708 11
11 4709 17
11 4710 23
11 4711 27
11 4712 31
11 4713 14
11 4714 22
11 4715 18
11 4716 30
11 4717 27
11 4718 7
11 4719 14
11 4720 24
11 4721 19
11 4722 16
11 4723 7
11 4724 18
11 4725 21
11 4726 33
11 4727 30
11 4728 37
11 4729 30
11 4730 23
11 4731 28
11 4732 9
11 4733 32
11 4734 9
11 4735 10
11 4736 15
11 4737 28
11 4738 16
11 4739 22
11 4740 25
11 4741 14
11 4742 28
11 4743 15
11 4744 16
11 4745 17
11 4746 744
11 4747 17
11 4748 11
11 4749 19
11 4750 14
11 4751 11
11 4752 14
11 4753 341
11 4754 16
11 4755 16
11 4756 19
11 4757 20
11 4758 24
11 4759 33
11 4760 11
11 4761 26
11 4762 34
11 4763 30
11 4764 15
11 4765 26
11 4766 14
11 4767 15
11 4768 16
11 4769 11
11 4770 18
11 4771 27
11 4772 15
11 4773 7
11 4774 7
11 4775 10
11 4776 17
11 4777 20
11 4778 33
11 4779 13
11 4780 24
11 4781 26
11 4782 37
11 4783 13
11 4784 11
11 4785 19
11 4786 38
11 4787 7
11 4788 15
11 4789 20
11 4790 20
11 4791 8
11 4792 16
11 4793 17
11 4794 15
11 4795 26
11 4796 439
11 4797 14
11 4798 18
11 4799 24
11 4800 20
11 4801 15
11 4802 20
11 4803 3
11 4804 9
11 4805 31
11 4806 19
11 4807 21
11 4808 9
11 4809 11
11 4810 25
11 4811 18
11 4812 34
11 4813 323
11 4814 3
11 4815 12
11 4816 8
11 4817 13
11 4818 23
11 4819 17
11 4820 24
11 4821 28
11 4822 6
11 4823 16
11 4824 15
11 4825 20
11 4826 13
11 4827 20
11 4828 12
11 4829 17
11 4830 19
11 4831 21
11 4832 14
11 4833 11
11 4834 16
11 4835 4
11 4836 30
11 4837 17
11 4838 34
11 4839 12
11 4840 9
11 4841 18
11 4842 3
11 4843 24
11 4844 34
11 4845 17
11 4846 15
11 4847 34
11 4848 17
11 4849 7
11 4850 10
11 4851 17
11 4852 22
11 4853 25
11 4854 11
11 4855 5
11 4856 92
11 4857 19
11 4858 37
11 4859 27
11 4860 28
11 4861 498
11 4862 9
11 4863 17
11 4864 30
11 4865 23
11 4866 27
11 4867 18
11 4868 20
11 4869 43
11 4870 32
11 4871 30
11 4872 10
11 4873 27
11 4874 18
11 4875 19
11 4876 44
11 4877 22
11 4878 16
11 4879 9
11 4880 29
11 4881 17
11 4882 28
11 4883 5
11 4884 522
11 4885 30
11 4886 72
11 4887 32
11 4888 609
11 4889 266
11 4890 32
11 4891 24
11 4892 27
11 4893 15
11 4894 12
11 4895 11
11 4896 14
11 4897 24
11 4898 11
11 4899 33
11 4900 35
11 4901 20
11 4902 16
11 4903 26
11 4904 15
11 4905 17
11 4906 40
11 4907 139
11 4908 5
11 4909 30
11 4910 9
11 4911 14
11 4912 11
11 4913 20
11 4914 22
11 4915 9
11 4916 10
11 4917 23
11 4918 14
11 4919 39
11 4920 29
11 4921 14
11 4922 22
11 4923 14
11 4924 29
11 4925 24
11 4926 83
11 4927 4
11 4928 52
11 4929 18
11 4930 8
11 4931 20
11 4932 15
11 4933 35
11 4935 11
11 4936 19
11 4937 14
11 4938 10
11 4939 13
11 4940 16
11 4941 7
11 4942 15
11 4943 33
11 4944 26
11 4945 14
11 4946 13
11 4947 34
11 4948 16
11 4949 5
11 4950 14
11 4951 17
11 4952 37
11 4953 25
11 4954 20
11 4955 16
11 4956 26
11 4957 11
11 4958 15
11 4959 15
11 4960 15
11 4961 22
11 4962 38
11 4963 20
11 4964 15
11 4965 31
11 4966 22
11 4967 12
11 4968 16
11 4969 13
11 4970 20
11 4971 9
11 4972 13
11 4973 101
11 4974 9
11 4975 14
11 4976 12
11 4977 14
11 4978 9
11 4979 27
11 4980 46
11 4981 43
11 4982 7
11 4983 17
11 4984 29
11 4985 12
11 4986 5
11 4987 15
11 4988 38
11 4989 16
11 4990 13
11 4991 13
11 4992 24
11 4993 24
11 4994 11
11 4995 24
11 4996 914
11 4997 13
11 4998 19
11 4999 13
11 5000 45
11 5001 44
11 5002 6
11 5003 19
11 5004 11
11 5005 1
11 5006 13
11 5007 19
11 5008 5
11 5009 8
11 5010 15
11 5011 16
11 5012 16
11 5013 13
11 5014 18
11 5015 14
11 5016 16
11 5017 13
11 5018 30
11 5019 19
11 5020 19
11 5021 23
11 5022 15
11 5023 10
11 5024 14
11 5025 12
11 5026 18
11 5028 21
11 5029 20
11 5030 5
11 5031 23
11 5032 12
11 5033 16
11 5034 15
11 5035 15
11 5036 10
11 5037 18
11 5038 11
11 5039 11
11 5040 26
11 5041 22
11 5042 84
11 5043 14
11 5044 14
11 5045 24
11 5046 31
11 5047 15
11 5048 15
11 5049 16
11 5050 11
11 5051 17
11 5052 10
11 5053 234
11 5054 12
11 5055 9
11 5056 9
11 5057 17
11 5058 10
11 5059 10
11 5060 6
11 5061 3
11 5062 19
11 5063 11
11 5064 18
11 5065 26
11 5066 17
11 5067 35
11 5068 413
11 5069 17
11 5070 1
11 5071 16
11 5072 359
11 5073 34
11 5074 15
11 5075 10
11 5076 15
11 5077 10
11 5078 13
11 5079 16
11 5080 35
11 5081 35
11 5082 1
11 5083 10
11 5084 30
11 5085 26
11 5086 27
11 5087 17
11 5088 3
11 5089 33
11 5090 25
11 5091 27
11 5092 26
11 5093 14
11 5094 5
11 5095 36
11 5096 5
11 5097 16
11 5098 13
11 5099 14
11 5100 19
11 5101 16
11 5102 18
11 5103 18
11 5104 14
11 5105 29
11 5106 12
11 5107 34
11 5108 15
11 5109 24
11 5110 18
11 5111 28
11 5112 34
11 5113 19
11 5114 9
11 5115 16
11 5116 25
11 5117 31
11 5118 176
11 5119 20
11 5120 4
11 5121 21
11 5122 29
11 5123 18
11 5124 14
11 5125 24
11 5126 12
11 5127 20
11 5128 12
11 5129 9
11 5130 13
11 5131 12
11 5132 16
11 5133 11
11 5134 14
11 5135 17
11 5136 21
11 5137 9
11 5138 5
11 5139 21
11 5140 22
11 5141 11
11 5142 9
11 5143 22
11 5144 23
11 5145 1514
11 5146 16
11 5147 25
11 5148 12
11 5149 38
11 5150 17
11 5151 14
11 5152 370
11 5153 480
11 5154 28
11 5155 18
11 5156 23
11 5157 25
11 5158 23
11 5159 22
11 5160 9
11 5161 9
11 5162 18
11 5163 33
11 5164 10
11 5165 21
11 5166 16
11 5167 8
11 5168 11
11 5169 6
11 5170 18
11 5171 37
11 5172 17
11 5173 3
11 5174 20
11 5175 22
11 5176 5
11 5177 12
11 5178 21
11 5179 1
11 5180 10
11 5181 27
11 5182 21
11 5183 12
11 5184 48
11 5185 10
11 5186 12
11 5187 17
11 5188 10
11 5189 1
11 5190 29
11 5191 5
11 5192 15
11 5193 22
11 5194 13
11 5195 14
11 5196 10
11 5197 14
11 5198 39
11 5199 14
11 5200 4
11 5201 25
11 5202 16
11 5203 33
11 5204 21
11 5205 5
11 5206 24
11 5207 10
11 5208 10
11 5209 1
11 5210 18
11 5211 12
11 5212 22
11 5213 12
11 5214 37
11 5215 15
11 5216 38
11 5217 4
11 5218 23
11 5219 7
11 5220 19
11 5221 33
11 5222 1
11 5224 17
11 5225 25
11 5226 23
11 5227 9
11 5228 27
11 5229 25
11 5230 16
11 5231 16
11 5232 15
11 5233 6
11 5234 22
11 5235 17
11 5236 7
11 5237 15
11 5238 19
11 5239 431
11 5240 7
11 5241 1920
11 5242 9
11 5243 19
11 5244 23
11 5245 20
11 5246 99
11 5247 13
11 5248 8
11 5249 12
11 5250 22
11 5251 2
11 5252 11
11 5253 27
11 5254 11
11 5255 685
11 5256 30
11 5257 17
11 5258 13
11 5259 13
11 5260 17
11 5261 1
11 5262 16
11 5263 10
11 5264 9
11 5265 45
11 5266 27
11 5267 5
11 5268 12
11 5269 17
11 5270 25
11 5271 21
11 5272 24
11 5273 1077
11 5274 13
11 5275 27
11 5276 10
11 5277 24
11 5278 22
11 5279 15
11 5280 18
11 5281 16
11 5282 36
11 5283 38
11 5284 12
11 5285 51
11 5286 20
11 5287 19
11 5288 21
11 5289 13
11 5290 16
11 5291 22
11 5292 23
11 5293 25
11 5294 13
11 5295 15
11 5296 30
11 5297 22
11 5298 21
11 5299 23
11 5300 28
11 5301 3
11 5302 271
11 5303 17
11 5304 14
11 5305 10
11 5306 57
11 5307 36
11 5308 35
11 5309 22
11 5310 16
11 5311 8
11 5312 13
11 5313 17
11 5314 24
11 5315 9
11 5316 45
11 5317 9
11 5318 21
11 5319 18
11 5320 643
11 5321 17
11 5322 18
11 5323 25
11 5324 4
11 5325 7
11 5326 23
11 5327 45
11 5328 24
11 5329 20
11 5330 7
11 5331 14
11 5332 14
11 5333 22
11 5334 15
11 5335 11
11 5336 15
11 5337 22
11 5338 18
11 5339 19
11 5340 8
11 5341 36
11 5342 16
11 5343 33
11 5344 11
11 5345 12
11 5346 22
11 5347 13
11 5348 57
11 5349 22
11 5350 17
11 5351 13
11 5352 11
11 5353 28
11 5354 21
11 5355 12
11 5356 11
11 5357 22
11 5358 25
11 5359 15
11 5360 8
11 5361 19
11 5362 11
11 5363 15
11 5364 16
11 5365 647
11 5366 13
11 5367 17
11 5368 30
11 5369 11
11 5370 7
11 5371 27
11 5372 9
11 5373 9
11 5374 23
11 5375 17
11 5376 20
11 5377 8
11 5378 24
11 5379 45
11 5380 21
11 5381 31
11 5382 3
11 5383 25
11 5384 12
11 5385 15
11 5386 14
11 5387 4
11 5388 9
11 5389 22
11 5390 26
11 5391 21
11 5392 9
11 5393 7
11 5394 27
11 5395 15
11 5396 24
11 5397 9
11 5398 16
11 5399 20
11 5400 21
11 5401 35
11 5402 20
11 5403 20
11 5404 19
11 5405 17
11 5406 10
11 5407 22
11 5408 25
11 5409 8
11 5410 11
11 5411 7
11 5412 48
11 5413 12
11 5414 16
11 5415 1
11 5416 9
11 5417 22
11 5418 7
11 5419 2
11 5420 25
11 5421 36
11 5422 10
11 5423 19
11 5424 5
11 5425 24
11 5426 13
11 5427 34
11 5428 15
11 5429 6
11 5430 26
11 5431 12
11 5432 28
11 5433 29
11 5434 16
11 5435 10
11 5436 14
11 5437 21
11 5438 12
11 5439 4
11 5440 14
11 5441 15
11 5442 15
11 5443 28
11 5444 12
11 5445 14
11 5446 9
11 5447 21
11 5448 30
11 5449 23
11 5450 103
11 5451 31
11 5452 27
11 5453 12
11 5454 4
11 5455 33
11 5456 13
11 5457 19
11 5458 18
11 5459 16
11 5460 10
11 5461 8
11 5462 28
11 5463 10
11 5464 15
11 5465 33
11 5466 15
11 5467 7
11 5468 8
11 5469 14
11 5470 24
11 5471 23
11 5472 22
11 5473 10
11 5474 13
11 5475 25
11 5476 27
11 5477 13
11 5478 25
11 5479 27
11 5480 14
11 5481 20
11 5482 23
11 5483 24
11 5484 12
11 5485 19
11 5486 25
11 5487 13
11 5488 22
11 5489 10
11 5490 14
11 5491 20
11 5492 13
11 5493 19
11 5494 12
11 5495 21
11 5496 30
11 5497 29
11 5498 13
11 5499 15
11 5500 12
11 5501 5
11 5502 16
11 5503 7
11 5504 16
11 5505 9
11 5506 6
11 5507 10
11 5508 14
11 5509 46
11 5510 11
11 5511 5
11 5512 21
11 5513 12
11 5514 756
11 5515 13
11 5516 7
11 5517 15
11 5518 5
11 5519 18
11 5520 43
11 5521 1
11 5522 20
11 5523 19
11 5524 11
11 5525 17
11 5526 15
11 5527 11
11 5528 15
11 5529 159
11 5530 52
11 5531 13
11 5532 11
11 5533 19
11 5534 14
11 5535 18
11 5536 20
11 5537 11
11 5538 15
11 5539 11
11 5540 36
11 5541 13
11 5542 23
11 5543 163
11 5544 30
11 5545 9
11 5546 17
11 5547 15
11 5548 5
11 5549 10
11 5550 22
11 5551 2
11 5552 27
11 5553 11
11 5554 29
11 5555 16
11 5556 1
11 5557 24
11 5558 12
11 5559 10
11 5560 22
11 5561 27
11 5562 23
11 5563 15
11 5564 16
11 5565 24
11 5567 8
11 5568 15
11 5569 13
11 5570 18
11 5571 11
11 5572 21
11 5573 6
11 5574 20
11 5575 15
11 5576 13
11 5577 11
11 5578 20
11 5579 18
11 5580 22
11 5581 18
11 5582 15
11 5583 25
11 5584 21
11 5585 15
11 5586 16
11 5587 15
11 5588 13
11 5589 26
11 5590 11
11 5591 41
11 5592 17
11 5593 21
11 5594 12
11 5595 20
11 5596 11
11 5597 9
11 5598 11
11 5599 7
11 5600 33
11 5601 29
11 5602 9
11 5603 15
11 5604 16
11 5605 153
11 5606 16
11 5607 6
11 5608 5
11 5609 16
11 5610 4
11 5611 9
11 5612 12
11 5613 13
11 5614 15
11 5615 30
11 5616 4
11 5617 29
11 5618 5
11 5619 18
11 5620 6
11 5621 26
11 5622 9
11 5623 15
11 5624 14
11 5625 15
11 5626 7
11 5627 18
11 5628 10
11 5629 12
11 5630 34
11 5631 20
11 5632 22
11 5633 13
11 5634 24
11 5635 14
11 5636 22
11 5637 10
11 5638 100
11 5639 30
11 5640 5
11 5641 9
11 5642 18
11 5643 25
11 5644 10
11 5645 21
11 5646 14
11 5647 23
11 5648 9
11 5649 15
11 5650 9
11 5651 22
11 5652 19
11 5653 12
11 5654 1
11 5655 6
11 5656 21
11 5657 9
11 5658 7
11 5659 11
11 5660 7
11 5661 10
11 5662 14
11 5663 12
11 5664 12
11 5665 21
11 5666 7
11 5667 3
11 5668 9
11 5669 3
11 5670 416
11 5671 8
11 5672 5
11 5673 19
11 5674 15
11 5675 9
11 5676 20
11 5677 14
11 5678 2
11 5679 6
11 5680 11
11 5681 6
11 5682 8
11 5683 11
11 5684 10
11 5685 1
11 5686 5
11 5687 21
11 5688 17
11 5689 23
11 5690 10
11 5691 7
11 5692 1
11 5693 2
11 5694 1
11 5695 1
11 5696 300
11 5697 15
11 5698 9
11 5699 8
11 5701 24
11 5702 5
11 5704 6
11 5705 4
11 5706 3
11 5707 2
11 5708 3
11 5709 2
11 5710 4
11 5712 35
11 5715 3
11 5716 1
