%%MatrixMarket matrix coordinate integer general
%
3 14772 42880
1 1 13
1 2 5
1 3 17
1 4 3
1 5 1
1 6 2
1 7 28
1 8 3
1 9 1183
1 10 1257
1 12 3
1 13 6
1 14 6
1 15 3
1 16 8
1 18 30
1 19 36
1 20 1
1 21 3
1 22 26
1 23 5
1 24 22
1 25 4
1 26 18
1 27 32
1 28 40
1 29 45
1 30 1
1 31 33
1 32 7
1 33 1
1 34 7
1 35 301
1 36 30
1 37 1
1 38 30
1 39 4
1 40 4
1 41 1
1 42 54
1 43 9
1 44 2
1 45 6
1 46 2
1 47 2
1 48 4
1 49 5
1 50 1227
1 51 1
1 52 3
1 54 3
1 55 18
1 56 2
1 57 3
1 58 2
1 59 10
1 60 37
1 61 11
1 62 6
1 63 1
1 65 13
1 66 24
1 67 3
1 68 18
1 69 2
1 70 2
1 71 19
1 72 8
1 73 20
1 74 4
1 75 1
1 77 7
1 78 1
1 79 5
1 80 17
1 81 14
1 82 4
1 83 11
1 84 1
1 85 10
1 86 3
1 88 3
1 89 3
1 90 23
1 91 20
1 92 9
1 93 3
1 94 7
1 96 2
1 97 3
1 98 32
1 99 16
1 100 4
1 101 16
1 102 27
1 104 3
1 105 7
1 106 12
1 107 17
1 108 2
1 109 6
1 110 1
1 111 4
1 112 31
1 113 35
1 114 21
1 115 1
1 116 7
1 117 4
1 118 51
1 119 12
1 120 6
1 121 2
1 122 1
1 123 1
1 124 21
1 125 1
1 126 4
1 127 1
1 129 6
1 130 1
1 132 1
1 133 2
1 134 2
1 135 2
1 137 3
1 138 2
1 139 18
1 140 6
1 141 15
1 142 25
1 143 1
1 144 1
1 146 2
1 147 191
1 148 43
1 149 9
1 150 1
1 151 13
1 152 21
1 153 3
1 154 25
1 156 2
1 159 3
1 160 21
1 161 952
1 162 3
1 163 2
1 164 1
1 165 2
1 166 13
1 167 12
1 168 43
1 169 1
1 170 3
1 171 3
1 172 3
1 173 4
1 174 2
1 175 2
1 176 13
1 177 3
1 178 41
1 179 25
1 180 4
1 181 12
1 182 2
1 183 2
1 184 3
1 185 10
1 186 52
1 188 26
1 189 5
1 190 18
1 191 8
1 192 13
1 193 1
1 194 3
1 195 6
1 197 2
1 198 1
1 199 3
1 200 3
1 201 6
1 202 9
1 203 3
1 204 40
1 205 28
1 206 27
1 207 4
1 208 3
1 209 12
1 210 4
1 211 5
1 212 9
1 213 2
1 214 5
1 215 6
1 216 1
1 217 1
1 218 8
1 219 12
1 220 4
1 221 2
1 222 2
1 223 2
1 224 2
1 225 6
1 226 5
1 227 12
1 228 8
1 229 23
1 230 5
1 231 784
1 232 1279
1 233 8
1 234 7
1 235 2
1 236 2
1 238 59
1 239 2
1 240 1
1 241 14
1 242 4
1 243 23
1 244 50
1 245 6
1 246 1
1 247 9
1 248 29
1 249 20
1 250 1
1 251 15
1 252 10
1 254 66
1 255 2
1 256 53
1 257 13
1 258 10
1 259 15
1 260 1
1 261 6
1 262 193
1 263 11
1 264 4
1 265 2
1 267 4
1 268 21
1 269 16
1 270 13
1 271 21
1 272 25
1 273 18
1 274 1
1 275 1
1 276 17
1 277 1
1 278 3
1 279 11
1 280 2
1 281 3
1 282 4
1 283 12
1 284 10
1 285 4
1 287 8
1 288 2
1 289 15
1 290 6
1 291 22
1 292 1
1 293 3
1 294 3
1 295 24
1 296 1254
1 297 8
1 298 2
1 299 4
1 300 8
1 301 17
1 302 12
1 303 18
1 304 11
1 305 14
1 306 3
1 307 3
1 308 12
1 309 1
1 310 1
1 311 1
1 312 6
1 313 4
1 314 16
1 315 6
1 316 15
1 317 15
1 318 3
1 319 6
1 320 22
1 321 4
1 322 2
1 323 6
1 324 5
1 325 34
1 326 24
1 327 10
1 328 1175
1 329 15
1 330 4
1 331 4
1 332 32
1 333 2
1 334 12
1 335 13
1 336 5
1 338 1
1 339 112
1 340 4
1 341 14
1 342 7
1 343 15
1 344 3
1 346 41
1 347 25
1 348 3
1 349 4
1 350 1
1 352 4
1 353 2
1 354 3
1 356 1
1 357 20
1 358 2
1 359 1
1 360 1
1 361 40
1 362 26
1 363 4
1 364 3
1 365 1
1 366 22
1 367 2
1 368 2
1 369 1
1 370 14
1 371 47
1 372 1
1 373 38
1 374 33
1 375 14
1 376 2
1 377 51
1 378 35
1 379 6
1 380 2
1 381 2
1 382 1
1 383 1
1 384 4
1 385 33
1 386 2
1 387 1
1 388 5
1 389 2
1 390 3
1 391 31
1 392 3
1 393 4
1 394 53
1 395 1
1 396 7
1 397 2
1 398 2
1 399 4
1 400 3
1 401 44
1 402 15
1 403 2
1 404 53
1 405 30
1 406 9
1 407 2
1 408 2
1 409 2
1 410 30
1 411 1039
1 412 1
1 413 2
1 414 7
1 415 1
1 416 15
1 417 6
1 418 12
1 419 1
1 420 2
1 421 1
1 422 7
1 423 11
1 424 3
1 425 17
1 426 13
1 427 10
1 428 5
1 429 1
1 431 10
1 432 9
1 433 6
1 434 6
1 435 6
1 437 2
1 438 2
1 439 4
1 440 1
1 441 26
1 442 1
1 443 6
1 444 5
1 445 2
1 446 2
1 447 1
1 448 9
1 449 20
1 450 3
1 451 3
1 452 3
1 453 14
1 454 3
1 455 28
1 456 5
1 457 12
1 458 2
1 459 2
1 460 411
1 461 1
1 462 2
1 463 2
1 464 1
1 465 44
1 466 2
1 467 18
1 468 3
1 469 2
1 470 4
1 471 7
1 472 6
1 473 44
1 474 13
1 475 1
1 476 4
1 477 11
1 478 3
1 479 1
1 480 29
1 481 30
1 482 10
1 483 15
1 484 888
1 485 3
1 486 2
1 487 4
1 488 2
1 489 9
1 490 11
1 491 29
1 492 24
1 493 13
1 494 5
1 495 3
1 496 19
1 497 2
1 498 23
1 499 7
1 500 11
1 501 1
1 502 1
1 503 1
1 504 2
1 505 3
1 506 1
1 507 12
1 508 13
1 509 4
1 510 6
1 511 32
1 512 33
1 513 1
1 514 14
1 515 15
1 516 8
1 517 5
1 518 1
1 519 3
1 520 101
1 521 4
1 522 40
1 523 16
1 524 11
1 525 16
1 526 2
1 527 6
1 528 232
1 529 17
1 530 562
1 531 4
1 532 2
1 533 2
1 534 1
1 535 1
1 536 6
1 537 20
1 538 45
1 539 2
1 541 4
1 542 35
1 543 4
1 544 2
1 545 2
1 546 895
1 547 3
1 548 3
1 549 3
1 550 33
1 551 33
1 552 4
1 553 4
1 554 10
1 555 4
1 556 1
1 557 253
1 558 2
1 559 46
1 562 6
1 563 4
1 564 4
1 565 55
1 566 50
1 567 13
1 568 2
1 569 5
1 570 17
1 572 17
1 573 3
1 574 2
1 575 8
1 576 260
1 577 4
1 578 3
1 579 1
1 580 1
1 581 8
1 582 33
1 583 9
1 584 1
1 585 2
1 587 35
1 588 3
1 589 18
1 590 2
1 591 23
1 592 45
1 593 19
1 594 16
1 595 1
1 597 3
1 598 4
1 599 22
1 600 3
1 601 2
1 602 14
1 603 47
1 604 1
1 605 2
1 606 1
1 607 2
1 608 36
1 609 27
1 610 9
1 611 12
1 612 20
1 613 4
1 614 954
1 615 3
1 616 1
1 617 2
1 618 1
1 619 9
1 620 95
1 621 2
1 622 1
1 623 2
1 624 18
1 625 18
1 626 12
1 627 3
1 628 8
1 629 4
1 630 3
1 631 2
1 633 12
1 634 1
1 635 2
1 637 4
1 638 8
1 639 3
1 640 1
1 643 10
1 644 20
1 645 1
1 646 14
1 647 1
1 648 18
1 649 7
1 650 5
1 651 42
1 652 4
1 654 4
1 655 3
1 656 3
1 657 3
1 658 5
1 659 28
1 660 3
1 661 7
1 662 14
1 663 26
1 664 57
1 665 1
1 666 34
1 667 41
1 668 10
1 669 1
1 670 1
1 671 6
1 672 1
1 674 1051
1 675 4
1 676 24
1 677 4
1 678 32
1 679 22
1 680 6
1 681 24
1 683 44
1 684 2
1 685 7
1 686 70
1 687 3
1 688 4
1 689 1
1 690 4
1 691 2
1 692 16
1 693 32
1 694 1
1 695 1
1 696 20
1 697 10
1 698 1
1 699 1
1 700 1
1 701 3
1 702 2
1 703 1
1 704 8
1 705 2
1 707 26
1 709 3
1 710 5
1 712 1
1 713 5
1 714 42
1 715 12
1 716 10
1 718 1
1 719 4
1 720 1
1 721 4
1 722 1
1 723 1
1 724 1
1 726 3
1 727 4
1 728 1
1 729 39
1 730 11
1 733 25
1 734 1
1 735 9
1 736 1
1 737 23
1 738 14
1 739 17
1 740 2
1 741 2
1 742 12
1 743 2
1 744 14
1 745 27
1 746 3
1 747 1
1 748 3
1 749 14
1 750 15
1 751 2
1 752 5
1 754 3
1 755 13
1 756 5
1 757 1
1 758 4
1 759 4
1 760 12
1 761 1
1 762 5
1 763 1
1 765 8
1 766 6
1 769 1
1 770 2
1 771 7
1 772 2
1 773 4
1 775 1
1 777 1
1 778 7
1 779 36
1 780 8
1 781 5
1 782 8
1 783 498
1 784 50
1 786 7
1 787 22
1 788 1
1 789 9
1 790 4
1 791 3
1 792 8
1 793 6
1 794 17
1 795 2
1 796 13
1 797 4
1 798 20
1 799 5
1 800 5
1 801 1
1 802 32
1 803 5
1 804 12
1 805 5
1 806 7
1 807 45
1 808 21
1 809 5
1 810 32
1 811 2
1 812 22
1 813 38
1 814 2
1 815 63
1 816 1
1 817 49
1 818 17
1 819 4
1 820 35
1 821 13
1 822 31
1 823 3
1 824 2
1 825 4
1 826 7
1 827 41
1 828 48
1 829 6
1 830 4
1 831 3
1 832 13
1 833 1
1 834 34
1 835 16
1 836 14
1 837 20
1 838 7
1 839 4
1 841 2
1 842 1
1 843 8
1 844 16
1 845 24
1 846 15
1 847 6
1 849 2
1 850 2
1 851 1
1 852 2
1 854 2
1 855 1
1 856 3
1 857 4
1 858 5
1 859 3
1 860 34
1 861 28
1 862 3
1 863 2
1 864 6
1 865 26
1 866 13
1 867 21
1 868 10
1 869 7
1 870 2
1 871 13
1 872 113
1 873 18
1 874 8
1 875 16
1 877 1
1 878 5
1 879 20
1 880 1
1 881 2
1 882 4
1 883 2
1 884 1
1 885 8
1 886 4
1 887 2
1 888 8
1 890 3
1 891 497
1 892 5
1 894 18
1 895 46
1 897 7
1 898 16
1 899 467
1 900 49
1 901 4
1 902 2
1 903 14
1 904 11
1 905 2
1 906 1
1 907 3
1 908 2
1 911 6
1 912 3
1 913 4
1 914 4
1 915 12
1 916 3
1 917 19
1 918 20
1 919 4
1 920 22
1 921 2
1 922 55
1 923 14
1 925 152
1 926 5
1 927 4
1 928 6
1 929 1
1 930 12
1 931 1
1 932 34
1 933 2
1 934 13
1 935 1
1 936 3
1 938 13
1 939 4
1 940 37
1 941 2
1 942 1
1 943 14
1 944 1
1 945 1
1 946 1
1 947 25
1 948 3
1 950 20
1 952 1
1 953 12
1 954 4
1 955 2
1 956 6
1 958 6
1 959 2
1 961 2
1 962 2
1 963 2
1 964 40
1 965 1
1 966 12
1 967 1
1 968 9
1 969 24
1 970 10
1 971 12
1 972 21
1 973 2
1 974 11
1 975 23
1 976 2
1 977 2
1 978 2
1 979 21
1 980 3
1 981 11
1 982 1
1 984 5
1 985 12
1 986 4
1 987 332
1 988 2
1 989 2
1 990 12
1 991 2
1 992 20
1 993 2
1 994 2
1 995 1
1 996 51
1 997 12
1 998 24
1 999 8
1 1000 6
1 1001 16
1 1002 13
1 1003 3
1 1004 4
1 1005 2
1 1006 1
1 1007 3
1 1008 2
1 1009 1
1 1010 5
1 1011 46
1 1012 22
1 1013 44
1 1014 1
1 1015 34
1 1016 25
1 1017 14
1 1018 682
1 1019 18
1 1020 5
1 1021 20
1 1022 7
1 1023 7
1 1025 1
1 1026 126
1 1027 27
1 1028 39
1 1029 2
1 1030 1
1 1032 2
1 1033 36
1 1034 3
1 1035 2
1 1036 1
1 1037 2
1 1038 3
1 1039 12
1 1040 12
1 1041 10
1 1042 6
1 1043 1
1 1044 15
1 1045 1
1 1047 1
1 1049 26
1 1050 1
1 1051 9
1 1052 9
1 1053 25
1 1054 27
1 1055 13
1 1056 12
1 1057 10
1 1058 25
1 1059 3
1 1060 18
1 1061 2
1 1062 3
1 1063 1
1 1064 1
1 1065 4
1 1066 16
1 1067 65
1 1068 56
1 1069 3
1 1070 7
1 1071 2
1 1072 3
1 1073 1
1 1074 4
1 1075 2
1 1076 42
1 1077 3
1 1078 274
1 1079 29
1 1080 2
1 1081 30
1 1082 28
1 1083 2
1 1084 9
1 1085 1
1 1086 21
1 1087 24
1 1088 7
1 1089 6
1 1090 2
1 1091 21
1 1092 1
1 1093 12
1 1094 3
1 1096 20
1 1097 10
1 1098 14
1 1099 1
1 1100 1
1 1101 20
1 1102 2
1 1103 10
1 1104 9
1 1105 4
1 1106 11
1 1107 9
1 1108 6
1 1110 7
1 1111 18
1 1112 3
1 1113 4
1 1114 3
1 1116 16
1 1117 2
1 1118 30
1 1119 1
1 1120 6
1 1121 4
1 1123 2
1 1124 9
1 1125 68
1 1126 5
1 1127 46
1 1129 10
1 1130 1
1 1131 1
1 1132 1
1 1133 3
1 1134 16
1 1135 4
1 1136 1
1 1137 19
1 1138 3
1 1139 7
1 1140 2
1 1141 4
1 1142 14
1 1143 3
1 1144 3
1 1145 3
1 1146 2
1 1147 14
1 1148 1
1 1149 31
1 1150 1
1 1152 4
1 1153 32
1 1154 37
1 1155 8
1 1156 2
1 1157 27
1 1158 7
1 1159 3
1 1160 35
1 1161 4
1 1162 1
1 1163 3
1 1164 5
1 1165 1
1 1166 6
1 1167 19
1 1168 2
1 1169 5
1 1170 27
1 1171 3
1 1173 2
1 1174 3
1 1175 9
1 1176 2
1 1177 1
1 1178 1
1 1179 11
1 1180 3
1 1182 6
1 1183 2
1 1184 19
1 1185 1
1 1187 4
1 1188 24
1 1189 2
1 1190 22
1 1191 19
1 1192 14
1 1193 5
1 1194 14
1 1195 1
1 1196 3
1 1197 6
1 1198 13
1 1199 1
1 1200 4
1 1201 18
1 1202 3
1 1203 71
1 1204 6
1 1205 33
1 1207 1
1 1208 3
1 1209 1
1 1210 73
1 1211 1138
1 1212 15
1 1213 3
1 1214 2
1 1215 23
1 1216 6
1 1217 1
1 1218 6
1 1219 1
1 1220 1
1 1221 2
1 1223 37
1 1224 4
1 1225 8
1 1227 1
1 1228 35
1 1231 2
1 1232 1
1 1233 2
1 1234 352
1 1235 2
1 1236 1
1 1237 1
1 1238 14
1 1239 2
1 1240 1
1 1241 3
1 1242 2
1 1243 5
1 1244 1
1 1245 4
1 1246 6
1 1247 1
1 1248 16
1 1250 3
1 1251 13
1 1252 5
1 1253 2
1 1254 12
1 1256 5
1 1257 21
1 1258 42
1 1259 11
1 1260 16
1 1261 4
1 1262 4
1 1263 5
1 1264 2
1 1265 28
1 1266 21
1 1267 3
1 1269 7
1 1270 13
1 1271 730
1 1272 1
1 1273 3
1 1274 5
1 1275 4
1 1277 18
1 1278 13
1 1279 2
1 1280 4
1 1281 2
1 1282 1
1 1283 37
1 1284 2
1 1286 1
1 1287 4
1 1288 8
1 1289 28
1 1290 7
1 1291 1
1 1292 14
1 1293 9
1 1294 1
1 1295 1
1 1296 35
1 1297 15
1 1298 52
1 1299 1
1 1300 36
1 1301 3
1 1302 41
1 1303 1
1 1304 1
1 1305 30
1 1306 1
1 1307 2
1 1309 23
1 1310 13
1 1311 21
1 1312 34
1 1313 9
1 1314 7
1 1315 2
1 1316 12
1 1317 2
1 1318 18
1 1319 13
1 1320 2
1 1321 1
1 1322 46
1 1324 5
1 1325 17
1 1326 1
1 1327 8
1 1329 5
1 1330 712
1 1331 5
1 1332 22
1 1333 5
1 1334 8
1 1335 2
1 1336 1
1 1337 2
1 1338 19
1 1339 3
1 1340 26
1 1341 4
1 1342 3
1 1343 1
1 1344 16
1 1345 2
1 1346 2
1 1348 44
1 1349 3
1 1350 2
1 1351 1
1 1352 2
1 1353 1
1 1354 1
1 1355 10
1 1356 7
1 1357 39
1 1358 5
1 1359 27
1 1360 2
1 1362 1
1 1363 13
1 1364 13
1 1365 6
1 1366 33
1 1367 2
1 1368 2
1 1370 1
1 1371 1
1 1372 1
1 1373 3
1 1374 83
1 1375 3
1 1376 1
1 1377 1
1 1378 9
1 1379 16
1 1380 4
1 1381 1
1 1382 20
1 1383 3
1 1384 16
1 1385 48
1 1386 3
1 1387 18
1 1388 24
1 1389 22
1 1390 5
1 1392 2
1 1393 1
1 1394 2
1 1395 5
1 1396 1
1 1397 2
1 1398 9
1 1399 2
1 1400 3
1 1401 4
1 1402 15
1 1404 426
1 1405 12
1 1406 9
1 1408 4
1 1409 3
1 1410 11
1 1411 24
1 1412 1
1 1414 40
1 1415 5
1 1416 14
1 1417 1
1 1418 44
1 1419 3
1 1420 848
1 1421 2
1 1424 4
1 1425 13
1 1426 13
1 1428 4
1 1429 1
1 1430 2
1 1431 4
1 1434 1
1 1435 3
1 1436 4
1 1437 1
1 1438 1
1 1439 636
1 1440 6
1 1441 1
1 1442 4
1 1443 17
1 1444 9
1 1445 1
1 1446 1
1 1447 693
1 1448 1
1 1449 12
1 1450 8
1 1451 16
1 1452 1235
1 1453 4
1 1454 1
1 1455 552
1 1456 8
1 1457 2
1 1458 13
1 1459 13
1 1460 2
1 1461 6
1 1462 3
1 1463 5
1 1465 21
1 1466 1
1 1467 2
1 1468 1
1 1470 2
1 1472 37
1 1473 63
1 1474 4
1 1475 4
1 1476 5
1 1477 2
1 1478 20
1 1479 18
1 1480 1
1 1481 15
1 1482 1
1 1483 2
1 1484 1
1 1486 34
1 1487 20
1 1488 39
1 1489 2
1 1490 25
1 1491 2
1 1492 2
1 1493 2
1 1495 17
1 1496 1
1 1497 24
1 1498 3
1 1499 2
1 1500 5
1 1501 3
1 1502 2
1 1504 23
1 1505 2
1 1506 2
1 1507 2
1 1508 8
1 1509 18
1 1510 1
1 1511 10
1 1512 1
1 1513 19
1 1514 3
1 1515 7
1 1516 8
1 1517 33
1 1518 3
1 1519 44
1 1521 37
1 1522 8
1 1523 4
1 1524 1
1 1525 2
1 1526 23
1 1527 1296
1 1529 7
1 1530 14
1 1531 11
1 1532 2
1 1533 2
1 1534 12
1 1536 11
1 1537 3
1 1538 19
1 1539 14
1 1540 1
1 1541 3
1 1542 1
1 1543 5
1 1544 1
1 1545 1
1 1547 20
1 1548 3
1 1549 1
1 1550 11
1 1552 3
1 1553 1
1 1554 39
1 1555 1
1 1556 1
1 1557 10
1 1558 11
1 1559 4
1 1560 5
1 1561 7
1 1562 28
1 1563 31
1 1564 1
1 1565 7
1 1566 4
1 1567 28
1 1568 28
1 1569 1
1 1570 2
1 1571 3
1 1572 8
1 1573 17
1 1574 1
1 1575 495
1 1576 16
1 1577 2
1 1578 13
1 1579 2
1 1580 2
1 1581 12
1 1582 2
1 1583 1
1 1584 1
1 1585 1
1 1586 6
1 1587 26
1 1588 307
1 1589 1
1 1590 7
1 1591 2
1 1592 12
1 1593 1
1 1594 1
1 1595 2
1 1596 23
1 1597 13
1 1598 9
1 1599 22
1 1600 1
1 1601 9
1 1602 29
1 1603 2
1 1604 9
1 1605 1
1 1606 1
1 1607 23
1 1608 16
1 1609 1
1 1610 2
1 1611 5
1 1613 2
1 1614 3
1 1615 4
1 1616 22
1 1618 4
1 1619 70
1 1620 1
1 1621 12
1 1622 231
1 1624 38
1 1625 27
1 1626 1
1 1627 62
1 1628 18
1 1629 6
1 1630 3
1 1631 5
1 1632 9
1 1633 16
1 1634 5
1 1635 3
1 1636 4
1 1637 1196
1 1638 4
1 1639 11
1 1640 3
1 1641 7
1 1642 3
1 1644 1
1 1645 25
1 1646 810
1 1647 12
1 1648 3
1 1649 22
1 1650 9
1 1651 18
1 1652 13
1 1653 4
1 1655 3
1 1656 4
1 1657 15
1 1658 18
1 1659 38
1 1660 4
1 1661 3
1 1662 1
1 1663 29
1 1664 13
1 1665 8
1 1666 6
1 1667 1
1 1668 6
1 1669 21
1 1670 2
1 1671 35
1 1672 12
1 1673 13
1 1674 4
1 1675 4
1 1676 2
1 1677 12
1 1678 3
1 1679 71
1 1680 7
1 1682 35
1 1683 35
1 1684 15
1 1685 5
1 1686 42
1 1687 2
1 1688 26
1 1689 21
1 1690 46
1 1691 1
1 1692 13
1 1693 1
1 1694 7
1 1695 5
1 1696 22
1 1697 3
1 1698 938
1 1699 1
1 1700 31
1 1702 26
1 1703 1
1 1704 1
1 1705 5
1 1706 2
1 1707 1
1 1708 1
1 1709 47
1 1710 3
1 1711 279
1 1713 7
1 1716 6
1 1717 1
1 1718 3
1 1719 5
1 1720 2
1 1721 3
1 1722 6
1 1723 46
1 1724 1
1 1725 3
1 1726 3
1 1727 1
1 1728 2
1 1729 2
1 1730 2
1 1731 5
1 1733 5
1 1734 1
1 1735 3
1 1736 3
1 1737 1
1 1739 4
1 1740 4
1 1741 5
1 1742 12
1 1743 1
1 1744 4
1 1745 34
1 1746 15
1 1747 3
1 1748 5
1 1749 4
1 1750 1
1 1751 3
1 1752 2
1 1753 2
1 1754 1
1 1756 3
1 1757 3
1 1758 19
1 1759 10
1 1760 53
1 1761 1
1 1762 12
1 1764 8
1 1765 36
1 1766 6
1 1767 4
1 1768 2
1 1769 22
1 1770 45
1 1771 1
1 1772 12
1 1773 14
1 1774 22
1 1775 1
1 1776 3
1 1777 16
1 1778 3
1 1779 2
1 1780 2
1 1781 1
1 1782 23
1 1783 21
1 1784 1
1 1785 14
1 1786 38
1 1787 3
1 1788 1
1 1789 39
1 1790 6
1 1791 7
1 1792 24
1 1793 18
1 1794 3
1 1795 2
1 1796 3
1 1797 5
1 1799 3
1 1800 4
1 1801 10
1 1802 2
1 1803 12
1 1804 19
1 1805 1
1 1806 3
1 1808 15
1 1809 57
1 1810 2
1 1811 3
1 1812 2
1 1813 11
1 1814 1
1 1815 2
1 1816 3
1 1817 6
1 1818 6
1 1819 20
1 1820 2
1 1821 11
1 1822 2
1 1823 3
1 1825 2
1 1827 2
1 1828 3
1 1829 8
1 1830 4
1 1831 4
1 1832 3
1 1834 2
1 1835 3
1 1837 14
1 1838 4
1 1839 1
1 1840 15
1 1841 20
1 1842 13
1 1843 12
1 1844 2
1 1845 1
1 1846 22
1 1847 10
1 1848 5
1 1849 8
1 1850 9
1 1851 4
1 1852 12
1 1853 1
1 1854 3
1 1856 1217
1 1857 20
1 1858 4
1 1859 30
1 1861 1
1 1862 40
1 1863 1
1 1864 4
1 1865 2
1 1866 15
1 1867 16
1 1868 1
1 1869 3
1 1870 1
1 1871 55
1 1872 1334
1 1873 9
1 1874 42
1 1875 1
1 1876 17
1 1877 1
1 1878 6
1 1879 116
1 1880 14
1 1881 5
1 1882 12
1 1883 3
1 1884 2
1 1885 4
1 1886 9
1 1887 2
1 1888 5
1 1889 13
1 1891 3
1 1892 3
1 1893 1
1 1894 51
1 1895 2
1 1897 1
1 1898 3
1 1899 16
1 1900 12
1 1901 4
1 1902 1
1 1903 2
1 1904 25
1 1905 8
1 1906 1
1 1907 8
1 1908 11
1 1909 1
1 1910 3
1 1911 4
1 1913 29
1 1914 1
1 1915 23
1 1916 9
1 1917 1
1 1918 1
1 1919 2
1 1920 1
1 1921 30
1 1922 2
1 1923 7
1 1924 10
1 1925 2
1 1926 28
1 1927 2
1 1928 2
1 1929 40
1 1930 3
1 1931 9
1 1932 4
1 1933 3
1 1934 1
1 1935 23
1 1936 27
1 1938 39
1 1939 2
1 1940 2
1 1941 1
1 1942 11
1 1943 9
1 1944 19
1 1945 2
1 1946 5
1 1947 4
1 1948 3
1 1949 21
1 1951 5
1 1953 20
1 1954 1
1 1955 8
1 1956 33
1 1957 4
1 1959 8
1 1960 20
1 1961 4
1 1962 32
1 1964 86
1 1965 7
1 1966 962
1 1967 5
1 1968 2
1 1969 3
1 1970 2
1 1971 53
1 1972 2
1 1973 3
1 1974 13
1 1975 8
1 1976 3
1 1977 3
1 1978 26
1 1979 33
1 1980 9
1 1981 1
1 1982 3
1 1983 49
1 1984 3
1 1987 15
1 1988 28
1 1989 2
1 1990 9
1 1991 22
1 1992 6
1 1993 34
1 1994 3
1 1995 1
1 1996 4
1 1997 4
1 1999 3
1 2000 1
1 2001 1
1 2002 944
1 2003 15
1 2004 1
1 2005 41
1 2006 12
1 2007 25
1 2008 4
1 2009 1
1 2010 1
1 2011 1
1 2012 1
1 2013 1
1 2014 12
1 2015 8
1 2016 13
1 2017 18
1 2018 3
1 2019 1
1 2020 17
1 2021 2
1 2022 19
1 2023 1
1 2024 5
1 2025 32
1 2026 1
1 2027 2
1 2028 11
1 2029 9
1 2030 8
1 2031 1
1 2032 14
1 2033 44
1 2035 1
1 2036 1
1 2037 1
1 2038 1
1 2039 8
1 2040 12
1 2042 2
1 2043 2
1 2045 4
1 2046 17
1 2047 10
1 2048 1
1 2049 87
1 2050 5
1 2051 4
1 2052 14
1 2053 3
1 2054 4
1 2055 3
1 2056 5
1 2057 2
1 2058 2
1 2059 2
1 2060 13
1 2061 28
1 2062 1
1 2063 4
1 2064 29
1 2065 1214
1 2066 12
1 2067 10
1 2068 10
1 2069 443
1 2070 2
1 2071 71
1 2072 2
1 2073 9
1 2074 10
1 2075 2
1 2076 24
1 2077 48
1 2078 1
1 2079 9
1 2080 3
1 2081 3
1 2082 2
1 2083 4
1 2084 2
1 2085 788
1 2086 4
1 2087 1
1 2088 1
1 2089 2
1 2090 16
1 2091 3
1 2092 16
1 2093 1
1 2096 3
1 2097 25
1 2098 18
1 2099 4
1 2100 2
1 2101 7
1 2102 6
1 2103 10
1 2104 15
1 2105 15
1 2106 1
1 2107 10
1 2108 1
1 2110 19
1 2111 3
1 2112 26
1 2113 10
1 2114 2
1 2115 24
1 2116 3
1 2117 10
1 2118 10
1 2119 1
1 2120 3
1 2121 3
1 2122 23
1 2123 4
1 2124 1
1 2125 3
1 2126 1
1 2127 3
1 2128 53
1 2129 3
1 2130 4
1 2131 1
1 2133 8
1 2134 5
1 2135 3
1 2136 27
1 2137 3
1 2139 12
1 2141 32
1 2142 4
1 2143 7
1 2144 1
1 2145 11
1 2147 7
1 2148 11
1 2149 14
1 2150 4
1 2151 2
1 2152 4
1 2153 22
1 2154 2
1 2155 1
1 2156 1
1 2158 8
1 2159 16
1 2160 739
1 2161 3
1 2164 32
1 2165 7
1 2166 6
1 2167 4
1 2168 5
1 2170 28
1 2171 1
1 2172 1040
1 2173 15
1 2174 9
1 2176 3
1 2177 47
1 2178 5
1 2179 14
1 2180 2
1 2181 22
1 2182 17
1 2183 19
1 2184 1
1 2185 3
1 2186 18
1 2187 17
1 2188 96
1 2189 3
1 2190 2
1 2191 17
1 2192 7
1 2193 31
1 2194 4
1 2195 1
1 2196 30
1 2198 1
1 2199 704
1 2200 11
1 2201 11
1 2202 13
1 2203 4
1 2204 4
1 2205 12
1 2207 17
1 2208 3
1 2209 38
1 2210 22
1 2211 3
1 2213 20
1 2214 12
1 2215 2
1 2216 593
1 2217 23
1 2218 1
1 2219 3
1 2220 3
1 2221 2
1 2222 2
1 2223 3
1 2224 5
1 2225 2
1 2226 12
1 2227 1
1 2228 9
1 2229 3
1 2230 7
1 2231 3
1 2232 2
1 2233 1
1 2234 33
1 2235 1
1 2236 2
1 2237 3
1 2239 37
1 2240 38
1 2241 51
1 2242 2
1 2243 5
1 2244 2
1 2245 15
1 2246 5
1 2247 1
1 2248 19
1 2249 23
1 2251 1
1 2252 15
1 2253 2
1 2254 3
1 2255 1
1 2256 2
1 2257 4
1 2258 4
1 2259 29
1 2260 5
1 2261 5
1 2262 4
1 2263 5
1 2264 9
1 2265 2
1 2266 8
1 2267 2
1 2268 3
1 2269 39
1 2271 2
1 2272 15
1 2273 12
1 2274 2
1 2275 4
1 2276 2
1 2277 191
1 2278 18
1 2279 1
1 2280 4
1 2281 38
1 2282 4
1 2283 7
1 2284 3
1 2285 1
1 2286 2
1 2287 12
1 2288 16
1 2289 1
1 2290 3
1 2291 4
1 2292 3
1 2293 3
1 2294 3
1 2295 1
1 2296 2
1 2297 16
1 2298 45
1 2299 4
1 2300 1
1 2302 3
1 2303 2
1 2304 69
1 2305 30
1 2306 3
1 2307 4
1 2308 4
1 2309 19
1 2310 3
1 2311 2
1 2312 3
1 2313 1
1 2314 15
1 2315 14
1 2316 2
1 2317 3
1 2319 25
1 2320 2
1 2321 14
1 2322 3
1 2323 4
1 2325 2
1 2326 14
1 2327 3
1 2328 14
1 2329 4
1 2330 6
1 2331 1
1 2332 5
1 2333 2
1 2334 1
1 2335 1
1 2336 9
1 2337 18
1 2338 10
1 2339 2
1 2340 2
1 2341 10
1 2342 11
1 2343 1
1 2344 7
1 2345 2
1 2347 1
1 2348 12
1 2349 5
1 2350 1
1 2351 3
1 2352 5
1 2353 27
1 2354 7
1 2356 27
1 2357 12
1 2358 4
1 2359 2
1 2360 1
1 2361 3
1 2362 2
1 2363 1
1 2364 1
1 2366 1
1 2367 4
1 2368 22
1 2369 3
1 2370 11
1 2371 15
1 2373 6
1 2374 10
1 2375 12
1 2376 15
1 2377 2
1 2378 4
1 2379 37
1 2380 1
1 2382 23
1 2384 12
1 2385 1
1 2386 3
1 2387 1
1 2388 1
1 2389 5
1 2390 3
1 2391 3
1 2392 23
1 2393 2
1 2394 3
1 2395 19
1 2396 2
1 2397 7
1 2398 21
1 2400 1
1 2401 15
1 2404 14
1 2405 38
1 2407 19
1 2408 1
1 2410 3
1 2411 19
1 2412 1
1 2413 5
1 2416 8
1 2417 1
1 2418 4
1 2419 1
1 2420 1
1 2421 4
1 2422 1
1 2423 5
1 2425 2
1 2426 27
1 2427 1
1 2428 4
1 2429 12
1 2430 3
1 2432 15
1 2433 2
1 2434 7
1 2436 94
1 2437 16
1 2438 3
1 2439 1
1 2440 2
1 2441 1
1 2443 1
1 2444 33
1 2445 19
1 2447 10
1 2448 23
1 2449 1
1 2450 62
1 2451 2
1 2452 7
1 2453 25
1 2454 6
1 2455 1
1 2456 47
1 2457 30
1 2458 4
1 2459 11
1 2460 4
1 2461 12
1 2462 6
1 2464 3
1 2465 18
1 2466 4
1 2467 4
1 2468 18
1 2469 4
1 2470 7
1 2471 3
1 2472 2
1 2473 2
1 2474 27
1 2475 2
1 2476 18
1 2477 2
1 2478 11
1 2480 39
1 2481 6
1 2482 38
1 2483 6
1 2484 2
1 2485 1
1 2486 13
1 2487 2
1 2488 32
1 2489 1
1 2490 35
1 2491 52
1 2492 7
1 2493 6
1 2494 5
1 2495 2
1 2496 13
1 2497 7
1 2499 1
1 2500 2
1 2501 29
1 2502 3
1 2503 7
1 2504 24
1 2506 3
1 2507 14
1 2508 1
1 2509 4
1 2510 1
1 2512 21
1 2513 2
1 2514 3
1 2515 17
1 2517 5
1 2518 9
1 2519 34
1 2520 31
1 2521 1
1 2522 3
1 2523 1
1 2524 5
1 2525 3
1 2526 1132
1 2527 1
1 2528 9
1 2529 49
1 2530 28
1 2531 2
1 2532 3
1 2533 16
1 2534 5
1 2536 2
1 2537 542
1 2538 3
1 2539 2
1 2540 7
1 2541 48
1 2542 2
1 2543 1
1 2544 3
1 2545 1
1 2546 2
1 2547 17
1 2548 18
1 2549 1
1 2550 548
1 2551 44
1 2552 48
1 2553 23
1 2554 11
1 2556 45
1 2557 8
1 2558 3
1 2559 36
1 2560 3
1 2561 2
1 2562 4
1 2563 24
1 2564 24
1 2566 16
1 2567 18
1 2568 3
1 2569 25
1 2570 3
1 2571 866
1 2572 1
1 2573 26
1 2574 3
1 2575 15
1 2576 23
1 2577 38
1 2578 10
1 2579 5
1 2580 2
1 2581 3
1 2582 15
1 2584 2
1 2585 2
1 2586 2
1 2587 3
1 2588 2
1 2589 53
1 2590 28
1 2591 1210
1 2592 13
1 2593 37
1 2594 20
1 2595 3
1 2596 5
1 2597 6
1 2598 4
1 2599 5
1 2600 2
1 2601 10
1 2602 9
1 2603 15
1 2604 1
1 2605 4
1 2606 6
1 2608 1
1 2609 1163
1 2610 2
1 2611 5
1 2612 33
1 2613 1
1 2614 3
1 2615 55
1 2616 2
1 2618 57
1 2619 14
1 2620 54
1 2621 4
1 2622 1
1 2623 73
1 2624 19
1 2625 2
1 2626 4
1 2627 7
1 2628 2
1 2629 3
1 2630 5
1 2631 17
1 2632 3
1 2633 4
1 2634 4
1 2635 15
1 2636 16
1 2637 3
1 2638 1
1 2639 1
1 2640 12
1 2641 4
1 2642 1
1 2643 11
1 2644 14
1 2645 4
1 2646 3
1 2647 8
1 2648 14
1 2649 4
1 2650 9
1 2651 20
1 2652 7
1 2653 1
1 2654 2
1 2655 3
1 2656 10
1 2657 11
1 2658 13
1 2659 1
1 2660 10
1 2661 3
1 2662 1
1 2663 55
1 2664 2
1 2665 2
1 2666 4
1 2667 43
1 2668 3
1 2669 27
1 2670 2
1 2671 13
1 2672 4
1 2673 16
1 2674 2
1 2675 19
1 2676 5
1 2677 114
1 2678 592
1 2679 10
1 2680 4
1 2681 3
1 2684 3
1 2685 49
1 2686 29
1 2687 2
1 2688 17
1 2689 15
1 2690 3
1 2691 11
1 2692 12
1 2693 2
1 2695 53
1 2696 2
1 2697 3
1 2698 22
1 2699 17
1 2700 12
1 2701 3
1 2702 1
1 2703 2
1 2706 16
1 2707 13
1 2708 18
1 2709 2
1 2710 13
1 2711 3
1 2712 4
1 2713 17
1 2715 21
1 2716 16
1 2717 12
1 2718 2
1 2719 121
1 2720 4
1 2723 676
1 2725 5
1 2726 3
1 2727 1
1 2728 3
1 2729 4
1 2730 11
1 2731 20
1 2733 4
1 2734 4
1 2735 2
1 2737 2
1 2738 3
1 2739 23
1 2740 47
1 2741 1
1 2742 23
1 2743 56
1 2744 4
1 2745 11
1 2746 2
1 2747 2
1 2748 3
1 2749 1
1 2750 3
1 2751 1
1 2752 3
1 2753 45
1 2754 2
1 2755 21
1 2756 82
1 2757 4
1 2758 2
1 2759 15
1 2760 1
1 2761 2
1 2762 25
1 2764 4
1 2765 2
1 2766 28
1 2767 16
1 2768 2
1 2769 10
1 2770 25
1 2771 2
1 2772 1
1 2773 3
1 2774 4
1 2775 3
1 2776 1
1 2777 1
1 2778 17
1 2779 3
1 2780 15
1 2781 24
1 2782 5
1 2783 1
1 2784 5
1 2785 2
1 2786 1
1 2787 1
1 2788 5
1 2789 1
1 2790 2
1 2791 1
1 2792 5
1 2794 25
1 2795 2
1 2796 2
1 2797 2
1 2798 1
1 2799 1
1 2800 3
1 2801 12
1 2802 4
1 2803 4
1 2804 23
1 2805 22
1 2806 1
1 2807 18
1 2808 3
1 2809 75
1 2810 3
1 2811 10
1 2812 1
1 2813 24
1 2814 1
1 2815 1
1 2816 2
1 2817 4
1 2818 30
1 2819 1
1 2820 7
1 2821 1
1 2822 2
1 2823 1
1 2824 30
1 2825 4
1 2826 1
1 2827 2
1 2828 2
1 2829 1
1 2830 4
1 2831 12
1 2832 1
1 2833 4
1 2834 4
1 2835 1
1 2836 4
1 2837 17
1 2838 1
1 2839 1
1 2840 28
1 2841 2
1 2842 4
1 2843 1
1 2844 1
1 2845 3
1 2846 3
1 2847 6
1 2848 20
1 2849 6
1 2850 362
1 2851 3
1 2852 8
1 2853 1
1 2854 2
1 2856 41
1 2857 1
1 2858 1
1 2859 14
1 2860 58
1 2861 19
1 2862 16
1 2863 10
1 2864 2
1 2865 19
1 2866 1
1 2867 1
1 2868 23
1 2869 36
1 2870 32
1 2871 7
1 2872 20
1 2873 3
1 2874 2
1 2875 2
1 2876 21
1 2877 4
1 2878 24
1 2879 10
1 2880 25
1 2881 20
1 2882 2
1 2883 23
1 2884 8
1 2885 10
1 2886 9
1 2887 3
1 2888 20
1 2889 1
1 2890 11
1 2891 18
1 2892 10
1 2893 4
1 2894 5
1 2895 4
1 2896 27
1 2897 171
1 2898 6
1 2899 3
1 2900 2
1 2901 23
1 2902 5
1 2903 2
1 2904 3
1 2905 7
1 2906 8
1 2907 2
1 2909 10
1 2910 5
1 2911 2
1 2912 31
1 2913 18
1 2914 2
1 2915 13
1 2916 2
1 2917 4
1 2918 1
1 2919 21
1 2920 1
1 2921 3
1 2922 3
1 2923 422
1 2924 42
1 2925 2
1 2926 3
1 2927 6
1 2928 1
1 2929 3
1 2930 40
1 2931 2
1 2932 14
1 2933 1
1 2934 11
1 2935 3
1 2936 507
1 2937 7
1 2938 6
1 2942 2
1 2943 45
1 2944 24
1 2945 35
1 2946 2
1 2947 2
1 2948 5
1 2949 8
1 2950 6
1 2951 60
1 2952 3
1 2953 5
1 2954 21
1 2955 30
1 2956 1
1 2957 17
1 2959 24
1 2960 7
1 2961 2
1 2962 17
1 2963 7
1 2964 4
1 2965 2
1 2966 10
1 2968 1
1 2969 26
1 2970 5
1 2971 42
1 2974 8
1 2975 17
1 2976 14
1 2977 544
1 2978 5
1 2979 16
1 2980 3
1 2981 2
1 2982 2
1 2983 1
1 2984 2
1 2985 9
1 2986 2
1 2987 2
1 2988 2
1 2989 3
1 2990 4
1 2991 7
1 2992 2
1 2993 1
1 2994 14
1 2995 1
1 2996 16
1 2997 5
1 2998 3
1 2999 51
1 3001 2
1 3003 10
1 3004 3
1 3005 8
1 3006 20
1 3007 1
1 3008 6
1 3009 28
1 3010 6
1 3011 2
1 3012 2
1 3013 6
1 3014 4
1 3015 9
1 3016 4
1 3017 1180
1 3018 20
1 3019 2
1 3020 1
1 3021 1
1 3022 2
1 3023 6
1 3024 1141
1 3025 494
1 3026 3
1 3027 48
1 3028 17
1 3029 1
1 3030 7
1 3031 10
1 3032 3
1 3033 24
1 3034 1
1 3035 1
1 3038 8
1 3039 25
1 3040 20
1 3041 2
1 3042 2
1 3043 3
1 3044 2
1 3045 1
1 3046 8
1 3048 69
1 3049 37
1 3050 15
1 3051 2
1 3052 2
1 3053 31
1 3054 1
1 3055 2
1 3056 5
1 3057 24
1 3058 13
1 3059 28
1 3060 1
1 3061 6
1 3062 18
1 3063 2
1 3064 1
1 3065 20
1 3066 19
1 3067 5
1 3068 6
1 3069 5
1 3070 2
1 3071 13
1 3072 2
1 3074 3
1 3075 2
1 3076 3
1 3077 24
1 3078 18
1 3079 1
1 3080 2
1 3081 37
1 3082 4
1 3083 30
1 3084 1
1 3085 2
1 3086 1
1 3087 15
1 3088 1
1 3089 11
1 3090 10
1 3091 31
1 3093 20
1 3094 1
1 3095 36
1 3096 5
1 3097 11
1 3098 22
1 3099 36
1 3100 69
1 3101 9
1 3102 54
1 3103 2
1 3104 4
1 3105 11
1 3106 23
1 3108 1
1 3109 1
1 3110 13
1 3111 1
1 3112 2
1 3113 2
1 3114 8
1 3115 5
1 3116 2
1 3117 5
1 3118 11
1 3119 4
1 3120 11
1 3123 8
1 3124 4
1 3126 3
1 3127 1
1 3128 10
1 3129 4
1 3130 2
1 3131 16
1 3132 5
1 3133 2
1 3134 1
1 3135 2
1 3136 11
1 3137 39
1 3138 1
1 3139 2
1 3140 1
1 3141 1
1 3142 3
1 3143 2
1 3144 2
1 3145 11
1 3147 20
1 3148 5
1 3150 2
1 3151 1
1 3152 5
1 3153 2
1 3154 10
1 3155 684
1 3156 6
1 3157 1
1 3158 21
1 3160 1
1 3161 2
1 3162 12
1 3163 5
1 3164 7
1 3165 3
1 3166 1
1 3167 3
1 3168 30
1 3169 3
1 3170 28
1 3171 2
1 3172 4
1 3173 4
1 3174 11
1 3175 12
1 3176 1
1 3177 9
1 3178 3
1 3179 12
1 3180 8
1 3181 7
1 3182 2
1 3183 33
1 3184 2
1 3185 4
1 3187 3
1 3188 3
1 3189 3
1 3190 734
1 3191 5
1 3192 4
1 3193 11
1 3194 2
1 3195 12
1 3196 17
1 3197 27
1 3198 2
1 3200 1
1 3201 12
1 3202 3
1 3203 4
1 3205 8
1 3206 3
1 3207 20
1 3208 3
1 3209 24
1 3210 2
1 3211 4
1 3212 15
1 3213 13
1 3214 5
1 3216 3
1 3217 3
1 3218 2
1 3219 3
1 3220 40
1 3221 1
1 3222 2
1 3223 21
1 3224 11
1 3225 10
1 3226 7
1 3227 15
1 3228 9
1 3229 42
1 3230 1
1 3231 4
1 3232 3
1 3233 5
1 3234 1
1 3235 43
1 3236 15
1 3237 24
1 3239 3
1 3240 16
1 3241 18
1 3242 33
1 3243 4
1 3244 31
1 3245 18
1 3246 7
1 3247 14
1 3248 2
1 3249 4
1 3250 13
1 3251 11
1 3252 2
1 3253 567
1 3254 4
1 3255 2
1 3256 10
1 3257 5
1 3258 6
1 3259 33
1 3260 14
1 3261 1
1 3262 17
1 3263 4
1 3264 3
1 3266 4
1 3267 2
1 3268 1
1 3269 17
1 3270 10
1 3271 2
1 3272 1
1 3273 7
1 3274 9
1 3276 53
1 3277 15
1 3278 31
1 3279 5
1 3280 1
1 3281 10
1 3282 24
1 3283 11
1 3284 2
1 3285 8
1 3286 1
1 3287 4
1 3288 4
1 3289 10
1 3291 8
1 3292 3
1 3293 43
1 3294 2
1 3295 952
1 3296 2
1 3297 1
1 3298 4
1 3299 1
1 3300 21
1 3303 18
1 3304 7
1 3305 11
1 3306 18
1 3307 1
1 3308 2
1 3310 272
1 3311 4
1 3313 3
1 3314 4
1 3315 1
1 3317 33
1 3318 1
1 3319 1
1 3320 2
1 3321 1
1 3322 1
1 3323 16
1 3324 43
1 3325 63
1 3326 4
1 3327 10
1 3328 3
1 3329 7
1 3330 4
1 3331 2
1 3332 15
1 3333 2
1 3334 20
1 3335 9
1 3336 7
1 3337 1
1 3339 21
1 3340 12
1 3341 18
1 3342 23
1 3343 2
1 3344 497
1 3345 3
1 3346 1
1 3347 2
1 3348 1
1 3349 3
1 3350 15
1 3351 15
1 3353 1174
1 3354 2
1 3355 2
1 3356 39
1 3357 2
1 3358 5
1 3359 4
1 3360 79
1 3361 1
1 3362 1
1 3363 2
1 3364 8
1 3365 3
1 3366 1
1 3367 2
1 3368 2
1 3369 36
1 3370 6
1 3371 1
1 3372 10
1 3373 3
1 3375 2
1 3376 11
1 3377 21
1 3378 6
1 3379 2
1 3382 10
1 3383 33
1 3384 2
1 3385 4
1 3386 7
1 3387 1
1 3388 2
1 3389 12
1 3391 4
1 3392 1
1 3393 3
1 3394 32
1 3395 3
1 3396 3
1 3397 3
1 3398 11
1 3399 1
1 3400 6
1 3401 15
1 3402 20
1 3403 2
1 3404 2
1 3405 4
1 3406 21
1 3407 11
1 3408 2
1 3409 2
1 3410 2
1 3411 17
1 3412 1
1 3413 20
1 3415 13
1 3416 2
1 3417 1
1 3418 40
1 3419 3
1 3420 2
1 3421 1
1 3423 41
1 3424 3
1 3425 3
1 3426 10
1 3427 3
1 3428 2
1 3429 1
1 3430 1
1 3431 3
1 3432 2
1 3434 11
1 3435 1
1 3436 971
1 3437 20
1 3438 17
1 3440 12
1 3442 2
1 3443 2
1 3444 10
1 3445 3
1 3446 1
1 3447 1
1 3448 2
1 3449 2
1 3450 2
1 3451 7
1 3452 121
1 3454 8
1 3455 11
1 3456 12
1 3457 12
1 3458 5
1 3459 14
1 3460 4
1 3461 15
1 3462 11
1 3463 1
1 3464 11
1 3465 3
1 3466 7
1 3467 4
1 3468 2
1 3469 4
1 3471 2
1 3472 1
1 3473 7
1 3474 18
1 3476 21
1 3477 21
1 3478 7
1 3479 28
1 3480 5
1 3481 9
1 3482 3
1 3483 12
1 3485 9
1 3486 6
1 3487 30
1 3488 36
1 3489 1
1 3490 3
1 3491 21
1 3492 20
1 3493 4
1 3494 10
1 3495 46
1 3496 4
1 3497 5
1 3498 5
1 3499 2
1 3500 1
1 3501 1
1 3502 3
1 3503 2
1 3504 35
1 3505 1
1 3506 7
1 3507 14
1 3508 3
1 3509 33
1 3510 3
1 3511 48
1 3512 2
1 3513 1
1 3514 1
1 3515 1
1 3516 12
1 3517 6
1 3518 16
1 3519 12
1 3520 6
1 3521 17
1 3522 3
1 3523 5
1 3524 3
1 3525 4
1 3527 2
1 3528 17
1 3529 4
1 3530 3
1 3531 4
1 3532 5
1 3533 18
1 3536 6
1 3537 1
1 3538 6
1 3539 2
1 3540 18
1 3541 19
1 3543 16
1 3544 3
1 3545 1
1 3546 6
1 3547 3
1 3548 38
1 3549 8
1 3550 22
1 3551 2
1 3552 30
1 3553 3
1 3554 3
1 3555 3
1 3556 7
1 3557 2
1 3558 8
1 3559 22
1 3560 3
1 3562 4
1 3563 23
1 3564 48
1 3565 2
1 3566 3
1 3567 10
1 3568 2
1 3569 3
1 3570 3
1 3571 7
1 3572 2
1 3574 1
1 3575 27
1 3576 2
1 3577 7
1 3578 31
1 3579 23
1 3580 12
1 3581 14
1 3582 1
1 3583 3
1 3584 3
1 3585 370
1 3586 1
1 3587 4
1 3588 15
1 3589 16
1 3590 29
1 3591 19
1 3592 16
1 3593 2
1 3594 4
1 3595 1
1 3596 1
1 3597 5
1 3598 1
1 3599 28
1 3600 4
1 3601 15
1 3602 1
1 3603 1
1 3604 13
1 3605 50
1 3606 3
1 3607 2
1 3608 11
1 3609 1
1 3610 2
1 3611 1
1 3613 16
1 3614 15
1 3615 4
1 3616 11
1 3617 5
1 3618 28
1 3619 2
1 3621 12
1 3622 5
1 3623 8
1 3624 47
1 3627 32
1 3628 2
1 3629 4
1 3630 1
1 3631 21
1 3632 6
1 3633 332
1 3634 12
1 3635 29
1 3636 15
1 3637 6
1 3638 4
1 3639 3
1 3640 1
1 3641 3
1 3642 9
1 3643 9
1 3644 3
1 3645 24
1 3646 9
1 3647 4
1 3648 2
1 3649 14
1 3650 12
1 3651 20
1 3652 72
1 3653 2
1 3654 1
1 3655 3
1 3656 19
1 3657 28
1 3658 3
1 3659 17
1 3660 3
1 3662 1
1 3663 4
1 3664 4
1 3665 3
1 3666 2
1 3667 14
1 3669 13
1 3670 18
1 3671 12
1 3672 1
1 3673 2
1 3674 4
1 3675 2
1 3676 1
1 3677 22
1 3678 27
1 3680 5
1 3681 3
1 3682 10
1 3683 5
1 3684 21
1 3685 8
1 3686 1
1 3687 8
1 3688 12
1 3689 7
1 3690 24
1 3691 24
1 3692 4
1 3693 19
1 3694 2
1 3695 1
1 3696 1
1 3697 2
1 3698 9
1 3699 1
1 3701 4
1 3702 10
1 3703 207
1 3704 1
1 3705 4
1 3706 5
1 3707 4
1 3708 1
1 3710 5
1 3711 2
1 3712 1
1 3713 1
1 3714 39
1 3715 40
1 3716 4
1 3717 1
1 3718 1
1 3719 19
1 3720 18
1 3722 57
1 3723 2
1 3724 3
1 3725 3
1 3726 6
1 3727 13
1 3728 15
1 3729 5
1 3730 9
1 3731 8
1 3732 9
1 3733 15
1 3734 9
1 3735 4
1 3736 18
1 3737 3
1 3738 4
1 3739 4
1 3740 5
1 3741 65
1 3742 7
1 3743 2
1 3744 23
1 3745 3
1 3746 2
1 3748 2
1 3749 4
1 3750 3
1 3752 3
1 3753 12
1 3754 6
1 3755 19
1 3756 3
1 3757 2
1 3759 3
1 3760 5
1 3761 763
1 3762 1
1 3764 11
1 3765 4
1 3766 3
1 3767 19
1 3768 4
1 3769 10
1 3770 5
1 3771 19
1 3774 26
1 3775 17
1 3776 1
1 3777 2
1 3778 21
1 3779 2
1 3780 17
1 3781 20
1 3782 1
1 3783 3
1 3784 27
1 3785 1
1 3786 1
1 3787 28
1 3788 14
1 3789 6
1 3790 12
1 3791 15
1 3793 15
1 3794 3
1 3795 7
1 3797 15
1 3798 2
1 3799 3
1 3800 29
1 3801 31
1 3802 4
1 3804 3
1 3805 11
1 3806 4
1 3807 4
1 3808 3
1 3809 3
1 3810 2
1 3811 40
1 3812 1
1 3813 1
1 3814 1
1 3815 7
1 3818 1046
1 3819 3
1 3820 6
1 3823 16
1 3824 16
1 3826 2
1 3827 2
1 3828 3
1 3829 3
1 3830 26
1 3831 38
1 3833 3
1 3834 20
1 3835 3
1 3836 77
1 3837 43
1 3838 5
1 3839 1
1 3840 2
1 3841 1
1 3842 2
1 3843 16
1 3844 23
1 3845 2
1 3846 1
1 3847 229
1 3848 2
1 3849 39
1 3850 10
1 3851 29
1 3852 3
1 3853 3
1 3854 13
1 3855 1
1 3856 30
1 3857 27
1 3859 6
1 3860 31
1 3861 72
1 3862 1
1 3863 7
1 3864 2
1 3865 15
1 3866 11
1 3867 10
1 3868 1
1 3869 8
1 3872 15
1 3873 47
1 3874 9
1 3875 39
1 3876 8
1 3877 13
1 3878 30
1 3879 1
1 3880 2
1 3881 3
1 3882 20
1 3883 17
1 3884 204
1 3885 33
1 3886 149
1 3887 12
1 3888 5
1 3889 1
1 3890 5
1 3891 48
1 3892 22
1 3893 2
1 3895 14
1 3896 2
1 3897 34
1 3898 1
1 3899 2
1 3900 13
1 3901 19
1 3902 2
1 3903 41
1 3904 4
1 3905 1
1 3906 7
1 3907 5
1 3908 6
1 3909 4
1 3910 3
1 3911 7
1 3912 2
1 3913 1
1 3915 19
1 3916 12
1 3917 27
1 3918 25
1 3919 2
1 3921 2
1 3922 48
1 3923 1
1 3924 1
1 3925 6
1 3926 34
1 3927 3
1 3928 1
1 3929 2
1 3930 1
1 3931 24
1 3932 3
1 3933 5
1 3934 1
1 3935 7
1 3936 12
1 3937 2
1 3938 2
1 3939 31
1 3940 1
1 3941 29
1 3942 33
1 3943 10
1 3944 15
1 3945 8
1 3947 1
1 3948 32
1 3949 17
1 3950 13
1 3951 1
1 3952 3
1 3954 1
1 3955 25
1 3957 2
1 3958 4
1 3959 2
1 3960 4
1 3961 29
1 3962 9
1 3963 5
1 3965 6
1 3966 1
1 3967 21
1 3968 10
1 3969 24
1 3970 4
1 3972 3
1 3973 11
1 3974 17
1 3975 9
1 3976 32
1 3977 4
1 3978 49
1 3979 6
1 3981 1
1 3982 1
1 3983 39
1 3984 26
1 3985 1178
1 3986 3
1 3987 1
1 3988 2
1 3989 3
1 3990 1
1 3991 739
1 3992 16
1 3993 3
1 3994 4
1 3995 5
1 3996 15
1 3997 5
1 3999 19
1 4000 1
1 4001 30
1 4002 3
1 4003 8
1 4004 2
1 4005 1
1 4006 3
1 4007 1178
1 4008 16
1 4009 5
1 4010 23
1 4011 3
1 4012 5
1 4014 1164
1 4015 5
1 4016 21
1 4017 4
1 4018 5
1 4019 1
1 4020 3
1 4022 1
1 4023 1
1 4024 3
1 4025 7
1 4026 3
1 4027 2
1 4028 9
1 4029 4
1 4030 1
1 4031 6
1 4032 1
1 4033 64
1 4035 9
1 4036 5
1 4037 3
1 4038 2
1 4039 6
1 4040 1
1 4041 3
1 4042 7
1 4043 34
1 4044 2
1 4045 49
1 4046 4
1 4047 2
1 4048 12
1 4049 2
1 4050 15
1 4051 8
1 4052 1
1 4053 4
1 4054 721
1 4056 261
1 4057 1
1 4058 1
1 4059 26
1 4060 5
1 4061 12
1 4062 15
1 4063 4
1 4064 1
1 4065 2
1 4066 2
1 4067 17
1 4068 6
1 4069 14
1 4071 9
1 4072 5
1 4073 30
1 4074 1
1 4075 15
1 4076 8
1 4077 19
1 4078 5
1 4079 3
1 4080 9
1 4081 5
1 4082 2
1 4083 12
1 4084 1
1 4085 2
1 4086 33
1 4087 9
1 4088 21
1 4089 9
1 4090 21
1 4091 34
1 4092 2
1 4093 3
1 4094 17
1 4095 1
1 4096 4
1 4097 11
1 4098 24
1 4099 2
1 4100 24
1 4101 4
1 4102 1
1 4103 1
1 4104 3
1 4105 36
1 4106 32
1 4107 3
1 4108 9
1 4109 91
1 4110 10
1 4111 6
1 4112 3
1 4113 4
1 4114 1
1 4115 3
1 4116 22
1 4117 1
1 4118 27
1 4119 2
1 4120 1
1 4121 42
1 4123 1
1 4124 12
1 4125 1
1 4126 2
1 4127 261
1 4128 117
1 4129 3
1 4130 18
1 4131 2
1 4132 19
1 4133 16
1 4134 3
1 4135 3
1 4137 21
1 4138 5
1 4139 3
1 4140 12
1 4141 6
1 4142 991
1 4143 1
1 4144 17
1 4145 1
1 4147 7
1 4148 5
1 4149 3
1 4151 9
1 4152 2
1 4153 1
1 4154 4
1 4155 37
1 4156 4
1 4157 2
1 4158 7
1 4159 1
1 4160 2
1 4161 3
1 4162 2
1 4163 5
1 4164 3
1 4165 12
1 4166 3
1 4168 4
1 4169 24
1 4170 2
1 4172 3
1 4173 1
1 4174 133
1 4175 32
1 4176 37
1 4177 1281
1 4178 48
1 4179 9
1 4180 23
1 4181 4
1 4182 2
1 4183 19
1 4185 5
1 4186 11
1 4187 6
1 4188 2
1 4189 6
1 4190 5
1 4191 24
1 4192 3
1 4193 3
1 4195 12
1 4196 2
1 4197 3
1 4198 38
1 4201 2
1 4202 25
1 4203 2
1 4204 3
1 4205 1
1 4206 2
1 4207 15
1 4208 4
1 4209 14
1 4210 5
1 4211 3
1 4212 3
1 4213 2
1 4214 9
1 4215 677
1 4216 40
1 4217 35
1 4218 2
1 4219 15
1 4221 15
1 4222 26
1 4223 2
1 4224 1
1 4225 15
1 4226 15
1 4227 12
1 4228 9
1 4229 23
1 4230 2
1 4231 1
1 4232 3
1 4233 13
1 4234 54
1 4235 3
1 4237 1
1 4238 15
1 4239 1
1 4240 3
1 4241 14
1 4242 12
1 4243 2
1 4244 11
1 4246 12
1 4247 21
1 4248 2
1 4249 2
1 4250 3
1 4251 1
1 4252 15
1 4253 20
1 4254 34
1 4255 4
1 4256 15
1 4257 1
1 4258 17
1 4259 9
1 4260 1
1 4261 5
1 4263 6
1 4264 3
1 4265 37
1 4266 31
1 4267 16
1 4268 2
1 4269 55
1 4270 2
1 4272 31
1 4273 19
1 4274 1
1 4275 23
1 4276 4
1 4277 207
1 4278 12
1 4279 2
1 4280 15
1 4281 1
1 4282 2
1 4283 27
1 4284 1
1 4285 1
1 4286 17
1 4287 1
1 4288 4
1 4289 15
1 4291 4
1 4292 35
1 4293 72
1 4294 15
1 4295 225
1 4296 3
1 4297 2
1 4298 1
1 4299 2
1 4300 7
1 4301 4
1 4302 19
1 4303 3
1 4304 4
1 4306 1
1 4307 6
1 4309 23
1 4310 1
1 4311 16
1 4312 4
1 4313 1
1 4314 11
1 4315 10
1 4316 3
1 4317 1
1 4318 1
1 4320 2
1 4321 2
1 4322 5
1 4323 5
1 4324 5
1 4325 1
1 4326 2
1 4327 2
1 4328 1
1 4329 2
1 4330 13
1 4331 11
1 4332 8
1 4333 12
1 4334 1
1 4336 17
1 4337 2
1 4338 3
1 4339 2
1 4340 15
1 4342 4
1 4343 12
1 4344 547
1 4345 1
1 4346 5
1 4347 5
1 4348 7
1 4349 1
1 4350 22
1 4351 3
1 4352 8
1 4353 4
1 4354 4
1 4355 2
1 4356 32
1 4357 9
1 4358 2
1 4359 28
1 4361 8
1 4362 12
1 4363 4
1 4364 3
1 4365 9
1 4366 47
1 4367 2
1 4368 2
1 4369 53
1 4370 14
1 4371 2
1 4372 3
1 4373 6
1 4374 24
1 4375 1
1 4376 9
1 4377 4
1 4378 2
1 4379 4
1 4380 3
1 4381 13
1 4382 5
1 4383 1
1 4384 13
1 4385 8
1 4386 13
1 4387 1
1 4388 2
1 4389 2
1 4391 31
1 4392 4
1 4393 16
1 4394 1
1 4396 4
1 4397 21
1 4398 4
1 4399 28
1 4400 4
1 4401 12
1 4402 34
1 4403 3
1 4404 31
1 4405 1
1 4406 3
1 4407 14
1 4408 3
1 4409 6
1 4411 16
1 4412 3
1 4413 7
1 4414 32
1 4415 2
1 4416 45
1 4417 15
1 4418 4
1 4419 3
1 4421 10
1 4422 2
1 4423 1
1 4424 18
1 4425 1
1 4426 1160
1 4427 380
1 4428 22
1 4429 27
1 4430 22
1 4431 1
1 4432 17
1 4433 1
1 4434 2
1 4435 1
1 4436 7
1 4437 1
1 4438 2
1 4439 3
1 4440 17
1 4441 4
1 4442 56
1 4444 13
1 4445 3
1 4446 28
1 4447 18
1 4448 1
1 4450 23
1 4451 3
1 4452 3
1 4454 1
1 4455 23
1 4456 12
1 4457 21
1 4458 5
1 4459 2
1 4460 4
1 4461 1
1 4462 1
1 4463 4
1 4464 2
1 4465 1311
1 4466 15
1 4467 1
1 4468 1
1 4469 1
1 4470 12
1 4472 1
1 4473 1
1 4474 2
1 4475 29
1 4476 3
1 4477 24
1 4478 2
1 4479 3
1 4480 1
1 4481 12
1 4482 23
1 4483 29
1 4484 3
1 4485 2
1 4486 14
1 4487 617
1 4488 14
1 4490 4
1 4491 3
1 4492 1
1 4493 21
1 4494 3
1 4495 1
1 4496 5
1 4497 4
1 4498 3
1 4499 18
1 4500 1
1 4501 2
1 4502 5
1 4503 3
1 4505 3
1 4506 1
1 4507 2
1 4508 6
1 4509 2
1 4510 1
1 4511 2
1 4512 7
1 4514 3
1 4515 1
1 4516 1
1 4517 3
1 4518 2
1 4520 3
1 4521 18
1 4522 38
1 4523 2
1 4524 3
1 4525 10
1 4526 20
1 4527 55
1 4528 10
1 4529 5
1 4530 14
1 4531 4
1 4533 9
1 4534 3
1 4535 3
1 4536 12
1 4537 15
1 4538 2
1 4539 71
1 4540 1
1 4541 18
1 4542 2
1 4543 26
1 4544 4
1 4545 36
1 4547 6
1 4548 20
1 4549 200
1 4550 3
1 4551 3
1 4552 3
1 4553 8
1 4554 1
1 4555 1
1 4556 2
1 4557 13
1 4558 17
1 4559 5
1 4560 1
1 4561 60
1 4562 23
1 4563 1
1 4564 29
1 4565 11
1 4566 81
1 4567 5
1 4568 19
1 4570 19
1 4572 1
1 4573 10
1 4576 2
1 4577 12
1 4578 1
1 4579 14
1 4580 62
1 4581 2
1 4582 24
1 4583 2
1 4584 5
1 4585 2
1 4586 3
1 4587 1
1 4588 31
1 4589 19
1 4590 2
1 4591 3
1 4592 18
1 4593 2
1 4594 42
1 4595 13
1 4596 5
1 4597 75
1 4598 2
1 4599 14
1 4600 4
1 4601 3
1 4602 2
1 4603 22
1 4604 1
1 4605 3
1 4606 4
1 4607 5
1 4608 11
1 4609 4
1 4610 4
1 4611 1
1 4612 3
1 4613 4
1 4614 9
1 4615 9
1 4616 2
1 4617 4
1 4618 4
1 4619 3
1 4620 1
1 4621 6
1 4624 1
1 4625 4
1 4626 14
1 4628 11
1 4629 2
1 4630 1
1 4631 2
1 4632 16
1 4633 39
1 4635 621
1 4636 36
1 4637 2
1 4638 43
1 4639 11
1 4640 12
1 4641 2
1 4642 38
1 4643 2
1 4644 3
1 4645 19
1 4646 10
1 4647 24
1 4648 111
1 4649 3
1 4650 21
1 4651 19
1 4652 26
1 4653 4
1 4654 2
1 4655 71
1 4656 173
1 4657 20
1 4658 6
1 4660 23
1 4661 11
1 4662 2
1 4663 18
1 4664 16
1 4665 3
1 4666 1
1 4667 3
1 4668 8
1 4669 19
1 4670 1
1 4671 3
1 4672 1
1 4673 10
1 4674 2
1 4675 14
1 4676 2
1 4677 4
1 4678 11
1 4679 2
1 4680 2
1 4681 5
1 4682 2
1 4683 2
1 4684 37
1 4685 6
1 4686 2
1 4687 17
1 4688 3
1 4689 6
1 4690 5
1 4691 10
1 4692 7
1 4693 3
1 4694 22
1 4695 219
1 4696 9
1 4697 3
1 4698 2
1 4699 18
1 4700 23
1 4701 2
1 4702 6
1 4703 4
1 4704 937
1 4706 20
1 4707 21
1 4709 4
1 4710 35
1 4711 4
1 4712 1
1 4713 1
1 4714 4
1 4715 324
1 4716 20
1 4717 5
1 4718 14
1 4719 3
1 4720 658
1 4721 23
1 4722 23
1 4724 2
1 4725 14
1 4726 3
1 4727 10
1 4728 1
1 4729 4
1 4730 1
1 4731 29
1 4732 22
1 4733 7
1 4734 3
1 4735 3
1 4736 2
1 4737 14
1 4738 35
1 4739 4
1 4740 3
1 4741 1
1 4742 15
1 4743 19
1 4744 13
1 4745 5
1 4746 1
1 4747 10
1 4748 1
1 4749 19
1 4750 32
1 4751 2
1 4752 32
1 4753 25
1 4754 12
1 4755 1
1 4756 4
1 4757 1
1 4758 25
1 4759 4
1 4760 6
1 4761 5
1 4762 2
1 4763 2
1 4764 3
1 4765 32
1 4766 12
1 4767 3
1 4768 4
1 4769 24
1 4770 2
1 4771 4
1 4772 30
1 4773 20
1 4775 6
1 4776 2
1 4777 19
1 4778 1
1 4780 3
1 4781 17
1 4782 2
1 4783 9
1 4786 4
1 4787 7
1 4788 18
1 4789 6
1 4790 2
1 4791 3
1 4792 5
1 4793 2
1 4794 1
1 4795 2
1 4796 2
1 4797 2
1 4798 5
1 4799 10
1 4800 32
1 4801 1
1 4802 7
1 4803 10
1 4804 2
1 4805 28
1 4806 22
1 4807 13
1 4810 3
1 4811 11
1 4812 36
1 4813 3
1 4815 10
1 4816 6
1 4817 5
1 4818 3
1 4819 15
1 4820 2
1 4822 495
1 4823 3
1 4824 2
1 4825 42
1 4826 28
1 4828 25
1 4829 2
1 4830 17
1 4832 2
1 4833 42
1 4834 10
1 4835 2
1 4836 1
1 4837 24
1 4838 52
1 4839 20
1 4841 3
1 4843 4
1 4844 1
1 4845 24
1 4846 26
1 4847 5
1 4848 10
1 4849 16
1 4850 3
1 4851 11
1 4852 2
1 4853 2
1 4854 33
1 4855 2
1 4856 7
1 4857 2
1 4858 10
1 4859 3
1 4860 10
1 4861 1
1 4862 16
1 4863 1
1 4864 20
1 4865 21
1 4867 2
1 4868 2
1 4869 2
1 4870 12
1 4872 16
1 4873 1
1 4874 8
1 4875 2
1 4876 8
1 4877 19
1 4878 3
1 4880 15
1 4881 12
1 4882 2
1 4883 3
1 4884 28
1 4885 200
1 4886 3
1 4887 8
1 4888 4
1 4889 23
1 4890 5
1 4891 1
1 4893 6
1 4894 15
1 4895 17
1 4896 1
1 4897 26
1 4898 1
1 4899 4
1 4900 6
1 4901 3
1 4902 1
1 4903 6
1 4904 3
1 4905 1
1 4906 5
1 4907 993
1 4908 24
1 4910 3
1 4911 25
1 4913 2
1 4914 1
1 4915 15
1 4916 23
1 4917 11
1 4919 22
1 4920 3
1 4921 17
1 4922 4
1 4923 32
1 4924 1
1 4925 1
1 4926 35
1 4927 3
1 4928 1
1 4930 61
1 4931 46
1 4932 4
1 4933 9
1 4934 35
1 4935 15
1 4936 6
1 4937 54
1 4938 1
1 4939 11
1 4940 4
1 4941 14
1 4943 35
1 4944 18
1 4945 36
1 4946 1
1 4948 9
1 4949 1
1 4950 1
1 4951 2
1 4952 1
1 4953 6
1 4954 2
1 4955 3
1 4956 3
1 4957 2
1 4958 2
1 4959 4
1 4960 7
1 4961 12
1 4962 17
1 4963 4
1 4964 3
1 4965 25
1 4966 3
1 4967 11
1 4968 2
1 4969 20
1 4970 3
1 4971 3
1 4972 11
1 4974 1
1 4975 12
1 4976 1
1 4977 2
1 4978 26
1 4979 5
1 4980 17
1 4981 3
1 4982 44
1 4983 8
1 4984 11
1 4985 2
1 4986 21
1 4987 3
1 4988 2
1 4989 13
1 4990 4
1 4991 14
1 4992 4
1 4993 26
1 4994 4
1 4995 3
1 4996 21
1 4997 16
1 4999 8
1 5000 2
1 5001 13
1 5002 3
1 5003 4
1 5004 7
1 5005 2
1 5008 25
1 5009 13
1 5010 2
1 5012 55
1 5014 3
1 5016 236
1 5017 1
1 5018 1
1 5019 2
1 5020 1
1 5021 6
1 5022 3
1 5023 12
1 5025 1
1 5026 32
1 5027 16
1 5028 12
1 5029 2
1 5030 9
1 5031 3
1 5032 7
1 5033 1
1 5034 4
1 5035 13
1 5036 6
1 5037 69
1 5038 3
1 5039 2
1 5040 1
1 5041 10
1 5042 3
1 5043 2
1 5045 4
1 5046 4
1 5047 3
1 5048 2
1 5049 3
1 5050 9
1 5051 8
1 5052 12
1 5053 5
1 5054 12
1 5056 1
1 5057 25
1 5058 7
1 5059 1
1 5060 3
1 5062 7
1 5063 4
1 5064 18
1 5065 1
1 5066 1
1 5067 17
1 5068 13
1 5069 13
1 5071 4
1 5073 385
1 5074 75
1 5076 6
1 5077 3
1 5078 18
1 5079 2
1 5080 3
1 5081 9
1 5082 11
1 5083 2
1 5084 14
1 5085 8
1 5087 32
1 5088 3
1 5089 3
1 5090 20
1 5091 15
1 5092 3
1 5093 4
1 5094 4
1 5095 1
1 5096 37
1 5097 1
1 5098 28
1 5099 29
1 5100 2
1 5101 2
1 5102 12
1 5103 16
1 5104 3
1 5105 2
1 5106 22
1 5107 3
1 5108 11
1 5109 18
1 5110 15
1 5111 54
1 5112 18
1 5113 3
1 5114 33
1 5115 1
1 5116 1
1 5117 4
1 5118 2
1 5119 4
1 5120 5
1 5121 4
1 5122 3
1 5123 39
1 5124 7
1 5125 2
1 5126 1
1 5127 2
1 5128 1
1 5129 2
1 5130 6
1 5131 14
1 5132 9
1 5133 2
1 5134 1
1 5135 5
1 5136 4
1 5138 55
1 5139 1
1 5140 29
1 5142 4
1 5143 3
1 5144 2
1 5145 17
1 5146 25
1 5147 2
1 5149 1
1 5150 36
1 5151 455
1 5152 5
1 5153 3
1 5154 1
1 5155 4
1 5156 3
1 5157 7
1 5158 16
1 5159 4
1 5160 20
1 5161 6
1 5162 1
1 5163 6
1 5164 1
1 5165 1
1 5166 4
1 5167 1
1 5168 4
1 5169 2
1 5170 5
1 5171 10
1 5172 22
1 5173 1
1 5174 17
1 5176 17
1 5177 27
1 5178 9
1 5179 53
1 5180 2
1 5181 4
1 5182 2
1 5183 19
1 5184 2
1 5185 2
1 5186 1
1 5187 1
1 5188 10
1 5189 1
1 5190 8
1 5191 1
1 5192 3
1 5193 6
1 5194 5
1 5195 24
1 5196 1
1 5197 2
1 5198 3
1 5199 19
1 5200 32
1 5201 2
1 5202 3
1 5203 31
1 5204 34
1 5205 2
1 5206 11
1 5207 4
1 5208 1
1 5209 2
1 5210 2
1 5211 4
1 5212 3
1 5213 8
1 5214 11
1 5215 4
1 5216 4
1 5217 1
1 5218 21
1 5219 3
1 5220 4
1 5221 2
1 5222 20
1 5223 3
1 5225 23
1 5227 10
1 5228 1
1 5229 5
1 5230 3
1 5231 7
1 5232 1
1 5233 35
1 5234 6
1 5235 1
1 5236 6
1 5237 3
1 5238 17
1 5239 20
1 5240 40
1 5241 11
1 5242 13
1 5244 1
1 5245 20
1 5246 1
1 5247 2
1 5248 1
1 5249 1
1 5250 1
1 5252 479
1 5253 31
1 5254 3
1 5255 1
1 5256 17
1 5257 3
1 5258 3
1 5259 15
1 5260 3
1 5261 8
1 5262 3
1 5263 2
1 5264 4
1 5265 3
1 5266 2
1 5267 5
1 5268 4
1 5270 3
1 5271 18
1 5272 1
1 5274 15
1 5275 2
1 5276 3
1 5277 14
1 5278 2
1 5279 3
1 5281 1
1 5282 4
1 5285 1
1 5286 2
1 5287 34
1 5290 5
1 5291 580
1 5292 1
1 5293 2
1 5294 1
1 5295 3
1 5296 49
1 5298 1
1 5299 966
1 5300 4
1 5304 19
1 5305 3
1 5306 6
1 5307 1
1 5308 1
1 5309 2
1 5310 3
1 5311 2
1 5312 14
1 5313 3
1 5314 8
1 5315 2
1 5316 7
1 5317 19
1 5318 860
1 5319 1253
1 5320 3
1 5321 2
1 5322 702
1 5323 15
1 5324 2
1 5325 3
1 5327 1301
1 5328 2
1 5329 5
1 5330 2
1 5331 4
1 5332 23
1 5333 4
1 5334 3
1 5335 7
1 5336 2
1 5337 12
1 5338 505
1 5339 22
1 5340 1
1 5341 6
1 5342 5
1 5343 7
1 5344 1
1 5345 2
1 5346 1
1 5347 5
1 5348 8
1 5350 3
1 5351 2
1 5352 48
1 5353 2
1 5354 1
1 5355 842
1 5356 3
1 5357 4
1 5358 2
1 5359 15
1 5360 7
1 5361 18
1 5362 4
1 5363 29
1 5364 4
1 5365 16
1 5366 2
1 5367 14
1 5368 1
1 5369 2
1 5371 2
1 5372 9
1 5373 2
1 5374 23
1 5375 16
1 5376 3
1 5377 5
1 5379 3
1 5380 1
1 5381 9
1 5382 3
1 5383 1
1 5384 372
1 5385 4
1 5386 1
1 5387 23
1 5388 2
1 5389 1
1 5390 28
1 5391 10
1 5392 1
1 5393 37
1 5394 93
1 5395 1
1 5397 6
1 5398 1
1 5399 1
1 5400 3
1 5401 1
1 5402 17
1 5404 1
1 5405 29
1 5406 20
1 5407 13
1 5408 9
1 5409 2
1 5410 2
1 5411 1
1 5412 4
1 5413 14
1 5414 10
1 5415 31
1 5417 5
1 5418 1
1 5419 17
1 5420 21
1 5422 4
1 5423 21
1 5424 11
1 5425 2
1 5426 43
1 5427 2
1 5428 1
1 5429 6
1 5430 5
1 5431 13
1 5432 1
1 5433 1
1 5434 239
1 5435 23
1 5437 6
1 5438 26
1 5439 3
1 5440 13
1 5441 5
1 5442 1
1 5443 11
1 5444 10
1 5445 29
1 5447 3
1 5448 15
1 5449 12
1 5450 1
1 5451 9
1 5452 43
1 5453 5
1 5454 14
1 5455 2
1 5456 4
1 5457 2
1 5458 18
1 5459 10
1 5460 15
1 5462 2
1 5463 1
1 5466 2
1 5467 5
1 5468 17
1 5470 3
1 5471 4
1 5472 928
1 5473 4
1 5474 24
1 5475 14
1 5476 4
1 5477 12
1 5478 1
1 5479 2
1 5480 20
1 5481 13
1 5482 2
1 5483 27
1 5484 1
1 5485 18
1 5486 26
1 5487 40
1 5488 2
1 5489 4
1 5490 4
1 5491 3
1 5492 4
1 5493 22
1 5494 3
1 5495 519
1 5496 20
1 5497 12
1 5498 16
1 5499 13
1 5500 13
1 5501 401
1 5502 3
1 5503 2
1 5504 5
1 5505 37
1 5506 1
1 5507 631
1 5508 1
1 5509 16
1 5510 3
1 5511 2
1 5512 3
1 5513 2
1 5514 1
1 5515 1
1 5517 2
1 5518 7
1 5519 25
1 5520 3
1 5521 4
1 5522 3
1 5523 13
1 5524 6
1 5525 33
1 5526 3
1 5527 3
1 5528 3
1 5529 1
1 5530 13
1 5531 1
1 5532 1
1 5533 30
1 5534 33
1 5535 1172
1 5536 1
1 5537 61
1 5538 1
1 5539 46
1 5541 33
1 5542 2
1 5543 2
1 5544 12
1 5545 21
1 5546 1
1 5547 4
1 5548 2
1 5549 3
1 5550 24
1 5551 2
1 5552 1
1 5553 12
1 5554 633
1 5555 2
1 5556 1
1 5557 21
1 5558 13
1 5559 8
1 5560 2
1 5561 6
1 5562 2
1 5563 1
1 5564 1
1 5565 1
1 5566 5
1 5567 31
1 5568 16
1 5569 7
1 5570 48
1 5571 3
1 5572 8
1 5573 3
1 5574 1
1 5575 2
1 5576 12
1 5577 4
1 5578 15
1 5579 6
1 5580 5
1 5581 1
1 5582 3
1 5583 2
1 5584 17
1 5585 1
1 5586 26
1 5587 1
1 5590 29
1 5591 9
1 5593 21
1 5595 30
1 5596 24
1 5597 6
1 5598 3
1 5599 52
1 5600 98
1 5601 4
1 5602 1
1 5603 4
1 5604 6
1 5605 11
1 5606 1
1 5607 1
1 5608 4
1 5609 12
1 5610 3
1 5611 1
1 5612 12
1 5613 2
1 5614 1
1 5615 1
1 5616 2
1 5617 3
1 5618 3
1 5619 2
1 5620 3
1 5621 2
1 5622 1
1 5624 17
1 5625 2
1 5629 3
1 5630 9
1 5631 13
1 5632 1
1 5633 31
1 5634 7
1 5635 10
1 5636 4
1 5637 13
1 5639 45
1 5640 4
1 5642 5
1 5643 32
1 5644 12
1 5645 1
1 5646 16
1 5648 5
1 5649 2
1 5650 33
1 5651 2
1 5652 8
1 5654 10
1 5655 24
1 5656 9
1 5657 4
1 5658 2
1 5660 2
1 5661 1
1 5662 2
1 5663 1
1 5664 4
1 5665 1
1 5666 6
1 5668 1
1 5669 22
1 5670 210
1 5671 29
1 5672 2
1 5673 3
1 5674 3
1 5676 2
1 5677 2
1 5679 7
1 5681 1
1 5682 317
1 5683 11
1 5685 681
1 5686 6
1 5688 2
1 5689 42
1 5690 1
1 5691 2
1 5692 24
1 5693 5
1 5694 2
1 5695 1
1 5696 1
1 5697 5
1 5698 54
1 5699 12
1 5701 3
1 5702 2
1 5703 4
1 5704 4
1 5705 8
1 5706 2
1 5708 40
1 5709 4
1 5710 2
1 5711 3
1 5712 2
1 5714 9
1 5715 8
1 5716 15
1 5717 6
1 5718 5
1 5719 8
1 5720 25
1 5721 3
1 5722 12
1 5723 2
1 5724 10
1 5725 2
1 5726 12
1 5727 2
1 5728 19
1 5730 13
1 5731 4
1 5732 2
1 5733 4
1 5734 21
1 5735 11
1 5736 16
1 5737 24
1 5738 1
1 5739 2
1 5740 3
1 5741 24
1 5742 1
1 5743 1
1 5744 31
1 5745 2
1 5747 39
1 5748 5
1 5749 9
1 5750 6
1 5751 1
1 5752 8
1 5753 20
1 5754 29
1 5755 13
1 5756 1
1 5757 11
1 5758 3
1 5759 48
1 5760 2
1 5761 3
1 5762 2
1 5763 3
1 5764 3
1 5765 4
1 5766 5
1 5767 6
1 5768 2
1 5769 11
1 5770 1
1 5771 2
1 5772 1
1 5773 1
1 5774 83
1 5775 298
1 5776 2
1 5777 48
1 5778 3
1 5780 1
1 5781 7
1 5782 13
1 5783 503
1 5784 37
1 5785 4
1 5786 3
1 5787 1
1 5788 4
1 5789 2
1 5790 10
1 5791 3
1 5792 3
1 5793 9
1 5794 17
1 5795 3
1 5796 1
1 5797 1
1 5799 3
1 5800 1
1 5801 1
1 5802 1
1 5803 39
1 5804 2
1 5805 16
1 5806 29
1 5807 55
1 5808 28
1 5809 2
1 5810 27
1 5811 3
1 5812 28
1 5813 8
1 5814 26
1 5815 1
1 5816 21
1 5817 17
1 5818 1
1 5819 16
1 5820 1
1 5821 16
1 5822 22
1 5823 23
1 5825 7
1 5828 4
1 5829 20
1 5830 14
1 5831 4
1 5832 3
1 5833 8
1 5834 5
1 5835 3
1 5837 14
1 5838 12
1 5839 28
1 5840 1
1 5841 7
1 5842 11
1 5843 929
1 5844 1
1 5845 2
1 5846 118
1 5848 3
1 5849 5
1 5850 3
1 5851 1
1 5852 1
1 5853 3
1 5855 14
1 5856 8
1 5857 23
1 5858 2
1 5859 1
1 5860 8
1 5861 4
1 5862 5
1 5863 10
1 5864 24
1 5865 24
1 5866 6
1 5868 1
1 5869 32
1 5870 49
1 5871 5
1 5872 3
1 5873 44
1 5874 2
1 5875 2
1 5876 13
1 5877 3
1 5878 4
1 5879 37
1 5880 1
1 5881 2
1 5882 7
1 5883 1
1 5884 8
1 5885 5
1 5886 17
1 5887 2
1 5888 10
1 5889 3
1 5891 12
1 5892 22
1 5893 2
1 5894 3
1 5895 8
1 5896 12
1 5897 3
1 5898 22
1 5899 2
1 5900 4
1 5901 1
1 5902 1
1 5903 5
1 5904 5
1 5905 3
1 5906 5
1 5907 30
1 5908 33
1 5909 2
1 5910 8
1 5912 6
1 5913 3
1 5914 11
1 5915 6
1 5916 1
1 5917 2
1 5918 7
1 5919 22
1 5920 77
1 5921 16
1 5922 22
1 5923 28
1 5924 6
1 5925 11
1 5927 1
1 5928 17
1 5929 4
1 5930 2
1 5931 8
1 5932 1
1 5933 16
1 5934 10
1 5935 15
1 5936 9
1 5937 16
1 5938 2
1 5939 5
1 5940 2
1 5941 3
1 5942 4
1 5943 6
1 5944 4
1 5946 2
1 5947 7
1 5948 45
1 5949 1
1 5950 5
1 5951 3
1 5952 1
1 5953 1
1 5954 5
1 5955 840
1 5956 1
1 5957 10
1 5958 49
1 5959 1
1 5960 6
1 5961 11
1 5962 4
1 5963 2
1 5964 3
1 5967 6
1 5968 4
1 5969 17
1 5970 2
1 5971 748
1 5972 1
1 5973 4
1 5974 4
1 5975 90
1 5976 8
1 5977 20
1 5978 1
1 5979 5
1 5980 2
1 5981 17
1 5982 356
1 5983 28
1 5984 1
1 5985 5
1 5986 22
1 5987 9
1 5988 1
1 5989 3
1 5990 24
1 5991 1
1 5992 2
1 5993 3
1 5994 1
1 5995 6
1 5996 2
1 5997 2
1 5998 1
1 5999 7
1 6000 18
1 6002 1
1 6003 5
1 6004 4
1 6005 1
1 6006 3
1 6007 1
1 6008 2
1 6009 3
1 6010 4
1 6011 1
1 6012 1
1 6013 13
1 6014 17
1 6015 3
1 6016 4
1 6018 3
1 6019 1
1 6020 1
1 6021 47
1 6022 2
1 6023 2
1 6024 19
1 6025 20
1 6026 4
1 6027 1
1 6028 16
1 6029 14
1 6030 2
1 6031 11
1 6032 3
1 6033 4
1 6034 3
1 6035 1
1 6036 4
1 6037 10
1 6038 3
1 6039 2
1 6040 6
1 6041 6
1 6042 2
1 6043 46
1 6044 1
1 6045 43
1 6046 9
1 6047 1
1 6048 2
1 6049 25
1 6050 4
1 6051 3
1 6052 1
1 6053 8
1 6054 33
1 6055 10
1 6056 17
1 6057 1
1 6058 2
1 6059 6
1 6060 5
1 6061 1
1 6062 62
1 6063 5
1 6064 1
1 6065 2
1 6066 2
1 6067 5
1 6068 2
1 6069 1
1 6070 9
1 6071 20
1 6072 6
1 6073 69
1 6074 6
1 6075 17
1 6076 1
1 6077 10
1 6078 16
1 6079 3
1 6080 3
1 6081 19
1 6082 30
1 6083 9
1 6084 3
1 6085 6
1 6086 7
1 6087 1
1 6089 38
1 6090 17
1 6091 2
1 6092 2
1 6093 1
1 6095 3
1 6096 5
1 6097 7
1 6098 4
1 6099 3
1 6100 2
1 6101 3
1 6102 4
1 6103 41
1 6105 3
1 6107 12
1 6108 1
1 6109 1
1 6110 1
1 6111 5
1 6112 2
1 6113 3
1 6114 1
1 6115 9
1 6116 4
1 6117 4
1 6118 1
1 6119 5
1 6120 3
1 6121 5
1 6122 1
1 6123 5
1 6124 14
1 6125 29
1 6126 2
1 6127 1
1 6128 4
1 6129 11
1 6130 33
1 6131 3
1 6132 11
1 6133 1
1 6134 3
1 6135 2
1 6136 10
1 6137 126
1 6138 10
1 6139 48
1 6140 17
1 6141 11
1 6142 24
1 6143 4
1 6145 17
1 6146 5
1 6147 19
1 6148 2
1 6149 13
1 6150 13
1 6151 3
1 6152 1
1 6153 1
1 6154 38
1 6155 36
1 6156 13
1 6157 3
1 6158 2
1 6159 37
1 6160 2
1 6161 4
1 6162 1
1 6164 3
1 6165 2
1 6166 5
1 6167 17
1 6168 32
1 6169 3
1 6170 12
1 6171 17
1 6172 4
1 6173 1
1 6174 5
1 6175 5
1 6176 1
1 6177 1
1 6178 17
1 6179 3
1 6180 21
1 6181 7
1 6182 2
1 6183 5
1 6184 3
1 6185 35
1 6186 1
1 6187 43
1 6188 2
1 6189 2
1 6190 3
1 6192 3
1 6193 7
1 6194 17
1 6195 33
1 6196 156
1 6197 6
1 6198 3
1 6199 3
1 6200 2
1 6201 2
1 6202 4
1 6203 1
1 6204 5
1 6205 18
1 6206 15
1 6208 8
1 6209 1
1 6210 743
1 6211 2
1 6212 2
1 6213 36
1 6214 4
1 6215 15
1 6216 1
1 6217 8
1 6218 1
1 6219 54
1 6220 5
1 6221 11
1 6222 3
1 6224 21
1 6225 2
1 6229 8
1 6230 12
1 6231 1
1 6232 8
1 6233 1
1 6234 2
1 6235 14
1 6236 60
1 6237 5
1 6238 1
1 6239 5
1 6240 35
1 6241 3
1 6242 35
1 6243 3
1 6245 14
1 6246 15
1 6247 1
1 6248 28
1 6249 1248
1 6251 18
1 6252 3
1 6253 5
1 6254 1
1 6255 12
1 6256 1
1 6257 2
1 6258 59
1 6259 2
1 6260 2
1 6261 4
1 6262 37
1 6264 20
1 6265 2
1 6266 19
1 6267 2
1 6269 1
1 6270 463
1 6271 7
1 6272 14
1 6273 42
1 6274 18
1 6275 2
1 6276 2
1 6277 3
1 6278 7
1 6279 105
1 6280 953
1 6281 46
1 6282 3
1 6283 5
1 6284 24
1 6285 4
1 6286 29
1 6287 1
1 6288 666
1 6289 1
1 6290 1
1 6291 5
1 6292 13
1 6293 2
1 6294 1
1 6295 3
1 6296 182
1 6297 3
1 6298 2
1 6299 22
1 6301 1
1 6302 16
1 6303 6
1 6304 2
1 6305 68
1 6306 4
1 6307 44
1 6308 4
1 6309 12
1 6310 791
1 6311 4
1 6312 13
1 6313 3
1 6315 14
1 6316 1
1 6317 1
1 6318 2
1 6319 4
1 6320 1
1 6321 2
1 6322 3
1 6323 2
1 6324 1
1 6325 4
1 6328 26
1 6329 17
1 6330 5
1 6331 4
1 6332 3
1 6333 3
1 6335 54
1 6336 12
1 6337 19
1 6338 59
1 6339 18
1 6340 1
1 6341 12
1 6342 56
1 6343 1
1 6344 3
1 6345 12
1 6346 21
1 6347 1
1 6348 4
1 6349 3
1 6350 14
1 6351 3
1 6352 4
1 6353 18
1 6354 15
1 6355 14
1 6356 3
1 6357 517
1 6358 2
1 6359 44
1 6360 5
1 6361 6
1 6362 12
1 6363 11
1 6365 1
1 6366 19
1 6368 3
1 6369 14
1 6370 1
1 6371 21
1 6372 1
1 6374 27
1 6375 2
1 6376 2
1 6377 9
1 6378 14
1 6381 11
1 6382 7
1 6383 3
1 6384 3
1 6385 3
1 6387 15
1 6388 1
1 6389 2
1 6390 3
1 6391 4
1 6392 1
1 6393 2
1 6394 1
1 6395 21
1 6396 7
1 6398 4
1 6400 1
1 6401 1
1 6402 5
1 6403 2
1 6404 20
1 6405 29
1 6407 1
1 6408 13
1 6409 3
1 6410 5
1 6411 16
1 6412 47
1 6413 3
1 6414 2
1 6415 9
1 6416 53
1 6417 10
1 6418 269
1 6419 5
1 6420 27
1 6421 4
1 6422 3
1 6423 4
1 6424 24
1 6425 4
1 6426 2
1 6427 1
1 6428 35
1 6429 16
1 6430 14
1 6431 1
1 6432 2
1 6433 10
1 6434 4
1 6435 2
1 6436 8
1 6437 3
1 6438 14
1 6439 4
1 6440 8
1 6441 11
1 6442 18
1 6443 10
1 6444 2
1 6445 9
1 6446 3
1 6447 1
1 6448 2
1 6449 20
1 6450 1
1 6451 1
1 6452 1
1 6453 5
1 6454 1
1 6455 2
1 6456 9
1 6458 2
1 6459 24
1 6460 10
1 6461 48
1 6462 2
1 6463 3
1 6464 4
1 6465 2
1 6466 19
1 6467 9
1 6468 1
1 6469 2
1 6470 9
1 6471 18
1 6472 1
1 6473 6
1 6474 2
1 6476 4
1 6477 18
1 6478 14
1 6479 6
1 6480 4
1 6481 1
1 6482 2
1 6483 5
1 6484 3
1 6485 23
1 6486 25
1 6487 1
1 6488 8
1 6490 3
1 6491 2
1 6492 4
1 6493 10
1 6494 6
1 6495 14
1 6496 5
1 6497 14
1 6498 1
1 6499 5
1 6500 12
1 6501 30
1 6502 1
1 6503 2
1 6504 1
1 6505 1
1 6506 15
1 6507 5
1 6508 4
1 6509 3
1 6510 7
1 6511 3
1 6512 1
1 6513 9
1 6514 1
1 6515 23
1 6516 9
1 6517 22
1 6518 3
1 6519 9
1 6520 2
1 6521 3
1 6522 12
1 6523 11
1 6524 12
1 6525 13
1 6526 4
1 6527 14
1 6528 18
1 6529 12
1 6530 11
1 6531 33
1 6532 200
1 6533 1
1 6534 1
1 6535 4
1 6536 2
1 6538 19
1 6539 1
1 6540 1
1 6542 20
1 6543 2
1 6544 5
1 6545 2
1 6547 1
1 6548 12
1 6549 10
1 6550 11
1 6552 1
1 6553 15
1 6554 16
1 6555 15
1 6557 2
1 6558 3
1 6559 11
1 6560 7
1 6561 21
1 6562 1
1 6564 10
1 6565 10
1 6566 34
1 6567 12
1 6568 2
1 6569 3
1 6570 18
1 6571 3
1 6572 16
1 6573 34
1 6574 1
1 6575 4
1 6576 1
1 6577 16
1 6578 16
1 6580 2
1 6581 3
1 6582 25
1 6583 34
1 6584 2
1 6585 4
1 6586 18
1 6587 8
1 6588 1
1 6589 17
1 6591 11
1 6592 9
1 6593 1
1 6594 47
1 6595 6
1 6596 9
1 6597 35
1 6598 3
1 6599 17
1 6600 8
1 6601 10
1 6602 31
1 6603 25
1 6604 9
1 6605 4
1 6606 5
1 6607 19
1 6609 3
1 6610 11
1 6611 1
1 6612 8
1 6613 5
1 6614 3
1 6615 3
1 6616 1
1 6617 9
1 6618 4
1 6619 2
1 6620 10
1 6621 11
1 6622 12
1 6623 10
1 6624 8
1 6625 2
1 6627 3
1 6628 4
1 6629 8
1 6630 508
1 6631 2
1 6632 9
1 6633 18
1 6634 1
1 6636 12
1 6637 2
1 6638 18
1 6639 4
1 6640 10
1 6641 1
1 6643 2
1 6645 2
1 6647 2
1 6648 7
1 6650 1
1 6651 20
1 6652 20
1 6653 2
1 6654 4
1 6656 31
1 6657 3
1 6658 2
1 6659 20
1 6660 2
1 6661 35
1 6662 1
1 6663 13
1 6664 4
1 6665 2
1 6666 2
1 6667 3
1 6668 1
1 6669 2
1 6670 3
1 6671 1
1 6672 22
1 6673 1
1 6674 23
1 6675 9
1 6676 18
1 6677 8
1 6678 32
1 6679 1
1 6680 1
1 6681 1
1 6682 4
1 6683 21
1 6684 16
1 6685 11
1 6686 2
1 6687 5
1 6688 3
1 6689 6
1 6690 2
1 6691 1
1 6692 14
1 6693 5
1 6694 117
1 6695 2
1 6696 5
1 6698 2
1 6700 15
1 6702 10
1 6703 3
1 6704 16
1 6705 6
1 6706 8
1 6707 2
1 6708 1
1 6709 4
1 6710 1
1 6711 22
1 6712 23
1 6713 6
1 6715 10
1 6716 4
1 6717 2
1 6718 3
1 6719 20
1 6720 2
1 6721 2
1 6722 31
1 6723 2
1 6724 34
1 6725 50
1 6726 7
1 6727 4
1 6728 2
1 6729 4
1 6730 19
1 6731 673
1 6732 4
1 6733 2
1 6734 45
1 6735 2
1 6736 10
1 6737 2
1 6738 5
1 6739 3
1 6740 9
1 6741 3
1 6743 6
1 6745 1
1 6746 10
1 6747 11
1 6749 2
1 6750 18
1 6751 2
1 6752 1
1 6753 4
1 6755 3
1 6756 4
1 6758 1
1 6759 17
1 6760 32
1 6761 6
1 6762 3
1 6763 84
1 6764 1
1 6765 14
1 6766 5
1 6767 4
1 6768 10
1 6769 14
1 6770 29
1 6771 1
1 6772 3
1 6773 1
1 6774 42
1 6775 1
1 6777 4
1 6778 17
1 6779 48
1 6781 24
1 6782 2
1 6783 1
1 6784 25
1 6785 10
1 6787 1
1 6788 16
1 6790 2
1 6791 20
1 6792 13
1 6793 6
1 6794 14
1 6795 24
1 6796 30
1 6798 14
1 6799 15
1 6800 5
1 6801 3
1 6802 4
1 6803 8
1 6804 3
1 6805 2
1 6806 2
1 6809 9
1 6811 3
1 6812 23
1 6813 2
1 6815 2
1 6816 3
1 6818 308
1 6819 2
1 6820 2
1 6821 1
1 6822 26
1 6823 1
1 6826 3
1 6827 3
1 6828 1
1 6829 43
1 6830 16
1 6831 3
1 6832 5
1 6834 1
1 6835 2
1 6836 13
1 6837 2
1 6838 9
1 6839 10
1 6840 5
1 6841 2
1 6842 13
1 6843 21
1 6844 10
1 6845 13
1 6846 2
1 6848 10
1 6849 1069
1 6850 1
1 6851 4
1 6852 2
1 6853 1
1 6854 14
1 6855 2
1 6856 2
1 6857 1
1 6858 12
1 6860 23
1 6861 1
1 6862 28
1 6863 4
1 6864 7
1 6865 1
1 6866 1
1 6867 1
1 6868 11
1 6869 21
1 6871 2
1 6872 12
1 6873 3
1 6874 2
1 6875 21
1 6876 9
1 6877 27
1 6878 1
1 6879 5
1 6880 1
1 6881 5
1 6882 17
1 6883 7
1 6885 4
1 6886 4
1 6887 7
1 6888 17
1 6889 93
1 6890 2
1 6891 7
1 6892 26
1 6893 3
1 6894 3
1 6895 32
1 6896 4
1 6898 3
1 6899 225
1 6900 5
1 6901 1
1 6902 4
1 6903 1
1 6904 7
1 6905 13
1 6906 1
1 6907 4
1 6908 2
1 6909 2
1 6910 29
1 6911 1
1 6912 28
1 6913 3
1 6914 9
1 6915 5
1 6916 10
1 6917 13
1 6918 6
1 6919 5
1 6920 17
1 6921 3
1 6922 1
1 6923 6
1 6924 24
1 6925 1
1 6926 8
1 6927 49
1 6928 6
1 6929 989
1 6930 1
1 6931 59
1 6932 3
1 6933 27
1 6934 1
1 6935 36
1 6936 12
1 6937 6
1 6938 2
1 6939 3
1 6940 5
1 6941 2
1 6942 23
1 6943 6
1 6944 249
1 6945 6
1 6946 2
1 6947 26
1 6948 277
1 6949 1
1 6950 23
1 6951 3
1 6952 37
1 6953 1
1 6954 989
1 6955 1
1 6956 5
1 6957 1
1 6958 27
1 6959 9
1 6960 1
1 6962 5
1 6963 33
1 6964 1
1 6965 1
1 6966 8
1 6967 3
1 6969 1
1 6970 4
1 6971 3
1 6972 1
1 6973 12
1 6974 3
1 6975 41
1 6976 1
1 6977 3
1 6978 2
1 6979 33
1 6980 13
1 6981 3
1 6982 4
1 6983 1
1 6984 12
1 6986 2
1 6987 2
1 6988 21
1 6989 10
1 6990 21
1 6991 82
1 6992 19
1 6993 1
1 6995 1
1 6996 3
1 6997 786
1 6998 11
1 6999 15
1 7000 5
1 7001 2
1 7002 31
1 7003 10
1 7004 5
1 7005 16
1 7006 22
1 7007 2
1 7008 16
1 7009 6
1 7010 116
1 7011 20
1 7012 77
1 7013 3
1 7014 18
1 7015 4
1 7016 4
1 7017 2
1 7018 82
1 7019 15
1 7020 82
1 7021 15
1 7022 3
1 7023 4
1 7024 9
1 7025 12
1 7026 4
1 7027 1
1 7028 2
1 7029 15
1 7030 1
1 7031 1
1 7032 1
1 7033 5
1 7034 3
1 7035 40
1 7036 7
1 7037 3
1 7038 1
1 7039 5
1 7040 2
1 7041 1
1 7042 16
1 7043 2
1 7045 2
1 7046 58
1 7047 5
1 7048 15
1 7049 1
1 7050 2
1 7051 12
1 7052 3
1 7054 2
1 7055 6
1 7056 3
1 7057 2
1 7058 8
1 7059 1
1 7060 8
1 7061 3
1 7062 14
1 7063 4
1 7064 23
1 7065 2
1 7066 1
1 7067 970
1 7069 1
1 7070 35
1 7071 4
1 7072 6
1 7073 2
1 7074 35
1 7075 3
1 7076 1
1 7077 34
1 7078 3
1 7079 3
1 7080 2
1 7082 10
1 7083 11
1 7084 9
1 7085 2
1 7086 29
1 7087 5
1 7088 14
1 7089 1
1 7090 6
1 7091 13
1 7092 38
1 7093 17
1 7094 17
1 7095 9
1 7096 2
1 7097 21
1 7098 3
1 7099 2
1 7100 16
1 7101 2
1 7102 3
1 7103 749
1 7104 16
1 7105 4
1 7106 3
1 7107 3
1 7108 11
1 7109 5
1 7110 1
1 7111 22
1 7112 5
1 7113 4
1 7114 9
1 7115 1
1 7116 3
1 7117 49
1 7118 2
1 7119 2
1 7120 80
1 7121 970
1 7122 16
1 7123 3
1 7124 28
1 7125 41
1 7126 1
1 7127 2
1 7128 4
1 7129 2
1 7130 42
1 7131 4
1 7132 10
1 7133 48
1 7134 1
1 7136 2
1 7137 1
1 7138 3
1 7139 20
1 7140 94
1 7141 21
1 7142 422
1 7143 13
1 7144 3
1 7145 3
1 7146 13
1 7147 1
1 7148 2
1 7149 30
1 7150 31
1 7151 12
1 7152 22
1 7153 1
1 7154 30
1 7156 1
1 7157 219
1 7158 360
1 7159 17
1 7160 10
1 7161 3
1 7162 10
1 7163 4
1 7164 3
1 7165 2
1 7166 38
1 7167 1
1 7168 9
1 7169 8
1 7170 10
1 7171 1
1 7172 4
1 7173 21
1 7174 3
1 7175 3
1 7176 3
1 7177 1
1 7178 1
1 7179 30
1 7180 1
1 7181 3
1 7182 1
1 7184 3
1 7185 1
1 7186 1
1 7187 3
1 7188 4
1 7189 2
1 7190 13
1 7191 40
1 7192 30
1 7193 8
1 7194 1
1 7195 6
1 7196 1
1 7197 13
1 7198 538
1 7199 31
1 7200 2
1 7201 5
1 7202 5
1 7203 4
1 7204 3
1 7205 2
1 7206 2
1 7207 3
1 7209 4
1 7212 8
1 7213 51
1 7214 28
1 7215 3
1 7216 15
1 7217 2
1 7218 42
1 7219 1
1 7220 9
1 7221 1
1 7222 3
1 7223 4
1 7225 24
1 7226 3
1 7227 3
1 7229 20
1 7230 15
1 7231 3
1 7232 1
1 7233 10
1 7234 3
1 7235 1
1 7236 31
1 7237 64
1 7238 5
1 7239 9
1 7240 2
1 7241 20
1 7242 38
1 7244 20
1 7246 22
1 7247 21
1 7248 3
1 7249 13
1 7250 10
1 7251 1
1 7252 1
1 7253 6
1 7254 3
1 7255 1
1 7256 26
1 7257 1
1 7258 1
1 7259 5
1 7260 579
1 7261 1
1 7263 25
1 7264 3
1 7265 11
1 7266 4
1 7268 9
1 7269 37
1 7270 1
1 7271 5
1 7273 1
1 7274 1033
1 7275 3
1 7276 21
1 7277 1
1 7278 3
1 7279 4
1 7280 447
1 7281 4
1 7282 4
1 7283 1
1 7284 3
1 7285 1
1 7286 1
1 7287 2
1 7288 7
1 7289 1
1 7290 4
1 7291 38
1 7292 14
1 7293 4
1 7294 20
1 7295 12
1 7296 5
1 7297 2
1 7298 3
1 7299 1
1 7300 409
1 7301 37
1 7302 1
1 7303 9
1 7304 1
1 7305 14
1 7306 2
1 7307 2
1 7308 2
1 7309 18
1 7310 3
1 7311 4
1 7312 9
1 7313 19
1 7314 6
1 7315 7
1 7316 13
1 7317 18
1 7318 3
1 7319 1
1 7320 21
1 7321 1
1 7322 28
1 7323 1
1 7325 2
1 7327 2
1 7328 1
1 7329 110
1 7330 3
1 7331 2
1 7332 18
1 7333 29
1 7334 33
1 7335 3
1 7336 6
1 7337 33
1 7338 20
1 7339 8
1 7340 13
1 7341 2
1 7342 2
1 7343 1
1 7344 3
1 7345 624
1 7346 2
1 7347 24
1 7348 10
1 7349 38
1 7350 7
1 7351 11
1 7352 21
1 7353 30
1 7354 29
1 7355 1
1 7357 11
1 7358 3
1 7359 10
1 7360 2
1 7361 3
1 7362 3
1 7363 17
1 7364 6
1 7365 2
1 7366 1
1 7367 5
1 7368 3
1 7369 3
1 7370 8
1 7371 8
1 7372 2
1 7373 3
1 7374 4
1 7375 2
1 7376 3
1 7377 4
1 7378 32
1 7379 13
1 7380 3
1 7382 12
1 7383 37
1 7384 59
1 7385 2
1 7386 2
1 7387 12
1 7388 14
1 7389 18
1 7390 45
1 7391 1267
1 7392 9
1 7396 6
1 7397 29
1 7398 3
1 7400 2
1 7401 2
1 7402 2
1 7403 18
1 7404 6
1 7405 4
1 7406 1
1 7407 5
1 7408 2
1 7409 37
1 7410 3
1 7411 4
1 7412 23
1 7413 1
1 7414 11
1 7415 3
1 7416 5
1 7417 10
1 7418 53
1 7419 29
1 7420 1
1 7421 3
1 7422 2
1 7423 9
1 7424 41
1 7425 2
1 7426 5
1 7427 1
1 7428 59
1 7430 3
1 7431 4
1 7432 2
1 7433 18
1 7434 30
1 7435 21
1 7436 13
1 7437 1
1 7438 9
1 7439 5
1 7440 3
1 7441 10
1 7442 6
1 7443 2
1 7444 9
1 7445 31
1 7446 2
1 7447 87
1 7448 11
1 7449 1
1 7450 31
1 7451 16
1 7452 2
1 7453 60
1 7454 2
1 7456 33
1 7457 19
1 7458 3
1 7459 18
1 7460 3
1 7461 3
1 7462 1
1 7463 1178
1 7464 25
1 7465 4
1 7466 53
1 7467 23
1 7468 1047
1 7469 47
1 7471 2
1 7472 1
1 7474 3
1 7475 83
1 7476 9
1 7477 1
1 7479 14
1 7480 4
1 7481 1
1 7482 6
1 7483 2
1 7484 10
1 7485 18
1 7486 17
1 7487 3
1 7488 1
1 7489 2
1 7490 1
1 7492 1
1 7494 2
1 7495 16
1 7496 34
1 7497 6
1 7498 21
1 7499 12
1 7500 2
1 7501 10
1 7502 4
1 7503 3
1 7504 12
1 7505 2
1 7506 7
1 7507 6
1 7508 3
1 7509 1
1 7510 3
1 7511 30
1 7512 32
1 7513 1
1 7514 15
1 7515 2
1 7516 14
1 7517 10
1 7518 1
1 7519 348
1 7520 40
1 7521 4
1 7522 15
1 7523 5
1 7524 2
1 7525 6
1 7526 1
1 7527 1
1 7528 17
1 7529 112
1 7530 4
1 7531 46
1 7533 36
1 7534 10
1 7535 30
1 7536 33
1 7537 3
1 7538 5
1 7539 2
1 7540 2
1 7541 3
1 7542 12
1 7543 4
1 7544 8
1 7545 2
1 7546 17
1 7547 17
1 7548 7
1 7549 30
1 7551 7
1 7552 40
1 7554 9
1 7555 3
1 7556 14
1 7557 2
1 7558 3
1 7559 24
1 7560 4
1 7561 3
1 7563 5
1 7564 928
1 7565 1
1 7566 3
1 7567 4
1 7568 5
1 7569 17
1 7570 8
1 7571 8
1 7572 5
1 7573 8
1 7574 40
1 7575 35
1 7576 21
1 7577 6
1 7578 3
1 7580 6
1 7581 42
1 7582 3
1 7583 3
1 7584 38
1 7585 1
1 7586 4
1 7587 1
1 7588 6
1 7589 1
1 7590 13
1 7591 2
1 7592 20
1 7593 2
1 7594 5
1 7595 20
1 7596 3
1 7597 10
1 7598 1
1 7599 1
1 7600 13
1 7601 4
1 7602 1
1 7603 22
1 7604 3
1 7605 7
1 7606 22
1 7607 7
1 7608 37
1 7609 3
1 7611 37
1 7612 5
1 7613 36
1 7614 6
1 7615 29
1 7616 1
1 7618 250
1 7619 1206
1 7620 2
1 7621 18
1 7622 1
1 7623 5
1 7624 38
1 7625 4
1 7626 4
1 7627 1
1 7628 10
1 7630 14
1 7631 2
1 7632 4
1 7633 5
1 7634 38
1 7635 11
1 7636 1
1 7637 17
1 7638 2
1 7639 13
1 7640 2
1 7641 2
1 7642 39
1 7643 29
1 7644 2
1 7645 2
1 7647 23
1 7648 2
1 7649 38
1 7650 3
1 7651 85
1 7652 5
1 7653 6
1 7655 2
1 7656 24
1 7657 42
1 7658 2
1 7659 1
1 7661 2
1 7662 4
1 7663 5
1 7664 3
1 7665 18
1 7666 2
1 7667 4
1 7668 2
1 7670 2
1 7671 128
1 7672 3
1 7673 5
1 7674 23
1 7675 14
1 7676 15
1 7677 9
1 7678 10
1 7679 22
1 7680 6
1 7681 2
1 7682 1
1 7683 6
1 7684 5
1 7685 6
1 7686 2
1 7687 3
1 7688 10
1 7689 4
1 7690 2
1 7691 3
1 7692 6
1 7694 20
1 7695 14
1 7696 11
1 7697 3
1 7698 2
1 7699 2
1 7700 2
1 7701 3
1 7702 4
1 7703 3
1 7704 37
1 7705 2
1 7706 26
1 7707 22
1 7708 1
1 7709 2
1 7710 28
1 7711 25
1 7712 4
1 7713 14
1 7714 2
1 7715 2
1 7716 6
1 7717 2
1 7718 9
1 7719 19
1 7720 3
1 7721 3
1 7722 1
1 7723 4
1 7724 48
1 7725 12
1 7726 5
1 7727 4
1 7728 1
1 7729 32
1 7731 4
1 7732 2
1 7733 11
1 7734 2
1 7735 5
1 7736 13
1 7737 8
1 7738 5
1 7739 3
1 7740 2
1 7741 16
1 7742 3
1 7743 2
1 7744 3
1 7745 9
1 7746 5
1 7747 1
1 7748 23
1 7750 18
1 7751 14
1 7752 2
1 7753 18
1 7754 4
1 7755 6
1 7756 64
1 7757 3
1 7758 22
1 7759 4
1 7760 20
1 7761 25
1 7762 1
1 7763 1
1 7764 3
1 7765 2
1 7766 2
1 7767 18
1 7768 2
1 7769 7
1 7770 16
1 7771 2
1 7772 5
1 7773 2
1 7774 22
1 7775 3
1 7777 5
1 7778 4
1 7779 29
1 7780 8
1 7781 20
1 7782 1
1 7783 15
1 7784 10
1 7785 1
1 7786 32
1 7787 2
1 7788 13
1 7789 47
1 7790 2
1 7791 9
1 7792 1
1 7793 16
1 7794 1
1 7796 3
1 7797 7
1 7798 154
1 7799 4
1 7800 2
1 7801 26
1 7802 6
1 7803 26
1 7804 5
1 7805 4
1 7806 3
1 7807 3
1 7808 3
1 7809 3
1 7810 40
1 7811 33
1 7812 9
1 7813 9
1 7814 7
1 7815 1
1 7816 11
1 7817 21
1 7818 2
1 7819 9
1 7820 17
1 7821 4
1 7822 1
1 7823 12
1 7824 7
1 7825 36
1 7826 5
1 7827 18
1 7828 4
1 7829 3
1 7830 4
1 7831 2
1 7832 16
1 7833 57
1 7834 35
1 7835 3
1 7836 15
1 7837 1
1 7839 1
1 7840 10
1 7841 5
1 7842 38
1 7843 22
1 7844 6
1 7845 24
1 7846 1
1 7847 46
1 7848 1
1 7849 1026
1 7850 18
1 7851 21
1 7852 2
1 7853 15
1 7854 5
1 7855 10
1 7857 3
1 7859 4
1 7860 4
1 7861 11
1 7862 5
1 7863 10
1 7864 3
1 7865 23
1 7866 918
1 7867 30
1 7868 2
1 7869 21
1 7870 6
1 7871 6
1 7872 24
1 7873 19
1 7874 2
1 7875 27
1 7876 2
1 7877 3
1 7878 40
1 7881 1
1 7882 7
1 7883 4
1 7884 21
1 7885 10
1 7886 2
1 7887 1
1 7888 5
1 7890 3
1 7891 4
1 7892 2
1 7894 2
1 7895 41
1 7896 21
1 7897 5
1 7898 1
1 7899 18
1 7900 4
1 7901 2
1 7902 1
1 7903 5
1 7904 46
1 7905 2
1 7906 11
1 7907 41
1 7908 2
1 7909 4
1 7910 29
1 7911 16
1 7913 1
1 7914 4
1 7915 1
1 7916 12
1 7917 1
1 7918 2
1 7919 1
1 7920 3
1 7921 16
1 7922 13
1 7923 1
1 7925 69
1 7926 8
1 7928 11
1 7929 5
1 7930 10
1 7932 29
1 7933 1
1 7935 2
1 7936 7
1 7938 3
1 7939 2
1 7940 47
1 7941 1
1 7942 3
1 7943 12
1 7944 27
1 7945 13
1 7946 17
1 7947 24
1 7948 5
1 7949 3
1 7950 3
1 7951 3
1 7952 2
1 7954 32
1 7955 14
1 7956 9
1 7957 1
1 7958 52
1 7959 1
1 7960 2
1 7961 20
1 7962 1251
1 7963 2
1 7964 11
1 7965 16
1 7966 863
1 7967 1
1 7968 16
1 7969 4
1 7970 1
1 7971 12
1 7972 1
1 7973 46
1 7974 2
1 7975 1204
1 7976 3
1 7977 1
1 7978 24
1 7979 40
1 7980 5
1 7981 2
1 7982 8
1 7983 12
1 7985 2
1 7986 65
1 7988 4
1 7989 20
1 7990 4
1 7991 14
1 7992 3
1 7993 3
1 7994 1
1 7995 5
1 7996 2
1 7997 7
1 7998 8
1 7999 2
1 8000 19
1 8002 31
1 8003 42
1 8004 4
1 8005 1127
1 8006 17
1 8007 1
1 8008 20
1 8009 2
1 8010 4
1 8011 2
1 8013 24
1 8014 1
1 8015 1
1 8016 3
1 8017 1
1 8018 3
1 8019 15
1 8020 5
1 8021 1
1 8022 3
1 8023 1
1 8024 1
1 8025 27
1 8026 3
1 8027 7
1 8028 3
1 8030 13
1 8031 10
1 8032 1
1 8033 1
1 8034 7
1 8035 40
1 8036 9
1 8037 2
1 8038 3
1 8039 12
1 8041 4
1 8042 12
1 8043 22
1 8044 3
1 8045 12
1 8046 17
1 8047 56
1 8049 4
1 8050 2
1 8051 7
1 8052 2
1 8054 17
1 8056 2
1 8057 3
1 8058 20
1 8060 4
1 8062 2
1 8063 4
1 8064 48
1 8065 2
1 8066 1
1 8067 21
1 8068 11
1 8069 2
1 8070 3
1 8071 3
1 8072 21
1 8073 4
1 8074 2
1 8075 2
1 8076 3
1 8077 16
1 8078 14
1 8079 8
1 8080 32
1 8081 1
1 8082 3
1 8083 20
1 8084 22
1 8085 10
1 8086 2
1 8087 5
1 8088 8
1 8089 4
1 8090 18
1 8091 5
1 8092 6
1 8093 46
1 8094 1
1 8095 15
1 8096 7
1 8098 4
1 8099 2
1 8100 19
1 8102 1
1 8103 1
1 8104 2
1 8105 2
1 8107 13
1 8108 1
1 8109 11
1 8110 3
1 8111 11
1 8112 16
1 8113 37
1 8114 3
1 8115 2
1 8116 2
1 8117 3
1 8118 1
1 8119 15
1 8120 17
1 8121 2
1 8122 5
1 8123 1
1 8124 7
1 8125 3
1 8126 1
1 8127 3
1 8128 5
1 8129 4
1 8130 21
1 8131 23
1 8132 2
1 8133 11
1 8134 2
1 8135 5
1 8136 2
1 8137 3
1 8138 3
1 8139 2
1 8142 19
1 8143 15
1 8144 3
1 8145 2
1 8146 24
1 8147 3
1 8148 1
1 8149 11
1 8150 8
1 8151 2
1 8152 2
1 8153 1
1 8154 2
1 8155 8
1 8157 3
1 8158 14
1 8159 57
1 8160 1
1 8161 3
1 8162 10
1 8163 6
1 8165 31
1 8166 3
1 8167 4
1 8168 3
1 8169 3
1 8170 2
1 8171 6
1 8172 7
1 8173 841
1 8175 6
1 8176 18
1 8177 40
1 8178 7
1 8179 16
1 8180 3
1 8181 7
1 8182 6
1 8183 1
1 8184 10
1 8185 13
1 8186 14
1 8187 16
1 8188 3
1 8189 1
1 8190 8
1 8191 4
1 8192 21
1 8193 20
1 8194 2
1 8195 76
1 8196 8
1 8198 8
1 8199 20
1 8200 2
1 8201 3
1 8202 23
1 8203 7
1 8204 3
1 8205 19
1 8206 28
1 8207 1
1 8209 22
1 8210 2
1 8211 4
1 8212 2
1 8213 24
1 8214 4
1 8215 11
1 8216 4
1 8217 4
1 8218 9
1 8219 5
1 8220 5
1 8221 1
1 8222 414
1 8223 1
1 8224 3
1 8225 13
1 8226 2
1 8227 1
1 8228 1
1 8229 11
1 8230 1
1 8232 12
1 8233 17
1 8234 2
1 8235 2
1 8236 8
1 8237 3
1 8238 17
1 8240 3
1 8241 14
1 8242 35
1 8243 26
1 8244 8
1 8245 1
1 8246 22
1 8247 5
1 8248 3
1 8249 22
1 8250 4
1 8251 1
1 8252 20
1 8253 2
1 8254 1
1 8255 14
1 8256 4
1 8257 3
1 8258 11
1 8259 1
1 8261 19
1 8262 18
1 8263 3
1 8264 1
1 8265 42
1 8266 23
1 8267 42
1 8268 38
1 8269 1
1 8270 18
1 8271 11
1 8272 1
1 8273 8
1 8274 6
1 8275 2
1 8276 4
1 8277 1
1 8278 13
1 8279 4
1 8280 25
1 8281 4
1 8282 6
1 8283 3
1 8284 2
1 8285 2
1 8286 17
1 8287 9
1 8288 22
1 8289 2
1 8290 2
1 8291 2
1 8292 1
1 8293 3
1 8294 2
1 8295 1
1 8297 11
1 8298 5
1 8299 3
1 8300 2
1 8301 1
1 8302 13
1 8303 10
1 8304 9
1 8305 15
1 8306 4
1 8307 14
1 8309 1
1 8310 1
1 8311 1
1 8312 16
1 8313 939
1 8314 1048
1 8315 3
1 8316 16
1 8320 45
1 8321 5
1 8322 2
1 8323 27
1 8324 1
1 8325 3
1 8326 3
1 8327 9
1 8328 3
1 8329 2
1 8331 3
1 8333 1
1 8334 2
1 8335 8
1 8337 1
1 8338 7
1 8339 12
1 8340 12
1 8341 15
1 8342 3
1 8343 19
1 8344 19
1 8345 15
1 8346 11
1 8347 2
1 8348 2
1 8349 3
1 8351 23
1 8352 1
1 8353 17
1 8354 6
1 8355 4
1 8356 14
1 8357 2
1 8358 2
1 8359 6
1 8360 21
1 8361 3
1 8362 4
1 8363 4
1 8364 21
1 8365 2
1 8366 24
1 8367 187
1 8369 2
1 8370 2
1 8371 1
1 8372 56
1 8373 28
1 8374 4
1 8375 12
1 8376 2
1 8377 2
1 8378 2
1 8379 64
1 8380 1
1 8381 4
1 8382 4
1 8383 5
1 8385 1
1 8386 2
1 8387 28
1 8388 21
1 8389 1
1 8390 8
1 8391 1
1 8392 2
1 8393 63
1 8394 2
1 8395 23
1 8396 3
1 8397 1
1 8398 3
1 8399 2
1 8400 4
1 8401 19
1 8402 5
1 8403 3
1 8404 14
1 8405 5
1 8406 8
1 8407 64
1 8408 1
1 8409 1
1 8410 2
1 8411 2
1 8412 7
1 8413 2
1 8414 21
1 8415 5
1 8416 19
1 8418 4
1 8419 8
1 8420 2
1 8421 23
1 8422 664
1 8424 2
1 8425 2
1 8426 1
1 8427 3
1 8429 13
1 8430 11
1 8431 8
1 8432 40
1 8433 3
1 8434 10
1 8435 3
1 8436 8
1 8437 21
1 8438 5
1 8439 2
1 8440 5
1 8441 2
1 8442 3
1 8443 23
1 8444 11
1 8446 12
1 8447 2
1 8448 13
1 8449 8
1 8450 11
1 8451 1
1 8452 1
1 8453 4
1 8455 3
1 8456 5
1 8457 1261
1 8458 1
1 8459 12
1 8460 27
1 8461 32
1 8462 5
1 8463 1
1 8464 31
1 8466 233
1 8467 63
1 8468 2
1 8469 1
1 8470 22
1 8471 6
1 8472 2
1 8473 1
1 8474 8
1 8475 1
1 8476 2
1 8477 89
1 8478 8
1 8480 6
1 8481 2
1 8482 2
1 8483 6
1 8484 13
1 8485 6
1 8486 26
1 8487 3
1 8488 8
1 8489 5
1 8491 24
1 8492 1
1 8493 2
1 8494 1
1 8495 2
1 8496 1
1 8497 14
1 8498 24
1 8499 2
1 8500 10
1 8501 2
1 8502 2
1 8503 3
1 8504 8
1 8505 22
1 8506 14
1 8507 8
1 8508 10
1 8509 18
1 8510 7
1 8511 2
1 8512 18
1 8513 3
1 8514 6
1 8515 3
1 8516 2
1 8517 3
1 8518 5
1 8519 3
1 8520 19
1 8521 4
1 8522 3
1 8523 14
1 8524 18
1 8525 3
1 8526 1043
1 8527 2
1 8528 4
1 8529 27
1 8530 1
1 8531 47
1 8532 3
1 8533 2
1 8534 7
1 8535 11
1 8536 17
1 8537 45
1 8538 10
1 8539 17
1 8540 38
1 8541 10
1 8542 1
1 8543 2
1 8544 1
1 8545 4
1 8546 1
1 8547 25
1 8548 1
1 8549 1
1 8550 2
1 8551 9
1 8552 1
1 8553 19
1 8554 2
1 8556 7
1 8557 3
1 8561 3
1 8562 17
1 8563 2
1 8564 1
1 8565 4
1 8566 7
1 8567 8
1 8568 3
1 8569 33
1 8570 3
1 8571 11
1 8573 14
1 8574 23
1 8575 2
1 8576 22
1 8577 9
1 8578 1
1 8579 11
1 8580 14
1 8581 3
1 8582 529
1 8583 3
1 8584 4
1 8585 8
1 8586 8
1 8587 2
1 8590 10
1 8591 1
1 8592 16
1 8593 1
1 8594 4
1 8595 1
1 8596 1
1 8597 1
1 8599 12
1 8600 3
1 8601 3
1 8602 7
1 8603 369
1 8605 2
1 8606 13
1 8607 1
1 8608 818
1 8609 2
1 8610 4
1 8611 1
1 8612 15
1 8613 3
1 8614 40
1 8615 4
1 8616 4
1 8618 4
1 8619 1
1 8620 2
1 8621 114
1 8622 7
1 8623 5
1 8624 4
1 8625 16
1 8626 3
1 8627 40
1 8628 12
1 8629 4
1 8630 38
1 8632 4
1 8633 4
1 8634 14
1 8635 1
1 8636 1
1 8637 2
1 8638 1
1 8639 4
1 8641 96
1 8642 6
1 8643 19
1 8644 6
1 8645 24
1 8647 1
1 8648 32
1 8649 5
1 8650 12
1 8651 1
1 8652 3
1 8653 18
1 8654 2
1 8656 6
1 8657 2
1 8658 11
1 8659 1
1 8660 17
1 8661 1
1 8662 2
1 8663 1
1 8664 2
1 8665 3
1 8666 7
1 8667 5
1 8668 15
1 8670 1
1 8671 27
1 8672 1
1 8673 2
1 8674 27
1 8675 17
1 8676 14
1 8677 33
1 8678 1
1 8679 1
1 8680 5
1 8682 10
1 8683 23
1 8684 11
1 8685 8
1 8686 3
1 8687 8
1 8688 1
1 8690 15
1 8691 2
1 8692 29
1 8693 29
1 8694 2
1 8695 2
1 8696 3
1 8698 818
1 8700 1
1 8701 19
1 8702 677
1 8703 30
1 8704 1
1 8705 15
1 8707 1
1 8708 3
1 8710 22
1 8711 620
1 8712 6
1 8713 3
1 8714 1
1 8715 6
1 8716 8
1 8717 12
1 8718 2
1 8719 30
1 8720 2
1 8721 16
1 8722 3
1 8723 27
1 8724 2
1 8725 5
1 8726 1
1 8727 22
1 8728 6
1 8729 3
1 8730 17
1 8731 12
1 8732 2
1 8733 1
1 8734 1255
1 8735 65
1 8736 341
1 8737 1
1 8738 41
1 8739 19
1 8740 33
1 8741 6
1 8742 1
1 8743 4
1 8744 8
1 8745 8
1 8746 11
1 8747 7
1 8749 4
1 8750 1
1 8751 5
1 8752 12
1 8753 1
1 8754 12
1 8755 5
1 8756 2
1 8757 7
1 8758 10
1 8759 36
1 8760 8
1 8761 7
1 8762 12
1 8763 8
1 8764 3
1 8765 2
1 8766 8
1 8767 2
1 8768 12
1 8769 15
1 8770 9
1 8771 3
1 8772 1
1 8773 2
1 8774 22
1 8775 2
1 8776 12
1 8777 12
1 8778 2
1 8779 35
1 8780 4
1 8781 1
1 8782 6
1 8783 2
1 8784 6
1 8785 24
1 8786 2
1 8787 12
1 8788 17
1 8789 1
1 8790 2
1 8791 35
1 8792 2
1 8793 3
1 8794 12
1 8795 7
1 8796 3
1 8797 11
1 8798 6
1 8799 7
1 8800 39
1 8801 1
1 8802 843
1 8803 8
1 8804 4
1 8805 44
1 8806 8
1 8807 19
1 8808 14
1 8809 8
1 8810 2
1 8811 2
1 8813 3
1 8814 4
1 8815 8
1 8816 3
1 8817 1
1 8818 26
1 8819 2
1 8820 7
1 8822 8
1 8823 29
1 8824 17
1 8825 18
1 8826 6
1 8827 3
1 8828 1
1 8829 4
1 8830 12
1 8831 915
1 8832 3
1 8833 5
1 8834 1
1 8835 1
1 8836 1
1 8837 3
1 8838 2
1 8839 7
1 8840 1
1 8841 29
1 8842 21
1 8843 2
1 8844 3
1 8845 35
1 8846 5
1 8847 1
1 8848 10
1 8849 19
1 8850 18
1 8851 2
1 8852 1
1 8854 3
1 8855 1
1 8856 31
1 8857 18
1 8858 7
1 8859 1259
1 8860 8
1 8861 2
1 8862 9
1 8863 22
1 8864 18
1 8865 1
1 8866 2
1 8867 16
1 8868 4
1 8869 12
1 8870 3
1 8871 1
1 8872 3
1 8873 14
1 8874 6
1 8875 30
1 8876 4
1 8877 1
1 8879 5
1 8880 11
1 8881 3
1 8882 1
1 8883 12
1 8884 15
1 8885 15
1 8886 28
1 8887 4
1 8888 1
1 8889 3
1 8890 3
1 8891 571
1 8894 3
1 8895 13
1 8896 2
1 8897 3
1 8899 9
1 8900 6
1 8901 13
1 8902 1
1 8904 10
1 8905 16
1 8906 2
1 8907 35
1 8908 5
1 8909 13
1 8910 17
1 8911 24
1 8912 29
1 8913 7
1 8914 6
1 8915 4
1 8916 6
1 8917 36
1 8918 305
1 8919 12
1 8920 1
1 8921 19
1 8922 19
1 8924 1
1 8925 3
1 8926 3
1 8927 1
1 8928 3
1 8929 23
1 8930 2
1 8931 21
1 8932 2
1 8933 767
1 8935 1
1 8936 779
1 8938 2
1 8939 324
1 8940 30
1 8941 5
1 8942 22
1 8944 1
1 8945 6
1 8946 10
1 8947 913
1 8948 2
1 8949 3
1 8950 4
1 8951 1251
1 8952 2
1 8953 4
1 8954 8
1 8955 5
1 8956 12
1 8957 1
1 8959 4
1 8960 144
1 8961 43
1 8962 5
1 8963 5
1 8964 3
1 8965 5
1 8966 5
1 8967 8
1 8968 2
1 8969 2
1 8970 2
1 8971 3
1 8972 20
1 8973 1
1 8974 8
1 8975 5
1 8976 4
1 8977 111
1 8978 14
1 8979 29
1 8980 2
1 8981 4
1 8982 1
1 8983 1
1 8984 4
1 8985 4
1 8986 1
1 8987 1
1 8988 2
1 8990 18
1 8991 4
1 8993 2
1 8994 3
1 8996 11
1 8997 5
1 8998 252
1 8999 8
1 9000 4
1 9001 1
1 9002 11
1 9003 7
1 9004 23
1 9005 38
1 9006 7
1 9007 2
1 9008 1
1 9009 9
1 9010 1
1 9012 7
1 9014 1
1 9015 1
1 9016 2
1 9017 10
1 9018 2
1 9021 11
1 9022 6
1 9023 1
1 9024 2
1 9025 17
1 9026 3
1 9027 5
1 9028 12
1 9029 3
1 9030 2
1 9031 2
1 9032 28
1 9034 11
1 9036 5
1 9037 34
1 9038 9
1 9039 14
1 9040 2
1 9041 13
1 9042 11
1 9043 6
1 9044 5
1 9047 1
1 9048 1
1 9050 1
1 9051 24
1 9052 38
1 9053 21
1 9054 3
1 9055 18
1 9056 2
1 9057 2
1 9058 3
1 9059 15
1 9060 4
1 9061 8
1 9062 1
1 9063 14
1 9064 2
1 9065 35
1 9066 30
1 9067 21
1 9068 1
1 9069 36
1 9070 3
1 9071 14
1 9072 2
1 9073 7
1 9074 4
1 9075 17
1 9076 10
1 9078 27
1 9079 3
1 9080 17
1 9082 3
1 9083 4
1 9084 18
1 9085 7
1 9086 1
1 9087 2
1 9088 4
1 9089 1
1 9090 4
1 9091 9
1 9092 1
1 9093 13
1 9094 1
1 9095 32
1 9096 31
1 9097 1
1 9099 5
1 9100 31
1 9101 3
1 9102 20
1 9103 3
1 9104 2
1 9105 7
1 9106 4
1 9107 12
1 9108 32
1 9109 2
1 9110 6
1 9111 16
1 9112 4
1 9113 3
1 9115 16
1 9116 6
1 9117 2
1 9119 13
1 9120 19
1 9121 18
1 9122 2
1 9123 2
1 9125 11
1 9126 2
1 9127 1
1 9128 1
1 9129 2
1 9130 2
1 9131 17
1 9132 11
1 9133 1
1 9134 5
1 9135 31
1 9136 2
1 9137 14
1 9138 15
1 9139 1
1 9140 15
1 9141 23
1 9142 4
1 9143 1
1 9144 11
1 9145 1
1 9146 5
1 9147 12
1 9148 12
1 9149 3
1 9150 4
1 9151 1
1 9152 26
1 9154 19
1 9155 1
1 9156 4
1 9157 5
1 9158 1
1 9159 28
1 9160 3
1 9161 41
1 9162 31
1 9163 808
1 9164 1
1 9165 765
1 9166 748
1 9167 3
1 9168 1
1 9169 3
1 9170 9
1 9171 12
1 9174 2
1 9175 2
1 9176 1
1 9177 2
1 9180 3
1 9181 2
1 9182 2
1 9183 2
1 9184 18
1 9186 3
1 9187 2
1 9188 32
1 9190 9
1 9191 21
1 9193 2
1 9194 749
1 9195 4
1 9196 19
1 9197 6
1 9198 13
1 9199 4
1 9200 4
1 9201 24
1 9202 2
1 9203 2
1 9205 2
1 9207 2
1 9208 36
1 9209 3
1 9210 11
1 9211 3
1 9212 15
1 9213 2
1 9214 2
1 9215 6
1 9216 18
1 9217 1
1 9219 34
1 9220 1
1 9221 1
1 9222 2
1 9224 3
1 9226 4
1 9227 1
1 9228 32
1 9229 247
1 9230 2
1 9231 1
1 9232 2
1 9233 11
1 9235 2
1 9236 1
1 9237 28
1 9238 8
1 9239 3
1 9240 1
1 9241 3
1 9242 2
1 9243 8
1 9245 1
1 9248 2
1 9249 16
1 9250 3
1 9251 1
1 9252 4
1 9253 10
1 9255 1
1 9257 5
1 9258 26
1 9259 10
1 9260 6
1 9261 17
1 9262 46
1 9263 13
1 9264 2
1 9265 10
1 9266 5
1 9267 1
1 9268 3
1 9269 44
1 9270 5
1 9271 1
1 9272 2
1 9273 23
1 9274 3
1 9275 9
1 9276 4
1 9277 2
1 9279 34
1 9280 22
1 9281 3
1 9282 5
1 9283 21
1 9284 1
1 9286 6
1 9287 47
1 9288 4
1 9289 1
1 9290 3
1 9291 5
1 9292 19
1 9293 16
1 9294 2
1 9295 4
1 9296 1
1 9297 5
1 9298 10
1 9299 2
1 9300 16
1 9301 3
1 9302 87
1 9303 1
1 9304 2
1 9305 30
1 9307 39
1 9308 60
1 9309 32
1 9310 2
1 9311 11
1 9312 13
1 9313 5
1 9314 1
1 9315 11
1 9316 1
1 9317 877
1 9318 4
1 9319 16
1 9320 5
1 9321 2
1 9322 1
1 9323 6
1 9324 1
1 9326 15
1 9327 19
1 9328 8
1 9329 10
1 9330 1
1 9331 15
1 9332 44
1 9333 3
1 9334 4
1 9335 1
1 9336 1
1 9337 4
1 9338 2
1 9339 4
1 9340 13
1 9341 3
1 9342 6
1 9343 2
1 9344 4
1 9345 22
1 9346 2
1 9348 48
1 9350 14
1 9351 2
1 9352 3
1 9353 4
1 9354 10
1 9355 1
1 9356 27
1 9357 2
1 9358 10
1 9359 12
1 9360 11
1 9361 3
1 9362 2
1 9363 9
1 9364 11
1 9365 2
1 9367 10
1 9368 11
1 9370 3
1 9372 26
1 9373 3
1 9374 40
1 9375 2
1 9376 21
1 9377 4
1 9378 4
1 9379 12
1 9380 4
1 9381 3
1 9382 1
1 9383 1
1 9384 5
1 9385 4
1 9386 1
1 9387 3
1 9389 49
1 9390 5
1 9391 3
1 9392 2
1 9393 5
1 9395 6
1 9396 13
1 9397 1
1 9398 14
1 9399 9
1 9400 11
1 9401 2
1 9402 15
1 9403 1
1 9404 1
1 9405 37
1 9406 2
1 9407 3
1 9408 1
1 9409 7
1 9410 11
1 9411 3
1 9412 20
1 9413 14
1 9415 6
1 9416 30
1 9417 1
1 9418 20
1 9419 14
1 9420 5
1 9421 20
1 9422 2
1 9423 1
1 9424 5
1 9425 15
1 9426 1175
1 9427 1
1 9428 6
1 9429 3
1 9430 23
1 9431 1
1 9432 4
1 9433 1
1 9434 3
1 9435 2
1 9437 6
1 9438 15
1 9439 2
1 9440 235
1 9441 1
1 9443 3
1 9444 1
1 9445 314
1 9446 11
1 9447 1
1 9448 1
1 9449 10
1 9450 24
1 9451 3
1 9452 4
1 9453 1
1 9454 22
1 9455 5
1 9456 36
1 9457 22
1 9458 2
1 9460 1
1 9461 23
1 9462 2
1 9463 21
1 9464 1
1 9465 11
1 9466 7
1 9467 11
1 9468 2
1 9469 8
1 9470 4
1 9471 15
1 9473 2
1 9474 21
1 9475 1
1 9476 10
1 9477 4
1 9478 4
1 9479 4
1 9480 1
1 9481 1
1 9482 8
1 9483 26
1 9484 15
1 9485 14
1 9486 26
1 9487 51
1 9488 11
1 9489 4
1 9490 19
1 9491 20
1 9492 2
1 9493 4
1 9494 3
1 9495 1
1 9496 28
1 9497 2
1 9498 9
1 9499 2
1 9500 1
1 9501 3
1 9502 11
1 9503 1
1 9504 3
1 9505 2
1 9506 8
1 9507 4
1 9508 1
1 9509 7
1 9510 1001
1 9511 1
1 9512 4
1 9513 4
1 9514 1
1 9515 5
1 9516 2
1 9517 4
1 9518 14
1 9519 230
1 9521 4
1 9522 1
1 9523 1
1 9524 2
1 9525 19
1 9526 21
1 9527 1
1 9528 1
1 9529 10
1 9530 29
1 9531 4
1 9532 1
1 9533 4
1 9534 32
1 9535 13
1 9536 2
1 9537 36
1 9538 56
1 9539 4
1 9540 31
1 9541 3
1 9542 2
1 9543 9
1 9544 15
1 9545 235
1 9546 4
1 9548 9
1 9549 5
1 9550 2
1 9551 3
1 9552 11
1 9553 927
1 9554 1
1 9555 1
1 9556 3
1 9557 8
1 9558 2
1 9559 2
1 9560 1175
1 9562 20
1 9563 1
1 9564 3
1 9565 5
1 9566 104
1 9567 2
1 9568 7
1 9569 6
1 9570 48
1 9571 9
1 9572 1
1 9573 3
1 9574 2
1 9575 1
1 9576 8
1 9577 3
1 9579 1
1 9581 2
1 9582 21
1 9583 19
1 9585 1
1 9587 1
1 9588 5
1 9589 3
1 9590 3
1 9591 8
1 9592 2
1 9593 2
1 9594 1
1 9595 4
1 9596 15
1 9597 24
1 9598 12
1 9599 1
1 9600 19
1 9601 2
1 9602 3
1 9603 12
1 9604 6
1 9605 1
1 9606 779
1 9607 2
1 9608 5
1 9609 20
1 9610 28
1 9611 81
1 9612 3
1 9613 8
1 9614 1
1 9615 87
1 9616 1
1 9617 24
1 9618 2
1 9619 2
1 9620 1
1 9621 2
1 9622 14
1 9623 10
1 9624 9
1 9625 1
1 9626 9
1 9627 4
1 9628 2
1 9629 1
1 9630 3
1 9631 2
1 9632 2
1 9633 4
1 9634 1
1 9635 11
1 9637 20
1 9638 1
1 9639 16
1 9640 29
1 9641 4
1 9642 4
1 9643 2
1 9645 4
1 9646 3
1 9647 49
1 9648 4
1 9649 44
1 9650 2
1 9651 3
1 9652 3
1 9653 353
1 9655 35
1 9656 17
1 9657 5
1 9658 1
1 9659 28
1 9660 1
1 9661 4
1 9662 3
1 9663 22
1 9664 4
1 9666 5
1 9667 4
1 9668 2
1 9669 8
1 9670 2
1 9671 1
1 9672 2
1 9673 4
1 9674 18
1 9675 2
1 9676 7
1 9677 2
1 9678 834
1 9679 51
1 9680 29
1 9681 1
1 9682 2
1 9683 17
1 9684 8
1 9685 4
1 9686 2
1 9687 1
1 9688 2
1 9689 2
1 9690 600
1 9692 10
1 9693 6
1 9694 22
1 9695 2
1 9696 2
1 9697 44
1 9698 14
1 9699 1
1 9700 1
1 9701 20
1 9702 30
1 9703 7
1 9704 10
1 9705 1
1 9706 16
1 9707 3
1 9708 14
1 9709 13
1 9710 1
1 9711 15
1 9712 4
1 9713 16
1 9714 2
1 9715 2
1 9716 14
1 9717 39
1 9718 3
1 9719 8
1 9720 2
1 9722 4
1 9723 15
1 9724 3
1 9725 16
1 9726 809
1 9727 1
1 9728 3
1 9729 1142
1 9730 9
1 9731 1
1 9732 167
1 9733 1
1 9734 270
1 9735 4
1 9736 1
1 9737 24
1 9738 10
1 9739 1
1 9741 8
1 9742 3
1 9743 14
1 9744 15
1 9745 37
1 9746 1
1 9747 8
1 9748 29
1 9749 5
1 9750 2
1 9751 3
1 9753 17
1 9754 13
1 9755 1
1 9756 29
1 9757 13
1 9758 4
1 9759 3
1 9760 2
1 9761 3
1 9762 2
1 9763 1
1 9764 3
1 9765 3
1 9766 56
1 9767 18
1 9768 3
1 9769 31
1 9771 1
1 9772 7
1 9773 17
1 9774 3
1 9775 2
1 9777 5
1 9778 1
1 9779 3
1 9780 3
1 9781 22
1 9782 1
1 9783 12
1 9784 8
1 9785 4
1 9786 3
1 9787 2
1 9788 11
1 9789 1
1 9790 37
1 9791 3
1 9792 9
1 9793 14
1 9794 46
1 9795 1
1 9796 2
1 9797 2
1 9799 11
1 9800 11
1 9801 3
1 9803 2
1 9804 33
1 9806 3
1 9807 3
1 9808 1
1 9809 1
1 9810 2
1 9811 1
1 9812 34
1 9813 51
1 9814 1
1 9816 3
1 9818 3
1 9819 27
1 9820 14
1 9821 1
1 9822 1
1 9823 999
1 9824 1
1 9825 663
1 9826 2
1 9827 37
1 9828 1
1 9829 11
1 9830 36
1 9831 2
1 9832 3
1 9833 1
1 9835 12
1 9836 2
1 9837 3
1 9838 7
1 9839 3
1 9840 1
1 9841 3
1 9842 55
1 9843 1
1 9844 13
1 9845 42
1 9846 2
1 9847 4
1 9848 2
1 9849 3
1 9850 3
1 9851 6
1 9852 8
1 9853 1
1 9854 2
1 9855 4
1 9856 3
1 9857 3
1 9858 2
1 9859 1
1 9860 28
1 9861 1
1 9862 6
1 9863 15
1 9864 1
1 9866 15
1 9867 2
1 9868 1
1 9869 3
1 9870 33
1 9871 3
1 9872 3
1 9873 6
1 9874 883
1 9875 1
1 9876 1
1 9877 17
1 9878 2
1 9879 25
1 9880 3
1 9881 1
1 9882 2
1 9883 2
1 9884 17
1 9886 14
1 9887 4
1 9889 31
1 9890 4
1 9891 4
1 9892 16
1 9893 1
1 9894 1
1 9895 3
1 9896 9
1 9897 2
1 9898 25
1 9899 2
1 9900 18
1 9901 2
1 9902 23
1 9903 3
1 9904 3
1 9905 36
1 9906 2
1 9907 1
1 9908 7
1 9909 3
1 9910 3
1 9911 26
1 9912 11
1 9913 8
1 9914 2
1 9915 3
1 9916 11
1 9917 4
1 9918 1
1 9919 2
1 9920 6
1 9921 2
1 9922 10
1 9923 2
1 9924 1
1 9925 12
1 9926 3
1 9927 69
1 9928 1
1 9929 5
1 9930 4
1 9931 831
1 9932 8
1 9934 1
1 9935 6
1 9936 22
1 9937 1
1 9938 1
1 9939 2
1 9940 3
1 9941 5
1 9942 2
1 9943 1
1 9944 4
1 9945 231
1 9946 45
1 9947 6
1 9948 5
1 9949 3
1 9950 5
1 9951 1
1 9953 7
1 9954 17
1 9955 3
1 9956 2
1 9957 2
1 9958 5
1 9959 1
1 9960 6
1 9961 9
1 9962 19
1 9963 10
1 9964 1
1 9965 2
1 9967 1005
1 9968 22
1 9969 8
1 9970 1
1 9971 5
1 9972 34
1 9974 6
1 9975 3
1 9976 15
1 9977 40
1 9980 409
1 9981 7
1 9982 987
1 9983 5
1 9984 3
1 9985 2
1 9986 26
1 9987 12
1 9988 31
1 9989 39
1 9990 22
1 9991 13
1 9992 2
1 9994 22
1 9995 21
1 9997 13
1 9998 2
1 9999 21
1 10000 1166
1 10001 1263
1 10002 25
1 10003 16
1 10004 2
1 10006 18
1 10008 22
1 10009 11
1 10010 10
1 10011 1
1 10014 2
1 10015 2
1 10017 4
1 10018 12
1 10019 2
1 10020 5
1 10021 7
1 10023 3
1 10024 33
1 10025 1
1 10026 16
1 10027 14
1 10028 38
1 10029 14
1 10030 4
1 10031 3
1 10032 11
1 10033 13
1 10034 15
1 10035 49
1 10036 3
1 10037 2
1 10039 2
1 10040 2
1 10041 6
1 10042 37
1 10043 10
1 10044 28
1 10045 23
1 10046 2
1 10047 1
1 10049 26
1 10050 2
1 10051 11
1 10052 1
1 10053 7
1 10054 14
1 10055 2
1 10056 1
1 10057 18
1 10058 7
1 10059 4
1 10060 11
1 10061 3
1 10063 1
1 10065 5
1 10066 3
1 10067 6
1 10068 19
1 10069 3
1 10070 3
1 10071 7
1 10072 1113
1 10073 1
1 10074 1
1 10075 1
1 10076 55
1 10078 1
1 10079 3
1 10080 2
1 10081 2
1 10083 1
1 10084 10
1 10086 8
1 10087 2
1 10088 3
1 10089 4
1 10090 8
1 10091 15
1 10092 1
1 10093 20
1 10094 1
1 10095 9
1 10096 1
1 10097 1
1 10098 18
1 10099 5
1 10100 34
1 10101 4
1 10102 9
1 10103 9
1 10104 3
1 10105 1259
1 10106 11
1 10107 22
1 10108 2
1 10109 2
1 10110 1
1 10111 1
1 10112 3
1 10113 1
1 10114 29
1 10115 717
1 10116 3
1 10117 3
1 10118 29
1 10119 13
1 10120 16
1 10121 3
1 10122 1
1 10125 13
1 10126 2
1 10127 3
1 10128 5
1 10130 4
1 10131 2
1 10132 3
1 10133 2
1 10134 19
1 10135 2
1 10136 2
1 10137 10
1 10138 3
1 10139 1
1 10140 1
1 10141 55
1 10142 7
1 10144 1265
1 10145 5
1 10146 1085
1 10147 813
1 10148 2
1 10149 7
1 10150 3
1 10151 2
1 10152 15
1 10154 5
1 10155 2
1 10156 5
1 10157 39
1 10158 1
1 10159 12
1 10160 2
1 10161 14
1 10162 15
1 10163 2
1 10164 1
1 10167 7
1 10168 10
1 10169 4
1 10170 1
1 10171 3
1 10172 7
1 10173 2
1 10174 1
1 10175 2
1 10176 18
1 10177 3
1 10179 19
1 10180 16
1 10181 64
1 10182 14
1 10183 4
1 10184 1
1 10185 3
1 10186 5
1 10187 1
1 10188 2
1 10189 11
1 10190 11
1 10191 18
1 10192 2
1 10193 10
1 10194 1
1 10195 28
1 10196 1
1 10197 1
1 10198 41
1 10201 24
1 10202 3
1 10203 1
1 10204 17
1 10205 3
1 10206 1
1 10207 14
1 10208 6
1 10209 10
1 10210 5
1 10211 1
1 10212 9
1 10213 20
1 10214 1
1 10215 3
1 10216 2
1 10217 17
1 10218 2
1 10219 24
1 10220 18
1 10221 15
1 10222 9
1 10223 9
1 10224 6
1 10225 2
1 10226 2
1 10227 680
1 10228 22
1 10229 13
1 10230 10
1 10231 1
1 10233 2
1 10234 47
1 10235 6
1 10237 4
1 10238 7
1 10239 4
1 10240 30
1 10241 2
1 10242 55
1 10243 9
1 10244 2
1 10245 5
1 10246 978
1 10247 2
1 10248 14
1 10249 1
1 10250 2
1 10251 1
1 10252 7
1 10253 1
1 10254 3
1 10255 3
1 10256 32
1 10257 2
1 10258 20
1 10259 1
1 10261 14
1 10262 5
1 10264 9
1 10265 2
1 10266 11
1 10267 3
1 10268 3
1 10269 2
1 10270 25
1 10271 6
1 10272 2
1 10273 1131
1 10274 3
1 10275 10
1 10276 22
1 10277 1
1 10278 9
1 10279 1
1 10280 1
1 10281 1
1 10282 2
1 10283 8
1 10284 32
1 10285 4
1 10287 5
1 10288 27
1 10289 1
1 10290 2
1 10291 1
1 10292 9
1 10293 26
1 10295 3
1 10296 24
1 10297 35
1 10298 53
1 10299 8
1 10300 24
1 10301 6
1 10302 3
1 10303 12
1 10304 19
1 10305 3
1 10306 2
1 10308 7
1 10309 13
1 10310 51
1 10311 2
1 10312 3
1 10313 1
1 10314 7
1 10315 10
1 10317 42
1 10318 17
1 10319 3
1 10320 6
1 10321 14
1 10322 17
1 10323 3
1 10324 14
1 10325 23
1 10326 3
1 10327 141
1 10328 10
1 10330 3
1 10331 13
1 10332 1
1 10333 1
1 10334 1
1 10335 33
1 10336 4
1 10337 3
1 10339 21
1 10340 26
1 10341 4
1 10342 1
1 10343 1
1 10346 1
1 10347 5
1 10349 4
1 10351 1
1 10352 1
1 10353 624
1 10354 4
1 10355 18
1 10356 4
1 10357 22
1 10358 3
1 10359 16
1 10360 1
1 10361 1
1 10362 4
1 10363 1187
1 10364 10
1 10365 2
1 10366 7
1 10368 2
1 10369 8
1 10370 18
1 10371 3
1 10373 6
1 10374 3
1 10375 1
1 10376 2
1 10377 9
1 10378 1
1 10379 46
1 10380 2
1 10381 2
1 10382 2
1 10383 20
1 10384 6
1 10387 2
1 10388 1
1 10389 4
1 10390 41
1 10391 1
1 10392 3
1 10393 10
1 10394 1
1 10396 13
1 10398 3
1 10399 2
1 10400 3
1 10401 4
1 10402 1
1 10403 1
1 10404 19
1 10405 12
1 10406 121
1 10407 2
1 10408 1
1 10409 5
1 10410 22
1 10411 11
1 10412 6
1 10413 29
1 10414 1
1 10415 10
1 10416 3
1 10417 10
1 10418 45
1 10419 1
1 10420 37
1 10421 3
1 10422 479
1 10423 3
1 10424 28
1 10425 32
1 10426 2
1 10428 7
1 10429 69
1 10430 4
1 10431 18
1 10432 28
1 10433 3
1 10434 4
1 10435 5
1 10436 16
1 10437 21
1 10438 6
1 10440 18
1 10442 3
1 10443 52
1 10444 3
1 10445 3
1 10446 16
1 10447 14
1 10448 9
1 10449 2
1 10450 31
1 10451 3
1 10452 3
1 10453 3
1 10455 4
1 10457 2
1 10458 16
1 10459 1305
1 10460 1
1 10461 16
1 10462 10
1 10463 3
1 10464 361
1 10465 3
1 10466 16
1 10467 16
1 10468 17
1 10469 4
1 10471 25
1 10472 1
1 10473 15
1 10474 12
1 10475 3
1 10476 3
1 10477 20
1 10479 2
1 10480 3
1 10481 6
1 10482 10
1 10483 14
1 10484 2
1 10485 3
1 10487 2
1 10488 3
1 10489 1
1 10491 13
1 10492 8
1 10493 2
1 10494 2
1 10495 19
1 10496 17
1 10497 1
1 10498 9
1 10499 27
1 10500 14
1 10501 12
1 10502 1
1 10503 3
1 10504 3
1 10505 2
1 10506 1
1 10508 5
1 10509 3
1 10510 20
1 10511 3
1 10512 30
1 10513 1
1 10514 2
1 10515 2
1 10516 19
1 10517 18
1 10518 2
1 10519 24
1 10520 1
1 10521 2
1 10522 55
1 10523 1
1 10524 37
1 10525 2
1 10526 6
1 10527 48
1 10528 29
1 10529 22
1 10530 1
1 10531 5
1 10532 10
1 10533 2
1 10534 32
1 10535 4
1 10536 11
1 10537 3
1 10538 7
1 10539 26
1 10540 2
1 10542 40
1 10544 46
1 10545 26
1 10546 4
1 10547 13
1 10548 2
1 10549 6
1 10551 6
1 10552 16
1 10554 4
1 10555 6
1 10556 4
1 10557 2
1 10558 2
1 10559 4
1 10560 3
1 10561 6
1 10562 3
1 10563 5
1 10564 5
1 10565 11
1 10566 18
1 10567 2
1 10568 1
1 10569 3
1 10570 3
1 10571 17
1 10572 28
1 10573 29
1 10574 1
1 10575 4
1 10579 30
1 10580 14
1 10581 2
1 10582 9
1 10583 508
1 10584 2
1 10585 2
1 10586 10
1 10587 404
1 10588 27
1 10589 97
1 10590 11
1 10591 3
1 10592 34
1 10594 11
1 10595 5
1 10596 1
1 10597 33
1 10598 13
1 10599 1
1 10600 2
1 10601 2
1 10602 4
1 10603 1
1 10604 16
1 10605 1
1 10606 16
1 10607 2
1 10608 2
1 10609 4
1 10610 4
1 10611 13
1 10612 3
1 10613 2
1 10614 2
1 10615 38
1 10616 1
1 10617 2
1 10618 1
1 10619 1
1 10620 6
1 10621 14
1 10622 2
1 10623 1
1 10624 11
1 10625 2
1 10626 15
1 10627 2
1 10628 1
1 10629 13
1 10630 6
1 10631 2
1 10632 10
1 10633 1
1 10634 1
1 10635 3
1 10636 10
1 10637 3
1 10638 1
1 10639 1
1 10640 2
1 10641 1
1 10642 1
1 10643 2
1 10644 17
1 10645 13
1 10646 9
1 10647 6
1 10648 24
1 10649 27
1 10650 13
1 10651 6
1 10652 2
1 10653 1
1 10654 1
1 10656 46
1 10657 6
1 10658 21
1 10659 6
1 10661 3
1 10662 12
1 10663 4
1 10664 5
1 10665 2
1 10666 4
1 10667 3
1 10668 14
1 10669 1
1 10670 12
1 10671 507
1 10672 1
1 10673 3
1 10674 1312
1 10675 1
1 10676 4
1 10677 38
1 10678 3
1 10679 1
1 10680 10
1 10681 2
1 10682 1
1 10683 12
1 10684 17
1 10685 4
1 10686 4
1 10687 2
1 10688 10
1 10689 2
1 10690 2
1 10691 24
1 10692 11
1 10693 14
1 10694 2
1 10695 2
1 10696 10
1 10697 6
1 10698 5
1 10699 5
1 10700 19
1 10702 23
1 10703 29
1 10704 41
1 10705 1
1 10706 3
1 10707 11
1 10708 2
1 10709 6
1 10710 1
1 10711 45
1 10712 1
1 10713 19
1 10714 3
1 10715 32
1 10716 14
1 10717 30
1 10718 38
1 10719 10
1 10720 4
1 10721 18
1 10722 2
1 10723 6
1 10725 3
1 10726 38
1 10727 437
1 10728 57
1 10729 3
1 10730 21
1 10731 3
1 10732 5
1 10733 3
1 10734 14
1 10735 3
1 10736 2
1 10737 3
1 10738 5
1 10739 1
1 10740 1
1 10741 2
1 10742 1
1 10743 73
1 10744 1
1 10745 1
1 10746 30
1 10747 1
1 10748 1
1 10749 20
1 10750 30
1 10751 1
1 10752 2
1 10753 12
1 10754 15
1 10755 47
1 10756 11
1 10758 43
1 10759 3
1 10761 10
1 10762 11
1 10763 6
1 10764 9
1 10765 3
1 10767 10
1 10768 21
1 10769 164
1 10770 2
1 10771 3
1 10772 14
1 10773 7
1 10774 25
1 10775 1
1 10776 51
1 10778 2
1 10779 4
1 10781 12
1 10782 4
1 10783 17
1 10784 2
1 10785 3
1 10786 7
1 10787 1
1 10788 22
1 10789 4
1 10790 6
1 10791 13
1 10792 4
1 10793 4
1 10794 1
1 10795 4
1 10796 1
1 10797 5
1 10798 2
1 10799 7
1 10800 56
1 10801 5
1 10802 2
1 10803 3
1 10804 5
1 10805 27
1 10806 1
1 10807 1
1 10808 1147
1 10809 12
1 10810 954
1 10812 3
1 10813 10
1 10814 3
1 10815 15
1 10816 8
1 10818 2
1 10819 3
1 10821 15
1 10822 3
1 10823 3
1 10825 4
1 10826 22
1 10827 1
1 10828 18
1 10830 1208
1 10831 85
1 10833 3
1 10834 2
1 10835 1
1 10836 7
1 10837 3
1 10838 21
1 10839 48
1 10840 3
1 10841 42
1 10843 9
1 10844 3
1 10845 12
1 10846 26
1 10848 3
1 10849 9
1 10850 1
1 10851 5
1 10853 2
1 10854 3
1 10855 3
1 10856 26
1 10857 51
1 10858 43
1 10859 6
1 10860 36
1 10861 2
1 10862 3
1 10863 4
1 10864 29
1 10865 31
1 10866 6
1 10867 1
1 10868 4
1 10869 10
1 10870 6
1 10871 1
1 10872 5
1 10874 2
1 10875 19
1 10876 2
1 10877 14
1 10878 1
1 10879 41
1 10880 2
1 10881 4
1 10882 40
1 10883 35
1 10884 25
1 10885 2
1 10886 2
1 10887 16
1 10888 9
1 10889 10
1 10890 2
1 10891 13
1 10892 8
1 10893 5
1 10895 4
1 10896 3
1 10897 14
1 10898 3
1 10899 7
1 10900 3
1 10901 9
1 10902 4
1 10903 5
1 10904 2
1 10905 5
1 10906 2
1 10907 4
1 10908 9
1 10909 1
1 10910 1
1 10911 2
1 10912 21
1 10913 6
1 10914 1
1 10915 7
1 10916 3
1 10917 7
1 10918 3
1 10919 4
1 10920 2
1 10921 8
1 10922 15
1 10923 1
1 10924 389
1 10925 1
1 10926 1
1 10927 2
1 10928 2
1 10929 8
1 10930 80
1 10932 1
1 10933 46
1 10934 4
1 10935 7
1 10936 3
1 10937 16
1 10938 4
1 10939 18
1 10940 23
1 10941 3
1 10942 1
1 10943 28
1 10944 3
1 10945 26
1 10946 5
1 10947 2
1 10948 12
1 10949 21
1 10950 1
1 10951 14
1 10953 2
1 10954 1
1 10955 2
1 10956 2
1 10957 7
1 10959 16
1 10960 4
1 10961 3
1 10962 1
1 10963 1
1 10964 2
1 10965 31
1 10966 5
1 10968 28
1 10969 12
1 10970 1
1 10971 3
1 10972 29
1 10973 8
1 10974 18
1 10975 1
1 10976 13
1 10977 2
1 10980 1
1 10981 10
1 10982 1310
1 10983 40
1 10984 1
1 10985 37
1 10987 324
1 10988 21
1 10989 4
1 10990 3
1 10991 2
1 10992 2
1 10993 4
1 10994 2
1 10995 2
1 10996 1
1 10997 1
1 10999 5
1 11000 1
1 11001 5
1 11002 2
1 11003 2
1 11004 2
1 11005 2
1 11006 12
1 11007 5
1 11008 1
1 11009 10
1 11010 8
1 11011 1
1 11012 8
1 11013 6
1 11014 32
1 11015 1222
1 11016 7
1 11017 20
1 11018 32
1 11019 10
1 11020 4
1 11021 1
1 11022 21
1 11023 1
1 11024 2
1 11025 3
1 11026 705
1 11027 31
1 11028 1257
1 11029 1
1 11030 3
1 11031 23
1 11032 1
1 11033 5
1 11034 24
1 11035 36
1 11036 39
1 11038 22
1 11039 748
1 11040 4
1 11041 3
1 11042 4
1 11043 3
1 11044 8
1 11045 6
1 11046 3
1 11047 2
1 11048 26
1 11049 3
1 11050 2
1 11051 4
1 11052 3
1 11053 2
1 11054 18
1 11055 25
1 11056 2
1 11057 1
1 11058 20
1 11059 29
1 11060 5
1 11061 3
1 11062 2
1 11063 2
1 11064 31
1 11065 8
1 11066 9
1 11067 3
1 11069 26
1 11071 6
1 11072 3
1 11073 3
1 11074 8
1 11075 6
1 11076 3
1 11077 49
1 11078 17
1 11079 7
1 11080 15
1 11081 1
1 11082 2
1 11083 9
1 11084 2
1 11085 3
1 11086 17
1 11087 12
1 11088 1
1 11089 34
1 11090 241
1 11091 11
1 11092 4
1 11093 20
1 11094 1
1 11095 3
1 11096 9
1 11098 8
1 11099 2
1 11100 1
1 11101 1
1 11102 3
1 11103 12
1 11104 6
1 11105 6
1 11106 14
1 11107 37
1 11108 2
1 11109 10
1 11110 2
1 11111 1
1 11112 1
1 11113 3
1 11114 4
1 11115 1
1 11116 61
1 11117 19
1 11118 14
1 11119 7
1 11120 8
1 11121 28
1 11122 33
1 11123 9
1 11124 3
1 11125 4
1 11126 1
1 11127 12
1 11128 2
1 11129 13
1 11130 2
1 11131 3
1 11132 3
1 11133 15
1 11134 11
1 11135 6
1 11136 1
1 11137 1
1 11138 27
1 11139 2
1 11140 42
1 11141 3
1 11142 1
1 11143 17
1 11144 5
1 11145 1
1 11146 4
1 11147 4
1 11148 1
1 11149 2
1 11150 11
1 11151 1
1 11152 20
1 11153 3
1 11154 4
1 11155 1052
1 11156 26
1 11157 2
1 11158 1
1 11159 27
1 11160 6
1 11161 14
1 11162 28
1 11163 22
1 11164 32
1 11165 1
1 11166 4
1 11167 5
1 11168 38
1 11169 2
1 11170 3
1 11171 10
1 11172 12
1 11173 1
1 11174 1
1 11175 2
1 11176 14
1 11177 1
1 11178 6
1 11179 1
1 11180 1
1 11181 3
1 11182 3
1 11183 1
1 11184 1
1 11186 2
1 11187 4
1 11188 1
1 11189 30
1 11190 13
1 11191 2
1 11192 2
1 11193 34
1 11194 37
1 11196 32
1 11197 4
1 11198 8
1 11199 33
1 11200 1
1 11201 10
1 11202 2
1 11203 5
1 11204 4
1 11205 31
1 11206 3
1 11207 2
1 11208 1
1 11209 11
1 11210 7
1 11211 5
1 11212 2
1 11213 15
1 11214 17
1 11215 40
1 11216 1
1 11217 25
1 11218 47
1 11219 1
1 11220 14
1 11222 23
1 11223 3
1 11224 3
1 11225 1
1 11226 15
1 11227 2
1 11228 3
1 11229 1
1 11230 22
1 11232 18
1 11233 6
1 11234 1133
1 11235 24
1 11236 3
1 11237 19
1 11238 2
1 11239 29
1 11240 3
1 11241 1
1 11242 15
1 11243 2
1 11244 3
1 11245 6
1 11246 13
1 11247 1
1 11248 14
1 11249 4
1 11250 2
1 11251 5
1 11252 56
1 11253 10
1 11254 21
1 11255 1
1 11256 21
1 11257 972
1 11259 5
1 11260 2
1 11261 1
1 11262 35
1 11263 38
1 11264 3
1 11265 3
1 11266 3
1 11267 2
1 11268 1
1 11269 2
1 11270 1
1 11271 10
1 11272 2
1 11273 1
1 11274 31
1 11275 16
1 11276 2
1 11277 3
1 11278 1
1 11279 10
1 11280 24
1 11281 1193
1 11282 2
1 11284 3
1 11285 1
1 11286 1
1 11287 2
1 11288 1
1 11289 3
1 11290 39
1 11291 3
1 11292 65
1 11293 3
1 11294 10
1 11295 2
1 11296 2
1 11297 34
1 11298 4
1 11299 15
1 11300 10
1 11301 8
1 11302 6
1 11303 4
1 11304 1
1 11305 17
1 11306 2
1 11307 2
1 11308 7
1 11309 13
1 11310 3
1 11311 7
1 11312 4
1 11313 48
1 11314 15
1 11315 26
1 11316 17
1 11317 45
1 11318 4
1 11319 5
1 11320 3
1 11321 1
1 11322 63
1 11323 24
1 11324 6
1 11325 1
1 11326 9
1 11327 8
1 11328 1
1 11329 3
1 11330 9
1 11331 2
1 11332 4
1 11333 11
1 11334 3
1 11335 9
1 11336 15
1 11337 3
1 11338 16
1 11339 1
1 11340 21
1 11341 19
1 11342 4
1 11343 2
1 11344 12
1 11345 16
1 11346 23
1 11347 3
1 11348 3
1 11349 31
1 11351 15
1 11352 2
1 11353 414
1 11354 940
1 11355 10
1 11356 50
1 11357 13
1 11359 3
1 11360 2
1 11361 20
1 11362 33
1 11363 2
1 11364 2
1 11365 8
1 11366 3
1 11367 9
1 11368 3
1 11369 1000
1 11370 39
1 11371 2
1 11372 12
1 11373 17
1 11374 12
1 11376 37
1 11377 29
1 11378 1
1 11379 51
1 11380 6
1 11381 22
1 11382 14
1 11383 2
1 11384 4
1 11385 12
1 11386 8
1 11387 30
1 11388 11
1 11390 14
1 11391 2
1 11392 1
1 11393 4
1 11394 1
1 11395 8
1 11396 16
1 11397 10
1 11398 40
1 11399 5
1 11400 2
1 11401 26
1 11402 1
1 11403 95
1 11404 8
1 11405 3
1 11406 15
1 11407 4
1 11408 1
1 11409 3
1 11410 28
1 11411 1
1 11412 1
1 11413 1
1 11414 1
1 11415 2
1 11416 8
1 11417 4
1 11418 3
1 11419 24
1 11420 30
1 11421 21
1 11422 3
1 11423 2
1 11424 1
1 11425 3
1 11426 31
1 11427 44
1 11428 1
1 11429 2
1 11430 2
1 11431 2
1 11432 7
1 11433 1
1 11434 5
1 11436 10
1 11437 1
1 11438 4
1 11439 12
1 11440 7
1 11441 2
1 11442 4
1 11444 639
1 11445 5
1 11446 28
1 11447 19
1 11448 7
1 11449 2
1 11450 3
1 11451 10
1 11452 1
1 11453 11
1 11454 12
1 11455 25
1 11456 1
1 11457 2
1 11458 3
1 11459 1107
1 11460 3
1 11461 6
1 11462 16
1 11463 5
1 11464 1
1 11465 29
1 11466 8
1 11467 4
1 11468 16
1 11469 8
1 11470 14
1 11471 25
1 11472 2
1 11474 3
1 11475 26
1 11476 2
1 11477 7
1 11478 11
1 11479 560
1 11480 4
1 11482 3
1 11483 1
1 11484 4
1 11485 3
1 11486 3
1 11487 24
1 11488 3
1 11489 2
1 11490 3
1 11492 4
1 11493 3
1 11494 23
1 11495 2
1 11496 9
1 11497 2
1 11499 17
1 11500 4
1 11501 4
1 11502 10
1 11503 30
1 11504 1
1 11505 23
1 11506 4
1 11507 20
1 11508 3
1 11510 1
1 11511 17
1 11513 57
1 11514 48
1 11515 2
1 11516 45
1 11517 15
1 11518 1
1 11519 773
1 11520 15
1 11521 13
1 11522 23
1 11523 14
1 11525 22
1 11526 6
1 11527 18
1 11528 11
1 11529 4
1 11531 1
1 11532 1
1 11533 17
1 11534 2
1 11535 1
1 11536 4
1 11537 4
1 11538 7
1 11539 29
1 11540 2
1 11541 5
1 11543 2
1 11544 26
1 11545 38
1 11546 38
1 11548 100
1 11549 13
1 11550 2
1 11551 3
1 11552 2
1 11553 2
1 11554 18
1 11555 4
1 11556 11
1 11557 2
1 11558 3
1 11559 61
1 11560 5
1 11561 620
1 11562 1
1 11563 1
1 11564 2
1 11565 14
1 11566 16
1 11567 3
1 11568 24
1 11569 5
1 11570 7
1 11571 4
1 11572 2
1 11573 20
1 11574 23
1 11575 3
1 11576 27
1 11577 24
1 11578 1192
1 11579 40
1 11580 16
1 11581 20
1 11582 4
1 11584 981
1 11585 2
1 11586 2
1 11587 4
1 11588 2
1 11589 2
1 11590 8
1 11591 1
1 11592 6
1 11593 8
1 11594 2
1 11595 7
1 11596 13
1 11597 1
1 11598 3
1 11599 1
1 11600 5
1 11601 1
1 11602 1
1 11605 35
1 11606 30
1 11607 15
1 11608 31
1 11609 5
1 11610 13
1 11611 1
1 11612 1
1 11613 22
1 11614 3
1 11615 3
1 11616 35
1 11617 15
1 11618 62
1 11619 1
1 11620 1
1 11621 24
1 11622 1
1 11623 1
1 11624 12
1 11625 1
1 11626 2
1 11627 3
1 11628 8
1 11629 1241
1 11630 1
1 11631 3
1 11632 12
1 11633 1
1 11634 5
1 11635 10
1 11636 2
1 11637 2
1 11638 3
1 11639 2
1 11640 2
1 11641 2
1 11642 3
1 11643 3
1 11644 1
1 11646 10
1 11647 2
1 11648 1
1 11649 55
1 11650 5
1 11651 7
1 11652 14
1 11653 13
1 11654 2
1 11655 16
1 11657 1
1 11658 2
1 11659 9
1 11660 6
1 11661 12
1 11662 25
1 11663 15
1 11664 9
1 11665 28
1 11666 28
1 11668 1
1 11669 5
1 11670 15
1 11671 53
1 11672 6
1 11673 4
1 11674 8
1 11675 10
1 11676 22
1 11677 23
1 11678 6
1 11679 1
1 11681 1
1 11682 107
1 11683 30
1 11684 1
1 11685 7
1 11686 5
1 11687 17
1 11688 21
1 11689 2
1 11690 18
1 11691 11
1 11692 28
1 11693 7
1 11695 1
1 11696 3
1 11697 1196
1 11698 2
1 11699 8
1 11701 2
1 11702 5
1 11703 3
1 11704 6
1 11705 11
1 11707 40
1 11708 36
1 11710 31
1 11711 1
1 11712 11
1 11713 10
1 11714 628
1 11715 4
1 11716 3
1 11717 2
1 11718 1
1 11719 1
1 11720 81
1 11721 1
1 11722 3
1 11723 14
1 11724 3
1 11725 3
1 11726 7
1 11727 1
1 11728 3
1 11729 14
1 11730 24
1 11731 19
1 11732 1
1 11733 13
1 11736 1
1 11737 7
1 11738 1
1 11740 2
1 11741 3
1 11743 2
1 11744 13
1 11745 39
1 11746 7
1 11747 1
1 11749 12
1 11750 3
1 11751 2
1 11752 2
1 11753 13
1 11754 50
1 11755 3
1 11756 667
1 11757 3
1 11758 3
1 11759 26
1 11760 3
1 11761 12
1 11762 12
1 11763 20
1 11764 1
1 11765 4
1 11768 13
1 11769 2
1 11770 5
1 11771 2
1 11772 3
1 11773 3
1 11774 1
1 11775 6
1 11776 8
1 11777 4
1 11778 9
1 11779 2
1 11780 4
1 11781 1
1 11782 3
1 11783 30
1 11784 5
1 11785 10
1 11786 29
1 11787 10
1 11788 2
1 11789 2
1 11791 1
1 11792 16
1 11793 1
1 11794 25
1 11795 7
1 11796 9
1 11797 2
1 11798 4
1 11799 3
1 11800 4
1 11801 20
1 11802 2
1 11803 3
1 11804 1
1 11805 5
1 11806 1
1 11807 792
1 11808 19
1 11809 1
1 11810 3
1 11811 1
1 11812 2
1 11813 4
1 11814 2
1 11815 16
1 11816 4
1 11817 3
1 11818 29
1 11819 11
1 11820 19
1 11821 4
1 11822 19
1 11823 4
1 11824 5
1 11825 230
1 11826 16
1 11827 3
1 11828 3
1 11830 5
1 11831 46
1 11832 8
1 11833 2
1 11834 4
1 11835 21
1 11836 6
1 11837 3
1 11838 3
1 11839 41
1 11840 2
1 11841 32
1 11842 7
1 11843 7
1 11844 4
1 11847 14
1 11849 3
1 11850 4
1 11851 3
1 11852 3
1 11853 11
1 11854 5
1 11855 6
1 11856 2
1 11857 2
1 11858 2
1 11859 22
1 11860 3
1 11861 2
1 11862 26
1 11863 5
1 11864 1
1 11866 12
1 11867 24
1 11869 21
1 11870 36
1 11871 26
1 11872 3
1 11873 13
1 11874 1
1 11875 7
1 11876 18
1 11877 1
1 11879 3
1 11880 1
1 11881 8
1 11882 35
1 11883 24
1 11884 13
1 11885 2
1 11886 4
1 11887 4
1 11888 3
1 11889 61
1 11890 15
1 11892 25
1 11894 5
1 11895 2
1 11896 16
1 11897 6
1 11898 2
1 11899 5
1 11900 45
1 11901 4
1 11902 18
1 11903 3
1 11904 37
1 11905 6
1 11906 3
1 11907 8
1 11908 10
1 11909 12
1 11910 4
1 11911 884
1 11912 3
1 11913 3
1 11914 2
1 11915 5
1 11916 3
1 11919 13
1 11920 4
1 11921 5
1 11922 16
1 11923 2
1 11924 3
1 11925 2
1 11926 1
1 11927 12
1 11928 42
1 11929 4
1 11930 6
1 11931 58
1 11932 2
1 11933 13
1 11934 1
1 11935 2
1 11936 26
1 11937 13
1 11938 1
1 11939 4
1 11940 1
1 11941 32
1 11942 2
1 11943 15
1 11944 3
1 11945 11
1 11946 27
1 11947 7
1 11948 17
1 11950 12
1 11951 3
1 11952 3
1 11953 6
1 11954 14
1 11955 35
1 11956 1
1 11957 4
1 11958 3
1 11959 5
1 11960 25
1 11961 22
1 11962 17
1 11963 1
1 11965 1
1 11966 6
1 11967 12
1 11968 1
1 11969 4
1 11970 9
1 11971 1
1 11972 4
1 11973 2
1 11974 2
1 11975 2
1 11976 21
1 11977 2
1 11978 2
1 11979 31
1 11981 1
1 11982 1
1 11983 6
1 11984 38
1 11985 3
1 11986 716
1 11987 12
1 11988 6
1 11989 2
1 11990 16
1 11991 2
1 11992 2
1 11993 2
1 11994 3
1 11995 18
1 11996 9
1 11997 32
1 11998 3
1 11999 4
1 12003 4
1 12004 1
1 12005 3
1 12006 4
1 12007 1
1 12008 7
1 12009 28
1 12010 2
1 12011 6
1 12012 1
1 12013 2
1 12014 3
1 12015 227
1 12016 6
1 12017 734
1 12018 7
1 12019 7
1 12020 4
1 12022 20
1 12023 14
1 12024 2
1 12025 9
1 12026 3
1 12027 15
1 12028 1
1 12029 3
1 12030 4
1 12031 16
1 12032 1
1 12034 31
1 12035 6
1 12036 18
1 12037 33
1 12038 6
1 12039 9
1 12040 13
1 12041 3
1 12042 19
1 12043 1
1 12044 1
1 12045 84
1 12046 30
1 12047 13
1 12048 6
1 12049 23
1 12050 3
1 12051 2
1 12052 4
1 12053 1
1 12054 13
1 12055 34
1 12056 9
1 12058 8
1 12059 1
1 12060 11
1 12061 20
1 12062 7
1 12063 2
1 12064 3
1 12065 4
1 12066 21
1 12067 22
1 12068 3
1 12070 11
1 12071 14
1 12072 5
1 12073 11
1 12074 30
1 12075 1
1 12076 20
1 12077 31
1 12078 27
1 12079 2
1 12081 2
1 12082 6
1 12083 3
1 12084 2
1 12085 20
1 12086 2
1 12087 3
1 12088 3
1 12089 7
1 12091 3
1 12092 222
1 12093 22
1 12095 24
1 12096 2
1 12098 6
1 12099 44
1 12100 3
1 12101 1
1 12102 2
1 12104 1126
1 12105 16
1 12106 5
1 12107 18
1 12108 1
1 12109 1
1 12110 3
1 12111 17
1 12112 1
1 12113 3
1 12114 2
1 12116 10
1 12117 19
1 12118 13
1 12120 21
1 12121 1069
1 12122 31
1 12123 1
1 12124 37
1 12126 5
1 12127 21
1 12128 42
1 12129 16
1 12130 46
1 12131 5
1 12132 26
1 12133 2
1 12134 15
1 12135 4
1 12136 24
1 12137 1
1 12138 3
1 12139 25
1 12140 7
1 12141 3
1 12142 14
1 12143 12
1 12145 7
1 12147 21
1 12148 3
1 12150 7
1 12151 4
1 12152 1
1 12153 4
1 12154 11
1 12156 8
1 12157 25
1 12158 3
1 12159 2
1 12160 2
1 12161 2
1 12162 3
1 12165 18
1 12167 2
1 12168 2
1 12169 4
1 12170 3
1 12171 1
1 12172 33
1 12173 5
1 12174 2
1 12175 44
1 12176 6
1 12177 3
1 12178 1
1 12179 6
1 12180 29
1 12181 16
1 12182 1
1 12183 3
1 12184 3
1 12185 2
1 12186 1
1 12188 10
1 12190 2
1 12191 2
1 12192 2
1 12193 2
1 12194 12
1 12195 2
1 12196 17
1 12197 21
1 12198 12
1 12199 3
1 12200 2
1 12201 3
1 12202 8
1 12203 3
1 12205 9
1 12206 4
1 12207 2
1 12208 11
1 12209 1
1 12210 14
1 12211 5
1 12212 1
1 12213 1
1 12214 9
1 12215 36
1 12216 3
1 12218 5
1 12219 14
1 12220 13
1 12221 29
1 12222 4
1 12223 2
1 12224 17
1 12226 10
1 12227 57
1 12228 27
1 12229 10
1 12230 8
1 12231 14
1 12232 6
1 12233 1
1 12234 5
1 12235 2
1 12237 6
1 12238 2
1 12239 24
1 12240 9
1 12242 29
1 12243 1
1 12244 13
1 12245 9
1 12246 4
1 12247 1
1 12248 15
1 12249 1
1 12250 13
1 12251 3
1 12252 1
1 12253 2
1 12254 2
1 12255 46
1 12256 11
1 12257 3
1 12259 4
1 12260 1
1 12262 4
1 12263 7
1 12265 1
1 12266 1
1 12267 4
1 12268 6
1 12269 10
1 12270 51
1 12271 17
1 12272 3
1 12273 3
1 12274 1
1 12275 19
1 12276 1
1 12277 24
1 12279 13
1 12280 7
1 12282 7
1 12283 12
1 12284 12
1 12285 517
1 12286 3
1 12287 2
1 12289 18
1 12291 4
1 12292 4
1 12293 28
1 12294 8
1 12295 10
1 12297 2
1 12298 2
1 12300 1
1 12301 3
1 12302 2
1 12303 2
1 12304 3
1 12306 24
1 12307 8
1 12308 1
1 12309 9
1 12310 16
1 12311 9
1 12312 8
1 12313 37
1 12314 41
1 12315 2
1 12316 3
1 12318 6
1 12319 6
1 12320 5
1 12321 9
1 12322 1
1 12323 1
1 12324 2
1 12326 23
1 12327 16
1 12328 2
1 12329 2
1 12330 1
1 12331 28
1 12332 2
1 12333 8
1 12334 16
1 12335 30
1 12336 12
1 12337 7
1 12339 53
1 12340 13
1 12341 12
1 12342 74
1 12343 4
1 12344 24
1 12345 1
1 12346 3
1 12347 25
1 12348 3
1 12349 1
1 12350 3
1 12352 2
1 12353 2
1 12354 3
1 12355 10
1 12356 7
1 12357 3
1 12359 8
1 12360 11
1 12361 1
1 12363 20
1 12364 9
1 12365 3
1 12366 6
1 12367 4
1 12369 1
1 12370 9
1 12371 2
1 12372 14
1 12374 2
1 12375 17
1 12376 11
1 12377 7
1 12378 13
1 12379 4
1 12383 64
1 12385 1
1 12386 2
1 12387 929
1 12388 2
1 12390 23
1 12391 3
1 12392 24
1 12393 8
1 12394 1
1 12395 5
1 12397 3
1 12398 4
1 12399 4
1 12400 42
1 12402 6
1 12403 3
1 12404 3
1 12405 11
1 12406 57
1 12407 1
1 12408 1
1 12410 1
1 12411 42
1 12412 15
1 12413 5
1 12414 14
1 12415 1
1 12416 1
1 12417 4
1 12418 1
1 12419 16
1 12420 7
1 12421 84
1 12422 16
1 12423 7
1 12424 2
1 12425 5
1 12426 1
1 12427 2
1 12428 3
1 12429 9
1 12430 2
1 12431 7
1 12432 4
1 12433 14
1 12434 1031
1 12435 7
1 12436 20
1 12437 5
1 12438 1
1 12439 479
1 12440 1
1 12442 1
1 12443 8
1 12444 2
1 12445 9
1 12446 18
1 12447 5
1 12448 3
1 12449 4
1 12450 3
1 12451 1
1 12452 4
1 12453 3
1 12454 3
1 12455 9
1 12456 13
1 12458 448
1 12459 12
1 12460 1
1 12461 3
1 12462 18
1 12463 8
1 12464 2
1 12465 3
1 12466 27
1 12467 1
1 12468 5
1 12469 46
1 12470 13
1 12471 4
1 12472 4
1 12473 1
1 12474 6
1 12475 18
1 12476 1
1 12477 2
1 12478 67
1 12480 1
1 12481 1
1 12482 13
1 12483 30
1 12485 6
1 12486 21
1 12488 18
1 12489 24
1 12490 2
1 12491 2
1 12492 2
1 12493 5
1 12494 4
1 12495 2
1 12496 2
1 12497 197
1 12498 3
1 12499 7
1 12501 3
1 12502 2
1 12503 22
1 12505 22
1 12506 25
1 12507 5
1 12508 10
1 12509 658
1 12510 646
1 12511 50
1 12512 2
1 12513 1
1 12514 12
1 12515 5
1 12516 19
1 12517 16
1 12518 14
1 12519 6
1 12520 1
1 12521 3
1 12522 7
1 12523 7
1 12524 1
1 12525 3
1 12526 5
1 12527 8
1 12528 2
1 12529 18
1 12530 2
1 12531 16
1 12532 4
1 12533 1
1 12534 1
1 12535 2
1 12536 303
1 12538 4
1 12539 21
1 12540 11
1 12541 21
1 12542 5
1 12543 2
1 12544 5
1 12545 2
1 12546 1
1 12547 3
1 12548 27
1 12549 11
1 12550 6
1 12551 2
1 12552 1
1 12553 3
1 12554 1
1 12555 9
1 12556 10
1 12557 1
1 12558 20
1 12559 26
1 12560 6
1 12561 2
1 12562 1
1 12563 6
1 12564 1
1 12565 2
1 12566 29
1 12567 1
1 12568 4
1 12569 3
1 12570 12
1 12571 15
1 12572 5
1 12573 3
1 12574 13
1 12575 15
1 12576 1
1 12577 3
1 12578 3
1 12579 2
1 12580 3
1 12581 5
1 12582 4
1 12583 2
1 12584 12
1 12585 5
1 12586 10
1 12588 2
1 12589 3
1 12590 17
1 12591 16
1 12592 2
1 12593 20
1 12594 32
1 12595 2
1 12596 1
1 12597 5
1 12598 2
1 12599 7
1 12600 9
1 12601 2
1 12602 23
1 12603 34
1 12605 32
1 12607 10
1 12610 4
1 12611 1
1 12612 4
1 12613 94
1 12614 11
1 12615 20
1 12616 2
1 12617 9
1 12618 1
1 12620 48
1 12621 2
1 12623 1
1 12624 1
1 12626 16
1 12627 3
1 12629 3
1 12630 6
1 12631 12
1 12632 4
1 12633 2
1 12634 4
1 12635 2
1 12636 17
1 12637 4
1 12639 9
1 12640 5
1 12641 37
1 12642 1234
1 12643 9
1 12644 5
1 12645 5
1 12646 3
1 12647 3
1 12648 24
1 12649 1
1 12650 25
1 12651 15
1 12652 7
1 12653 1
1 12654 24
1 12655 3
1 12656 16
1 12657 1
1 12658 6
1 12659 59
1 12660 1
1 12661 3
1 12662 21
1 12663 2
1 12664 9
1 12665 42
1 12667 25
1 12668 25
1 12669 1
1 12670 2
1 12671 1
1 12672 2
1 12673 7
1 12674 2
1 12675 1
1 12676 2
1 12677 4
1 12678 5
1 12679 1
1 12680 1
1 12681 18
1 12682 2
1 12683 2
1 12684 16
1 12685 4
1 12686 8
1 12687 6
1 12688 95
1 12689 1
1 12690 2
1 12691 26
1 12692 5
1 12693 4
1 12694 3
1 12695 21
1 12696 4
1 12698 11
1 12699 2
1 12700 11
1 12701 46
1 12702 4
1 12703 231
1 12704 1
1 12705 5
1 12707 2
1 12708 2
1 12709 2
1 12710 6
1 12711 28
1 12712 43
1 12713 37
1 12714 13
1 12715 2
1 12716 4
1 12718 16
1 12719 7
1 12720 2
1 12721 21
1 12722 10
1 12723 21
1 12724 2
1 12725 11
1 12726 5
1 12727 11
1 12728 2
1 12729 1
1 12730 21
1 12731 3
1 12732 2
1 12733 3
1 12734 1
1 12735 15
1 12736 1
1 12737 2
1 12738 6
1 12740 2
1 12741 1
1 12742 3
1 12745 4
1 12746 83
1 12747 2
1 12748 3
1 12749 1
1 12750 22
1 12751 8
1 12752 11
1 12753 22
1 12754 9
1 12755 3
1 12756 4
1 12757 16
1 12758 10
1 12759 13
1 12760 9
1 12761 8
1 12762 21
1 12763 2
1 12764 4
1 12765 14
1 12768 5
1 12769 3
1 12770 3
1 12771 2
1 12772 11
1 12773 5
1 12774 22
1 12775 1
1 12776 23
1 12777 6
1 12779 33
1 12780 41
1 12781 23
1 12782 4
1 12783 14
1 12784 3
1 12785 1
1 12786 23
1 12787 1
1 12788 2
1 12789 12
1 12790 3
1 12791 3
1 12792 1
1 12793 3
1 12794 9
1 12795 8
1 12796 5
1 12798 12
1 12800 6
1 12801 7
1 12802 22
1 12803 9
1 12804 17
1 12805 8
1 12806 31
1 12807 35
1 12808 1
1 12809 22
1 12810 12
1 12811 3
1 12812 15
1 12813 8
1 12814 20
1 12815 2
1 12817 3
1 12818 2
1 12819 7
1 12820 2
1 12821 1
1 12823 10
1 12824 3
1 12825 2
1 12826 16
1 12827 32
1 12828 9
1 12829 4
1 12830 2
1 12831 30
1 12832 37
1 12833 13
1 12834 5
1 12835 17
1 12836 5
1 12837 5
1 12838 2
1 12839 6
1 12840 4
1 12841 17
1 12842 16
1 12844 4
1 12845 48
1 12846 27
1 12847 14
1 12848 3
1 12849 93
1 12850 1
1 12851 32
1 12852 8
1 12853 10
1 12854 1
1 12855 15
1 12856 1
1 12857 13
1 12858 4
1 12859 1
1 12860 18
1 12861 19
1 12862 2
1 12863 1
1 12864 29
1 12865 3
1 12866 5
1 12868 4
1 12869 1
1 12870 1
1 12871 5
1 12872 2
1 12873 4
1 12875 8
1 12876 3
1 12877 3
1 12878 2
1 12879 1
1 12880 3
1 12881 1
1 12882 3
1 12884 10
1 12886 14
1 12887 347
1 12888 2
1 12889 1
1 12890 3
1 12891 12
1 12892 4
1 12895 36
1 12896 1
1 12897 38
1 12898 1
1 12899 2
1 12900 1
1 12901 5
1 12902 18
1 12903 4
1 12904 1
1 12905 2
1 12906 4
1 12908 12
1 12909 3
1 12910 1
1 12911 18
1 12912 15
1 12913 2
1 12914 8
1 12916 8
1 12917 7
1 12918 12
1 12919 1
1 12920 17
1 12921 4
1 12922 2
1 12923 11
1 12924 26
1 12925 16
1 12927 4
1 12928 2
1 12929 14
1 12930 4
1 12931 31
1 12933 3
1 12934 24
1 12935 11
1 12936 8
1 12937 4
1 12938 3
1 12939 3
1 12940 6
1 12941 1
1 12942 1
1 12943 7
1 12944 3
1 12945 3
1 12946 5
1 12947 30
1 12948 49
1 12949 16
1 12950 9
1 12952 1
1 12953 17
1 12954 31
1 12955 37
1 12956 25
1 12957 1
1 12958 5
1 12959 345
1 12960 5
1 12961 4
1 12962 5
1 12963 2
1 12964 5
1 12965 3
1 12966 2
1 12967 3
1 12968 1
1 12969 3
1 12970 4
1 12971 17
1 12972 726
1 12973 12
1 12974 4
1 12975 5
1 12976 90
1 12977 3
1 12978 1
1 12979 6
1 12980 1
1 12981 17
1 12983 25
1 12984 25
1 12985 66
1 12986 3
1 12987 2
1 12988 6
1 12989 1
1 12990 14
1 12991 10
1 12992 6
1 12993 3
1 12994 2
1 12995 1
1 12996 9
1 12998 30
1 12999 17
1 13000 4
1 13001 1
1 13002 3
1 13003 3
1 13004 6
1 13005 1
1 13006 27
1 13007 2
1 13008 3
1 13009 21
1 13010 1
1 13011 1
1 13012 2
1 13013 2
1 13014 15
1 13015 11
1 13016 4
1 13017 2
1 13018 14
1 13019 1253
1 13020 4
1 13021 15
1 13022 12
1 13023 14
1 13024 2
1 13025 28
1 13026 2
1 13027 5
1 13028 3
1 13029 1
1 13030 6
1 13031 12
1 13032 19
1 13033 2
1 13034 13
1 13035 10
1 13036 4
1 13037 6
1 13038 4
1 13039 3
1 13040 4
1 13041 2
1 13042 13
1 13043 2
1 13044 2
1 13045 1
1 13046 4
1 13047 11
1 13049 4
1 13050 3
1 13051 1
1 13052 13
1 13053 7
1 13054 42
1 13055 1
1 13056 1
1 13057 1
1 13058 3
1 13059 4
1 13060 3
1 13061 5
1 13062 2
1 13063 4
1 13064 4
1 13065 634
1 13066 7
1 13067 16
1 13068 1
1 13069 12
1 13070 3
1 13072 17
1 13073 19
1 13074 2
1 13075 8
1 13076 3
1 13077 2
1 13078 4
1 13079 30
1 13080 36
1 13081 43
1 13082 1
1 13083 8
1 13084 5
1 13085 1
1 13086 1
1 13087 33
1 13088 9
1 13089 35
1 13090 2
1 13091 27
1 13092 4
1 13093 2
1 13094 9
1 13095 2
1 13096 4
1 13097 17
1 13098 1
1 13099 11
1 13100 2
1 13101 1
1 13102 1
1 13104 2
1 13105 2
1 13106 38
1 13107 9
1 13108 1
1 13109 4
1 13110 2
1 13111 19
1 13112 3
1 13113 13
1 13114 6
1 13115 7
1 13116 18
1 13117 1
1 13118 2
1 13119 3
1 13120 52
1 13121 10
1 13122 7
1 13123 3
1 13124 12
1 13125 21
1 13126 10
1 13127 26
1 13128 6
1 13129 5
1 13130 15
1 13132 25
1 13133 11
1 13134 11
1 13136 4
1 13137 6
1 13138 1
1 13139 6
1 13140 23
1 13141 1
1 13142 1
1 13143 2
1 13144 3
1 13145 2
1 13147 4
1 13148 3
1 13149 17
1 13150 5
1 13151 3
1 13152 3
1 13153 2
1 13154 1
1 13156 2
1 13157 31
1 13158 4
1 13159 16
1 13160 6
1 13161 1
1 13162 49
1 13163 3
1 13164 3
1 13165 1
1 13166 2
1 13167 936
1 13168 7
1 13169 3
1 13170 47
1 13172 2
1 13173 6
1 13174 2
1 13175 26
1 13176 1
1 13177 898
1 13178 4
1 13179 1
1 13180 1196
1 13182 2
1 13183 5
1 13184 3
1 13185 1
1 13186 4
1 13187 19
1 13188 14
1 13189 16
1 13190 10
1 13191 3
1 13192 1
1 13193 1
1 13194 7
1 13195 3
1 13197 6
1 13199 1
1 13200 2
1 13201 1
1 13202 1281
1 13203 3
1 13204 14
1 13205 22
1 13206 3
1 13207 3
1 13208 10
1 13209 15
1 13210 5
1 13211 1
1 13212 1
1 13213 4
1 13214 4
1 13215 1
1 13216 6
1 13217 26
1 13218 15
1 13219 11
1 13220 1
1 13221 45
1 13222 9
1 13223 944
1 13224 1
1 13225 10
1 13226 10
1 13227 2
1 13228 2
1 13229 168
1 13230 3
1 13231 1
1 13232 16
1 13233 1139
1 13234 1
1 13235 5
1 13236 1
1 13237 20
1 13238 2
1 13239 3
1 13240 1
1 13241 2
1 13242 6
1 13243 2
1 13244 2
1 13245 20
1 13246 17
1 13247 3
1 13248 1
1 13249 1
1 13250 4
1 13251 24
1 13252 2
1 13253 14
1 13254 7
1 13255 2
1 13256 5
1 13257 11
1 13258 3
1 13259 1
1 13260 47
1 13261 1
1 13262 2
1 13263 1
1 13264 3
1 13265 7
1 13266 1
1 13267 502
1 13268 1
1 13269 12
1 13270 2
1 13271 10
1 13272 1
1 13273 2
1 13274 47
1 13275 66
1 13276 17
1 13277 3
1 13278 24
1 13279 3
1 13280 4
1 13281 1
1 13282 10
1 13284 4
1 13285 27
1 13286 4
1 13287 3
1 13288 7
1 13289 10
1 13290 4
1 13291 1
1 13292 1
1 13293 8
1 13294 1
1 13295 1
1 13297 5
1 13298 13
1 13299 6
1 13300 5
1 13301 26
1 13302 5
1 13303 12
1 13304 5
1 13305 2
1 13306 52
1 13307 35
1 13308 25
1 13310 1
1 13312 36
1 13313 1
1 13314 1
1 13315 11
1 13317 3
1 13318 83
1 13319 14
1 13321 10
1 13322 1
1 13323 2
1 13324 3
1 13325 1
1 13326 1
1 13327 11
1 13328 3
1 13329 22
1 13330 4
1 13332 1
1 13333 7
1 13334 1
1 13335 10
1 13336 7
1 13337 11
1 13338 10
1 13339 2
1 13341 1
1 13342 3
1 13343 11
1 13344 1
1 13345 283
1 13346 48
1 13347 3
1 13348 7
1 13349 1
1 13350 20
1 13352 118
1 13353 2
1 13354 3
1 13355 4
1 13356 12
1 13357 1
1 13358 21
1 13359 3
1 13360 2
1 13361 40
1 13362 17
1 13363 38
1 13365 10
1 13366 8
1 13367 6
1 13368 1159
1 13369 4
1 13370 4
1 13371 2
1 13372 6
1 13374 700
1 13376 1
1 13377 22
1 13378 2
1 13380 4
1 13381 5
1 13382 6
1 13383 1
1 13384 91
1 13385 3
1 13386 24
1 13387 3
1 13388 14
1 13389 5
1 13390 11
1 13391 10
1 13392 11
1 13393 15
1 13394 9
1 13395 4
1 13396 2
1 13397 2
1 13399 2
1 13400 4
1 13401 1
1 13403 3
1 13404 10
1 13405 23
1 13406 2
1 13407 11
1 13408 12
1 13409 11
1 13410 13
1 13411 17
1 13412 22
1 13413 7
1 13414 2
1 13415 25
1 13416 19
1 13417 12
1 13418 2
1 13419 3
1 13420 6
1 13421 4
1 13422 3
1 13423 4
1 13424 5
1 13425 7
1 13426 1
1 13427 30
1 13428 4
1 13429 3
1 13430 8
1 13431 2
1 13432 1064
1 13433 5
1 13434 18
1 13435 8
1 13436 3
1 13437 1
1 13438 22
1 13439 2
1 13440 11
1 13441 20
1 13442 2
1 13443 11
1 13444 14
1 13445 41
1 13446 3
1 13447 1244
1 13448 3
1 13449 7
1 13450 40
1 13451 1
1 13452 3
1 13454 8
1 13455 10
1 13456 4
1 13457 4
1 13458 2
1 13459 5
1 13460 39
1 13461 3
1 13462 3
1 13463 14
1 13464 1
1 13465 16
1 13466 1
1 13467 22
1 13468 83
1 13469 3
1 13470 10
1 13471 1
1 13472 2
1 13473 5
1 13474 1
1 13475 31
1 13477 4
1 13478 2
1 13479 5
1 13480 1
1 13481 1
1 13482 778
1 13483 16
1 13485 6
1 13486 8
1 13487 2
1 13488 31
1 13489 20
1 13490 13
1 13491 26
1 13492 26
1 13493 551
1 13494 646
1 13496 21
1 13497 22
1 13498 1
1 13499 4
1 13500 2
1 13501 1239
1 13502 1
1 13503 4
1 13504 12
1 13505 22
1 13506 1
1 13507 16
1 13508 5
1 13509 2
1 13510 7
1 13511 2
1 13512 1
1 13517 3
1 13518 22
1 13519 3
1 13520 3
1 13521 5
1 13522 51
1 13523 25
1 13524 4
1 13525 1
1 13528 13
1 13529 1
1 13530 3
1 13531 1
1 13532 3
1 13533 13
1 13534 1
1 13536 4
1 13537 88
1 13538 4
1 13539 3
1 13540 1
1 13541 1022
1 13542 1
1 13543 2
1 13544 14
1 13545 5
1 13546 2
1 13547 22
1 13548 4
1 13549 36
1 13550 1
1 13551 20
1 13552 1
1 13553 5
1 13554 1
1 13555 2
1 13556 47
1 13557 2
1 13558 18
1 13559 285
1 13560 17
1 13561 2
1 13562 1
1 13563 18
1 13564 3
1 13565 35
1 13566 10
1 13567 4
1 13568 1
1 13569 4
1 13570 2
1 13571 2
1 13572 16
1 13573 4
1 13574 2
1 13575 1
1 13576 13
1 13577 11
1 13578 8
1 13579 2
1 13580 24
1 13581 2
1 13582 30
1 13583 1
1 13584 7
1 13585 13
1 13586 3
1 13587 22
1 13588 3
1 13589 6
1 13590 11
1 13591 27
1 13592 11
1 13594 4
1 13595 1
1 13597 30
1 13598 2
1 13599 8
1 13600 1
1 13601 6
1 13602 16
1 13603 9
1 13604 2
1 13605 2
1 13606 1
1 13607 17
1 13608 21
1 13609 11
1 13610 2
1 13611 14
1 13612 20
1 13613 1
1 13614 2
1 13615 5
1 13616 14
1 13617 5
1 13618 11
1 13619 25
1 13620 952
1 13621 15
1 13622 7
1 13623 28
1 13624 3
1 13625 21
1 13626 1
1 13627 1
1 13628 1
1 13629 3
1 13630 2
1 13631 1
1 13632 8
1 13633 2
1 13634 11
1 13636 2
1 13637 5
1 13639 6
1 13640 6
1 13641 17
1 13642 6
1 13643 1
1 13644 3
1 13645 5
1 13646 3
1 13647 3
1 13648 4
1 13649 3
1 13650 26
1 13651 4
1 13652 3
1 13653 1
1 13654 1
1 13655 11
1 13656 2
1 13657 1
1 13658 25
1 13659 1
1 13660 12
1 13661 27
1 13662 4
1 13663 34
1 13664 6
1 13665 2
1 13666 12
1 13667 5
1 13668 4
1 13669 2
1 13670 7
1 13671 4
1 13672 8
1 13674 1
1 13675 6
1 13676 1
1 13677 13
1 13678 8
1 13679 17
1 13681 1
1 13682 18
1 13683 3
1 13684 1115
1 13685 19
1 13686 17
1 13687 1
1 13688 2
1 13689 56
1 13690 2
1 13692 1
1 13693 8
1 13694 21
1 13695 1
1 13696 15
1 13697 4
1 13698 4
1 13699 822
1 13700 1
1 13702 4
1 13703 20
1 13704 3
1 13705 2
1 13706 3
1 13707 3
1 13708 5
1 13709 5
1 13710 2
1 13711 7
1 13712 5
1 13713 21
1 13714 1
1 13715 1
1 13716 8
1 13717 27
1 13718 2
1 13719 14
1 13720 2
1 13721 18
1 13722 6
1 13723 21
1 13724 1
1 13725 10
1 13726 1
1 13727 31
1 13728 18
1 13729 46
1 13730 3
1 13732 4
1 13735 6
1 13737 2
1 13738 44
1 13739 11
1 13740 27
1 13741 15
1 13742 4
1 13743 4
1 13744 1
1 13745 10
1 13746 2
1 13747 1
1 13749 18
1 13750 1
1 13751 5
1 13752 1
1 13753 3
1 13754 1
1 13755 2
1 13756 3
1 13757 2
1 13759 6
1 13760 2
1 13762 2
1 13763 14
1 13764 2
1 13765 5
1 13766 13
1 13767 6
1 13768 11
1 13769 6
1 13770 28
1 13771 1
1 13772 4
1 13773 1
1 13774 6
1 13775 84
1 13776 11
1 13777 19
1 13778 5
1 13779 2
1 13780 9
1 13781 45
1 13782 2
1 13783 23
1 13784 1
1 13785 16
1 13786 16
1 13787 14
1 13788 3
1 13789 23
1 13790 11
1 13791 43
1 13792 119
1 13793 2
1 13794 7
1 13795 46
1 13796 30
1 13797 20
1 13798 2
1 13799 5
1 13800 21
1 13801 18
1 13802 1
1 13803 28
1 13805 5
1 13806 35
1 13807 15
1 13808 1
1 13809 42
1 13810 107
1 13811 21
1 13812 23
1 13813 11
1 13814 18
1 13816 1
1 13817 3
1 13818 1
1 13819 12
1 13820 3
1 13821 3
1 13823 6
1 13824 2
1 13825 10
1 13826 3
1 13827 3
1 13828 30
1 13829 6
1 13830 4
1 13831 2
1 13832 13
1 13833 5
1 13834 5
1 13835 22
1 13836 13
1 13837 16
1 13839 4
1 13840 961
1 13841 7
1 13842 14
1 13843 1106
1 13844 307
1 13845 2
1 13846 78
1 13847 2
1 13848 31
1 13849 21
1 13850 2
1 13851 3
1 13852 50
1 13853 36
1 13854 1
1 13855 1
1 13856 3
1 13857 1
1 13858 4
1 13859 2
1 13860 4
1 13861 4
1 13862 2
1 13863 17
1 13864 24
1 13865 1
1 13866 12
1 13867 3
1 13868 13
1 13869 3
1 13870 1
1 13872 11
1 13874 4
1 13875 1
1 13876 8
1 13877 8
1 13878 1230
1 13879 6
1 13880 5
1 13881 1
1 13882 24
1 13883 2
1 13884 8
1 13885 21
1 13886 2
1 13887 49
1 13888 7
1 13889 12
1 13890 21
1 13892 17
1 13893 1
1 13894 12
1 13895 2
1 13896 3
1 13897 1
1 13898 11
1 13899 5
1 13900 3
1 13901 1
1 13902 14
1 13903 3
1 13904 1084
1 13905 2
1 13906 3
1 13907 21
1 13908 9
1 13910 39
1 13911 32
1 13912 7
1 13913 18
1 13914 1
1 13915 9
1 13916 3
1 13917 29
1 13918 1
1 13919 950
1 13920 3
1 13921 1
1 13922 4
1 13923 18
1 13924 2
1 13925 9
1 13926 12
1 13927 3
1 13929 2
1 13930 1
1 13931 3
1 13932 2
1 13933 17
1 13934 1
1 13935 14
1 13936 7
1 13937 2
1 13938 5
1 13939 2
1 13940 2
1 13942 15
1 13943 3
1 13944 7
1 13945 24
1 13946 2
1 13947 6
1 13948 4
1 13949 4
1 13950 1
1 13951 13
1 13952 112
1 13953 4
1 13954 54
1 13955 1243
1 13956 5
1 13957 1
1 13958 44
1 13959 4
1 13960 2
1 13961 13
1 13962 1
1 13963 3
1 13964 1
1 13965 12
1 13966 3
1 13967 1
1 13968 4
1 13969 3
1 13970 4
1 13971 2
1 13973 17
1 13974 2
1 13975 1
1 13976 72
1 13977 12
1 13978 3
1 13979 9
1 13980 21
1 13981 2
1 13982 1
1 13983 14
1 13984 21
1 13986 15
1 13987 1
1 13988 1
1 13989 2
1 13990 11
1 13992 5
1 13993 3
1 13994 3
1 13995 4
1 13997 2
1 13998 14
1 14000 6
1 14001 13
1 14002 1
1 14003 3
1 14005 1
1 14006 3
1 14007 4
1 14008 15
1 14009 16
1 14010 3
1 14011 25
1 14012 1
1 14013 1
1 14014 1
1 14015 6
1 14016 1
1 14017 17
1 14018 1
1 14019 25
1 14020 1
1 14021 30
1 14022 67
1 14023 2
1 14024 1
1 14025 23
1 14026 48
1 14027 49
1 14028 3
1 14029 6
1 14030 13
1 14031 4
1 14032 4
1 14033 9
1 14034 2
1 14035 2
1 14036 22
1 14037 3
1 14038 2
1 14039 13
1 14040 13
1 14041 13
1 14042 34
1 14043 14
1 14044 14
1 14045 4
1 14046 2
1 14047 6
1 14048 2
1 14049 4
1 14050 6
1 14051 26
1 14052 2
1 14053 19
1 14054 9
1 14055 3
1 14056 19
1 14057 9
1 14058 26
1 14060 2
1 14061 32
1 14063 6
1 14064 3
1 14065 12
1 14066 3
1 14067 22
1 14068 475
1 14069 16
1 14070 2
1 14071 1
1 14072 3
1 14073 4
1 14074 4
1 14075 1
1 14076 5
1 14077 8
1 14078 16
1 14079 1
1 14080 2
1 14081 2
1 14082 12
1 14083 3
1 14084 4
1 14085 13
1 14086 153
1 14087 4
1 14089 6
1 14090 1
1 14091 3
1 14092 3
1 14093 16
1 14096 26
1 14097 1
1 14098 23
1 14099 10
1 14100 19
1 14101 2
1 14102 1
1 14103 9
1 14104 2
1 14105 24
1 14106 26
1 14108 13
1 14109 15
1 14110 1
1 14111 3
1 14112 4
1 14113 14
1 14114 33
1 14115 19
1 14116 18
1 14117 1
1 14118 1
1 14119 18
1 14120 43
1 14121 1
1 14122 7
1 14123 3
1 14124 1
1 14125 20
1 14126 7
1 14127 474
1 14128 8
1 14129 5
1 14130 11
1 14131 12
1 14132 65
1 14134 1
1 14135 12
1 14136 40
1 14137 2
1 14138 15
1 14139 27
1 14140 61
1 14141 1
1 14142 15
1 14143 32
1 14144 19
1 14145 25
1 14146 17
1 14147 11
1 14148 13
1 14149 13
1 14150 2
1 14151 19
1 14152 1
1 14153 54
1 14154 3
1 14155 7
1 14156 12
1 14158 21
1 14159 2
1 14160 2
1 14161 8
1 14162 2
1 14163 3
1 14164 17
1 14165 15
1 14166 1
1 14167 3
1 14168 18
1 14169 1
1 14170 11
1 14171 32
1 14173 8
1 14174 1
1 14176 1
1 14177 3
1 14178 3
1 14179 28
1 14180 3
1 14181 4
1 14182 35
1 14183 29
1 14184 1
1 14185 2
1 14186 6
1 14187 2
1 14188 1
1 14189 1
1 14190 2
1 14191 40
1 14192 1
1 14193 5
1 14194 1
1 14195 1
1 14196 18
1 14197 2
1 14198 2
1 14199 15
1 14200 2
1 14201 18
1 14202 1
1 14203 1
1 14204 15
1 14205 5
1 14206 10
1 14207 2
1 14208 19
1 14209 1
1 14210 4
1 14211 4
1 14213 32
1 14215 6
1 14216 3
1 14217 6
1 14218 6
1 14219 2
1 14221 17
1 14222 1
1 14223 7
1 14224 1
1 14225 9
1 14226 2
1 14227 18
1 14228 2
1 14229 28
1 14230 7
1 14231 1
1 14232 6
1 14233 2
1 14234 30
1 14235 4
1 14236 2
1 14237 7
1 14238 5
1 14239 4
1 14240 1
1 14241 813
1 14242 9
1 14243 1317
1 14244 6
1 14245 15
1 14246 10
1 14247 4
1 14248 5
1 14249 3
1 14250 1
1 14251 4
1 14252 28
1 14253 4
1 14254 4
1 14255 1
1 14256 3
1 14257 4
1 14258 3
1 14259 17
1 14260 4
1 14261 20
1 14262 4
1 14263 1
1 14264 17
1 14266 45
1 14267 8
1 14268 6
1 14269 1
1 14270 25
1 14271 7
1 14272 4
1 14273 3
1 14274 425
1 14275 3
1 14276 1
1 14277 11
1 14278 1
1 14279 1
1 14280 5
1 14281 3
1 14282 1
1 14283 7
1 14285 8
1 14286 5
1 14288 14
1 14289 2
1 14290 4
1 14292 9
1 14293 1
1 14294 2
1 14295 26
1 14297 7
1 14298 13
1 14299 3
1 14300 1
1 14301 1
1 14302 6
1 14303 40
1 14304 1
1 14305 2
1 14306 31
1 14307 3
1 14308 115
1 14309 1
1 14310 1
1 14311 6
1 14312 9
1 14313 25
1 14314 10
1 14315 18
1 14316 13
1 14317 2
1 14318 1
1 14319 4
1 14320 2
1 14321 1
1 14323 2
1 14324 8
1 14327 38
1 14328 2
1 14329 19
1 14330 3
1 14331 1
1 14332 1
1 14333 2
1 14334 4
1 14336 2
1 14338 32
1 14339 3
1 14340 8
1 14341 840
1 14342 58
1 14343 2
1 14345 1
1 14347 7
1 14348 29
1 14349 20
1 14352 3
1 14353 1
1 14354 1
1 14355 7
1 14356 2
1 14357 15
1 14358 43
1 14360 9
1 14361 2
1 14362 1
1 14363 16
1 14364 3
1 14365 4
1 14366 16
1 14367 6
1 14368 26
1 14369 1
1 14370 1
1 14371 6
1 14372 9
1 14373 4
1 14374 12
1 14375 2
1 14376 2
1 14377 3
1 14378 5
1 14379 26
1 14380 5
1 14381 1
1 14382 2
1 14384 36
1 14385 2
1 14386 11
1 14388 3
1 14389 9
1 14390 52
1 14391 1
1 14392 181
1 14395 19
1 14396 1
1 14397 11
1 14398 3
1 14399 1
1 14400 2
1 14401 2
1 14402 24
1 14404 1
1 14405 2
1 14406 12
1 14407 9
1 14408 1
1 14409 14
1 14410 9
1 14411 11
1 14412 3
1 14413 5
1 14414 50
1 14416 2
1 14417 2
1 14418 1
1 14419 7
1 14420 18
1 14422 11
1 14423 5
1 14424 1
1 14425 10
1 14427 27
1 14428 2
1 14429 10
1 14430 2
1 14432 27
1 14433 1056
1 14434 4
1 14435 2
1 14436 20
1 14437 1
1 14438 14
1 14440 17
1 14441 10
1 14442 3
1 14443 6
1 14444 4
1 14445 3
1 14446 19
1 14447 2
1 14448 14
1 14449 759
1 14450 1
1 14451 31
1 14452 6
1 14453 1
1 14454 5
1 14455 20
1 14458 970
1 14459 18
1 14460 1
1 14461 15
1 14462 19
1 14463 3
1 14464 34
1 14466 1
1 14467 1064
1 14468 4
1 14469 9
1 14471 9
1 14472 3
1 14473 47
1 14474 12
1 14475 39
1 14477 3
1 14478 29
1 14479 12
1 14480 2
1 14481 2
1 14482 2
1 14483 2
1 14484 1
1 14485 17
1 14486 9
1 14488 1
1 14490 1
1 14491 18
1 14492 1
1 14493 1
1 14494 6
1 14495 1
1 14496 11
1 14497 3
1 14498 7
1 14499 2
1 14501 9
1 14502 32
1 14503 25
1 14504 14
1 14505 1
1 14506 2
1 14507 2
1 14508 1
1 14509 1
1 14510 18
1 14511 11
1 14512 15
1 14513 11
1 14514 1
1 14515 12
1 14516 546
1 14517 8
1 14518 1
1 14519 17
1 14520 979
1 14521 484
1 14522 595
1 14523 18
1 14524 1
1 14526 1015
1 14527 13
1 14528 4
1 14529 4
1 14530 1
1 14531 12
1 14532 10
1 14534 1
1 14535 7
1 14536 8
1 14537 24
1 14538 3
1 14539 16
1 14540 11
1 14541 1
1 14542 3
1 14543 2
1 14545 2
1 14546 1
1 14547 1
1 14548 1
1 14549 4
1 14550 9
1 14551 13
1 14552 1
1 14553 2
1 14554 2
1 14555 3
1 14556 4
1 14557 5
1 14558 2
1 14559 4
1 14560 1
1 14561 6
1 14562 1
1 14563 7
1 14564 2
1 14565 1
1 14566 2
1 14567 111
1 14568 4
1 14569 19
1 14570 19
1 14571 1
1 14572 5
1 14573 7
1 14574 8
1 14575 1
1 14576 2
1 14577 4
1 14578 1
1 14579 3
1 14580 1
1 14581 1
1 14582 3
1 14583 38
1 14584 13
1 14585 23
1 14586 17
1 14587 16
1 14588 25
1 14589 4
1 14590 21
1 14591 4
1 14592 8
1 14593 42
1 14594 6
1 14595 7
1 14596 2
1 14597 1
1 14598 6
1 14599 2
1 14601 3
1 14602 3
1 14603 2
1 14604 4
1 14605 4
1 14606 2
1 14607 5
1 14608 18
1 14609 3
1 14610 4
1 14613 27
1 14614 8
1 14616 29
1 14617 2
1 14618 10
1 14619 1
1 14620 9
1 14621 15
1 14622 34
1 14623 2
1 14624 4
1 14625 12
1 14626 1
1 14627 2
1 14628 691
1 14630 1
1 14631 2
1 14632 8
1 14633 10
1 14634 1
1 14635 2
1 14637 1
1 14638 3
1 14639 1
1 14640 14
1 14641 1
1 14642 4
1 14643 2
1 14644 19
1 14645 1
1 14646 1
1 14647 4
1 14648 11
1 14649 1
1 14650 16
1 14652 30
1 14653 1
1 14654 13
1 14656 13
1 14657 10
1 14658 7
1 14659 84
1 14660 31
1 14661 1
1 14662 1
1 14663 1
1 14664 1
1 14665 1
1 14667 18
1 14668 27
1 14669 16
1 14670 3
1 14671 3
1 14672 14
1 14673 21
1 14674 11
1 14675 17
1 14676 49
1 14677 22
1 14678 11
1 14679 32
1 14680 13
1 14681 1
1 14682 1
1 14683 6
1 14684 15
1 14685 1
1 14686 3
1 14687 22
1 14688 14
1 14690 1
1 14691 1
1 14692 4
1 14693 15
1 14694 25
1 14695 1
1 14696 2
1 14697 186
1 14698 2
1 14699 2
1 14700 13
1 14701 3
1 14702 21
1 14703 2
1 14704 8
1 14705 1
1 14706 2
1 14707 3
1 14709 5
1 14710 2
1 14711 11
1 14712 2
1 14713 1
1 14714 9
1 14715 7
1 14716 4
1 14717 5
1 14718 3
1 14719 2
1 14721 18
1 14722 1
1 14723 9
1 14725 25
1 14726 2
1 14728 2
1 14729 13
1 14730 30
1 14731 3
1 14732 2
1 14734 2
1 14735 14
1 14736 2
1 14738 10
1 14739 17
1 14740 13
1 14741 4
1 14742 12
1 14743 4
1 14744 1
1 14745 1
1 14746 32
1 14747 22
1 14748 6
1 14749 4
1 14751 24
1 14753 2
1 14754 1
1 14755 1
1 14756 1
1 14757 16
1 14758 3
1 14759 13
1 14760 34
1 14761 4
1 14762 9
1 14763 3
1 14765 36
1 14766 4
1 14767 1087
1 14768 4
1 14769 11
1 14770 2
1 14771 6
1 14772 1
2 1 847
2 2 11
2 3 191
2 4 1
2 5 67
2 6 62
2 7 18
2 8 62
2 9 42
2 10 48
2 11 46
2 12 66
2 13 7
2 14 7
2 15 4
2 16 26
2 17 37
2 18 4
2 19 3
2 20 34
2 21 61
2 22 7
2 23 44
2 24 7
2 25 122
2 26 3
2 27 4
2 28 5
2 29 4
2 30 131
2 31 39
2 32 9
2 33 48
2 34 63
2 35 18
2 36 5
2 37 39
2 38 2
2 39 53
2 40 114
2 41 63
2 42 60
2 43 5
2 44 1
2 45 6
2 47 93
2 48 3
2 49 39
2 50 59
2 51 46
2 52 45
2 53 45
2 54 98
2 55 49
2 57 4
2 58 26
2 59 848
2 60 12
2 61 408
2 62 5
2 63 3
2 64 84
2 65 7
2 66 2
2 67 56
2 68 5
2 69 70
2 70 44
2 71 3
2 72 158
2 73 7
2 74 24
2 75 39
2 76 78
2 77 340
2 78 3
2 79 61
2 80 5
2 81 1175
2 82 76
2 83 19
2 84 29
2 85 6
2 86 3
2 87 7
2 88 42
2 89 9
2 90 37
2 91 4
2 92 1
2 93 77
2 94 19
2 95 3
2 96 79
2 97 105
2 98 873
2 99 2
2 100 7
2 101 1
2 102 10
2 103 30
2 104 37
2 105 1
2 106 5
2 107 1
2 108 63
2 109 87
2 110 53
2 111 132
2 112 5
2 113 4
2 114 6
2 115 101
2 116 102
2 117 70
2 118 3
2 119 29
2 120 7
2 121 3
2 122 30
2 123 102
2 124 1
2 125 1
2 126 78
2 127 87
2 128 4
2 129 56
2 130 42
2 131 1
2 132 49
2 133 5
2 134 41
2 135 90
2 136 5
2 137 36
2 138 49
2 139 80
2 140 101
2 141 100
2 142 4
2 143 78
2 144 31
2 145 1
2 146 86
2 147 6
2 148 6
2 149 5
2 150 57
2 151 4
2 152 2
2 153 35
2 154 5
2 155 96
2 156 84
2 157 118
2 158 6
2 159 101
2 160 2
2 161 39
2 162 65
2 163 50
2 164 67
2 165 53
2 166 4
2 167 80
2 168 1
2 169 85
2 170 97
2 171 4
2 172 103
2 173 3
2 174 38
2 175 2
2 176 2
2 177 4
2 178 11
2 179 3
2 180 1
2 181 713
2 182 86
2 183 2
2 184 109
2 185 9
2 186 4
2 187 29
2 188 7
2 189 5
2 190 19
2 191 12
2 192 4
2 193 97
2 194 39
2 195 122
2 196 1
2 197 77
2 198 74
2 199 77
2 200 72
2 201 119
2 202 39
2 203 158
2 204 532
2 205 1
2 206 7
2 207 76
2 208 5
2 210 3
2 211 68
2 212 72
2 213 64
2 214 328
2 215 65
2 216 6
2 217 83
2 218 3
2 219 9
2 220 4
2 221 3
2 222 3
2 223 153
2 224 35
2 225 40
2 226 69
2 227 51
2 228 2
2 229 34
2 230 5
2 231 44
2 232 47
2 233 3
2 234 17
2 235 59
2 236 10
2 237 71
2 238 4
2 239 8
2 240 80
2 241 1156
2 242 25
2 243 29
2 244 2
2 245 25
2 246 71
2 247 68
2 248 24
2 249 5
2 250 97
2 251 25
2 252 7
2 253 63
2 254 2
2 255 21
2 256 25
2 257 924
2 258 3
2 259 7
2 260 130
2 261 65
2 262 21
2 263 49
2 264 23
2 265 34
2 266 4
2 267 102
2 268 4
2 269 3
2 271 2
2 272 2
2 273 5
2 274 62
2 275 2
2 276 7
2 277 4
2 278 73
2 279 30
2 280 36
2 281 49
2 282 7
2 283 636
2 284 7
2 285 141
2 286 6
2 287 6
2 288 36
2 289 3
2 290 5
2 291 3
2 292 5
2 293 150
2 294 83
2 295 114
2 296 67
2 297 5
2 298 1
2 299 42
2 300 7
2 301 19
2 302 6
2 303 5
2 304 3
2 306 7
2 307 93
2 308 8
2 309 658
2 310 6
2 311 1
2 312 108
2 313 23
2 314 1120
2 315 130
2 316 3
2 317 4
2 318 4
2 319 8
2 320 40
2 321 45
2 322 66
2 323 171
2 324 4
2 325 6
2 326 21
2 327 19
2 328 38
2 329 3
2 330 84
2 331 9
2 332 4
2 333 81
2 334 1171
2 335 81
2 336 38
2 337 33
2 338 65
2 339 11
2 340 351
2 341 10
2 342 4
2 343 623
2 344 2
2 345 37
2 346 5
2 347 46
2 348 2
2 349 95
2 350 5
2 351 66
2 352 6
2 353 2
2 354 12
2 355 259
2 356 30
2 357 7
2 358 94
2 359 2
2 360 102
2 361 2
2 362 17
2 363 71
2 364 56
2 365 47
2 366 846
2 367 102
2 368 1
2 369 41
2 370 6
2 371 9
2 372 24
2 373 11
2 374 3
2 375 6
2 376 54
2 377 14
2 378 26
2 379 4
2 380 90
2 381 2
2 382 82
2 383 4
2 384 6
2 385 8
2 386 110
2 387 47
2 388 6
2 389 41
2 390 83
2 391 4
2 392 85
2 393 102
2 394 9
2 395 28
2 396 624
2 397 68
2 398 1
2 399 54
2 400 4
2 401 5
2 402 6
2 403 54
2 404 4
2 405 899
2 406 15
2 407 44
2 408 4
2 409 31
2 410 7
2 411 31
2 412 41
2 413 64
2 414 2
2 415 79
2 416 384
2 417 67
2 418 205
2 419 47
2 420 114
2 421 4
2 422 4
2 423 4
2 424 111
2 425 4
2 426 2
2 427 926
2 428 2
2 429 33
2 430 22
2 431 3
2 432 4
2 433 28
2 434 3
2 435 39
2 436 52
2 437 24
2 438 73
2 439 7
2 440 84
2 441 6
2 442 5
2 443 6
2 444 1
2 445 34
2 446 90
2 447 42
2 448 23
2 449 5
2 450 80
2 451 21
2 452 63
2 453 5
2 454 264
2 455 9
2 456 7
2 457 8
2 458 64
2 459 48
2 460 19
2 461 33
2 462 1
2 463 84
2 464 117
2 465 5
2 466 41
2 467 1133
2 468 1
2 469 43
2 470 112
2 471 2
2 472 87
2 473 10
2 474 6
2 475 127
2 476 54
2 477 6
2 478 55
2 479 41
2 480 3
2 481 2
2 482 69
2 483 9
2 484 22
2 485 3
2 486 84
2 487 3
2 488 24
2 489 5
2 490 100
2 491 50
2 492 131
2 493 4
2 494 141
2 495 48
2 496 3
2 497 2
2 498 4
2 499 116
2 500 3
2 501 26
2 502 6
2 503 37
2 504 7
2 505 7
2 506 138
2 507 5
2 508 1
2 509 51
2 510 57
2 511 50
2 512 7
2 513 4
2 514 2
2 515 26
2 516 8
2 517 99
2 518 131
2 519 67
2 520 10
2 521 49
2 522 5
2 523 7
2 524 961
2 525 3
2 526 88
2 527 1
2 528 38
2 529 2
2 530 134
2 531 92
2 532 57
2 533 1
2 534 42
2 535 2
2 536 6
2 537 2
2 538 3
2 539 120
2 540 36
2 541 85
2 542 39
2 543 88
2 544 99
2 545 5
2 546 40
2 547 38
2 548 60
2 549 65
2 550 9
2 551 2
2 552 19
2 553 79
2 554 2
2 555 58
2 556 3
2 557 9
2 558 50
2 559 4
2 561 82
2 562 26
2 563 70
2 564 65
2 565 10
2 566 2
2 567 25
2 568 96
2 569 104
2 570 2
2 571 58
2 572 5
2 573 48
2 574 59
2 575 37
2 576 111
2 577 45
2 578 90
2 579 114
2 580 55
2 581 2
2 582 28
2 583 2
2 584 125
2 585 85
2 586 6
2 587 4
2 588 7
2 589 6
2 590 6
2 591 23
2 592 6
2 593 4
2 594 1206
2 595 4
2 596 85
2 597 4
2 598 7
2 599 11
2 600 26
2 601 31
2 602 6
2 603 6
2 604 32
2 605 101
2 606 114
2 607 72
2 608 2
2 609 4
2 610 3
2 611 8
2 612 1206
2 613 1
2 614 72
2 615 80
2 616 3
2 617 1
2 618 2
2 619 1
2 620 17
2 621 5
2 622 8
2 623 4
2 624 6
2 625 3
2 626 5
2 627 98
2 628 4
2 629 39
2 630 4
2 631 67
2 632 47
2 633 5
2 634 11
2 635 3
2 636 1
2 637 50
2 638 5
2 639 3
2 640 64
2 641 45
2 642 40
2 643 3
2 644 6
2 645 58
2 646 4
2 647 4
2 648 2
2 649 2
2 650 81
2 651 9
2 652 24
2 653 3
2 654 64
2 655 9
2 656 5
2 657 55
2 658 7
2 659 2
2 660 24
2 661 2
2 662 6
2 663 1
2 664 71
2 665 6
2 666 1
2 667 49
2 668 49
2 669 100
2 670 59
2 671 59
2 672 2
2 673 29
2 674 53
2 675 49
2 676 696
2 677 3
2 678 1
2 679 24
2 680 3
2 681 7
2 682 6
2 683 84
2 684 46
2 685 3
2 686 45
2 687 32
2 688 66
2 689 2
2 690 36
2 691 30
2 692 31
2 693 5
2 694 30
2 695 7
2 696 5
2 697 609
2 698 72
2 699 112
2 700 145
2 701 82
2 702 72
2 703 53
2 704 4
2 705 41
2 706 7
2 707 7
2 708 103
2 709 84
2 710 4
2 711 35
2 712 90
2 713 3
2 714 43
2 715 4
2 717 17
2 718 44
2 719 56
2 720 49
2 721 4
2 722 40
2 723 14
2 724 11
2 725 52
2 726 2
2 727 43
2 728 2
2 729 5
2 730 1239
2 731 2
2 732 18
2 733 1192
2 734 37
2 735 7
2 736 55
2 737 1122
2 738 26
2 739 887
2 740 44
2 741 114
2 742 19
2 743 6
2 744 2
2 745 5
2 746 5
2 747 41
2 748 2
2 749 5
2 751 65
2 752 51
2 753 2
2 754 7
2 755 8
2 756 85
2 757 48
2 758 91
2 759 19
2 760 2
2 761 93
2 762 85
2 763 34
2 764 20
2 765 3
2 766 112
2 767 36
2 768 50
2 769 32
2 770 50
2 771 83
2 772 39
2 773 43
2 774 40
2 775 45
2 776 4
2 777 70
2 778 104
2 779 24
2 780 38
2 781 131
2 782 59
2 783 35
2 784 9
2 785 46
2 786 7
2 787 3
2 788 3
2 789 3
2 790 7
2 791 3
2 792 113
2 793 2
2 794 19
2 795 5
2 796 4
2 797 8
2 798 1118
2 799 1
2 800 6
2 801 83
2 802 10
2 803 290
2 804 966
2 805 45
2 806 189
2 807 14
2 808 3
2 809 46
2 810 3
2 811 197
2 812 5
2 813 8
2 814 9
2 815 18
2 816 11
2 817 6
2 818 1253
2 819 5
2 820 6
2 821 4
2 822 4
2 823 5
2 824 54
2 825 89
2 826 16
2 827 58
2 828 10
2 829 174
2 830 60
2 831 112
2 832 37
2 833 95
2 834 40
2 835 7
2 836 4
2 837 42
2 838 82
2 839 133
2 840 11
2 841 107
2 842 72
2 843 18
2 844 4
2 845 55
2 846 14
2 847 5
2 848 10
2 849 106
2 850 5
2 851 50
2 852 7
2 853 3
2 854 6
2 855 26
2 856 9
2 857 63
2 858 4
2 859 60
2 860 3
2 861 8
2 862 5
2 863 122
2 864 11
2 865 8
2 866 67
2 867 358
2 868 11
2 869 114
2 870 68
2 871 788
2 872 6
2 873 4
2 874 7
2 875 10
2 876 43
2 877 123
2 878 58
2 879 46
2 880 3
2 881 34
2 882 60
2 883 114
2 884 41
2 885 12
2 886 106
2 887 66
2 888 4
2 889 42
2 890 41
2 891 30
2 892 5
2 893 89
2 894 4
2 895 3
2 896 1
2 897 54
2 898 5
2 899 28
2 900 5
2 901 1
2 902 43
2 903 35
2 904 5
2 905 54
2 906 121
2 907 74
2 908 96
2 909 60
2 910 67
2 911 4
2 912 63
2 913 45
2 914 30
2 915 7
2 916 7
2 917 3
2 918 1
2 919 5
2 920 5
2 921 4
2 922 4
2 923 1
2 924 39
2 925 8
2 926 26
2 927 2
2 928 64
2 929 68
2 930 1092
2 931 1
2 933 3
2 934 2
2 935 28
2 936 62
2 937 3
2 938 3
2 939 6
2 940 3
2 941 85
2 942 6
2 943 778
2 944 57
2 945 1
2 946 1
2 947 5
2 948 82
2 949 6
2 950 7
2 951 105
2 952 38
2 953 3
2 954 39
2 955 7
2 956 3
2 957 58
2 958 245
2 959 1
2 960 1
2 961 3
2 962 4
2 963 56
2 964 7
2 965 7
2 966 11
2 967 5
2 968 4
2 969 11
2 970 18
2 971 1189
2 972 12
2 973 92
2 974 5
2 975 5
2 976 54
2 977 79
2 978 132
2 979 4
2 980 13
2 981 12
2 982 60
2 983 40
2 984 7
2 985 5
2 986 67
2 987 39
2 988 10
2 989 5
2 990 7
2 991 133
2 992 3
2 993 66
2 994 3
2 995 71
2 996 6
2 997 1
2 998 9
2 999 4
2 1000 312
2 1001 33
2 1002 5
2 1003 63
2 1004 223
2 1005 96
2 1006 8
2 1007 55
2 1008 51
2 1009 72
2 1010 10
2 1011 10
2 1012 5
2 1013 2
2 1014 88
2 1015 10
2 1016 6
2 1017 2
2 1018 29
2 1019 2
2 1020 60
2 1021 4
2 1022 66
2 1023 77
2 1024 2
2 1025 1
2 1026 10
2 1027 7
2 1028 9
2 1029 71
2 1030 26
2 1031 109
2 1032 79
2 1033 9
2 1034 39
2 1035 121
2 1036 53
2 1037 27
2 1038 7
2 1039 4
2 1040 8
2 1041 3
2 1042 1
2 1043 4
2 1044 3
2 1045 48
2 1046 87
2 1047 1
2 1048 49
2 1049 588
2 1050 81
2 1051 4
2 1052 7
2 1053 92
2 1054 3
2 1055 43
2 1056 2
2 1057 5
2 1058 684
2 1059 24
2 1060 97
2 1061 1
2 1062 106
2 1063 65
2 1064 40
2 1065 42
2 1066 7
2 1067 22
2 1068 57
2 1069 68
2 1070 6
2 1071 5
2 1072 4
2 1073 2
2 1074 44
2 1075 78
2 1076 36
2 1077 107
2 1078 43
2 1079 3
2 1081 2
2 1082 1237
2 1083 43
2 1084 4
2 1085 57
2 1086 3
2 1087 1
2 1088 301
2 1089 7
2 1090 64
2 1091 50
2 1092 8
2 1093 16
2 1094 40
2 1095 2
2 1096 6
2 1097 382
2 1098 7
2 1099 31
2 1100 36
2 1101 3
2 1102 105
2 1103 8
2 1104 4
2 1105 62
2 1106 11
2 1107 1
2 1108 74
2 1109 32
2 1110 8
2 1111 3
2 1112 52
2 1113 4
2 1114 61
2 1115 33
2 1116 3
2 1118 1
2 1119 5
2 1120 8
2 1121 5
2 1122 31
2 1123 66
2 1124 156
2 1125 5
2 1126 77
2 1127 6
2 1129 2
2 1130 86
2 1131 60
2 1132 45
2 1133 83
2 1134 3
2 1135 50
2 1136 57
2 1137 2
2 1138 2
2 1139 88
2 1140 111
2 1141 73
2 1142 2
2 1143 106
2 1144 106
2 1145 1
2 1146 63
2 1147 354
2 1148 51
2 1149 5
2 1150 71
2 1151 9
2 1152 1
2 1153 1
2 1154 48
2 1155 25
2 1156 80
2 1157 942
2 1158 8
2 1159 102
2 1160 6
2 1161 72
2 1162 53
2 1163 38
2 1164 284
2 1165 45
2 1166 5
2 1167 4
2 1168 52
2 1169 90
2 1170 6
2 1171 86
2 1172 41
2 1173 2
2 1174 3
2 1175 3
2 1176 82
2 1177 44
2 1178 64
2 1179 378
2 1180 135
2 1181 4
2 1182 140
2 1183 62
2 1184 3
2 1185 5
2 1186 34
2 1187 81
2 1188 18
2 1189 90
2 1190 1110
2 1192 661
2 1193 77
2 1194 4
2 1195 27
2 1196 6
2 1197 92
2 1198 8
2 1199 1
2 1200 62
2 1201 122
2 1202 25
2 1203 7
2 1204 42
2 1205 59
2 1206 68
2 1207 3
2 1208 40
2 1209 126
2 1210 3
2 1211 30
2 1212 3
2 1213 8
2 1214 66
2 1215 8
2 1216 5
2 1217 62
2 1218 103
2 1219 45
2 1220 35
2 1221 3
2 1222 4
2 1223 3
2 1224 3
2 1225 3
2 1226 86
2 1227 2
2 1228 9
2 1229 4
2 1230 4
2 1231 3
2 1232 37
2 1233 33
2 1234 19
2 1235 53
2 1236 43
2 1237 2
2 1238 2
2 1239 24
2 1240 70
2 1241 99
2 1242 3
2 1243 38
2 1244 1
2 1245 46
2 1246 31
2 1247 2
2 1248 4
2 1249 66
2 1250 3
2 1251 26
2 1252 58
2 1253 4
2 1254 4
2 1255 24
2 1256 35
2 1257 6
2 1258 6
2 1259 4
2 1260 7
2 1261 37
2 1262 45
2 1263 5
2 1264 44
2 1265 8
2 1266 5
2 1267 23
2 1268 73
2 1269 14
2 1270 7
2 1271 22
2 1272 5
2 1273 74
2 1274 8
2 1275 90
2 1276 66
2 1277 41
2 1278 1062
2 1279 1
2 1280 55
2 1281 89
2 1282 90
2 1283 5
2 1284 66
2 1285 3
2 1286 53
2 1287 72
2 1288 3
2 1289 36
2 1290 65
2 1291 6
2 1292 32
2 1293 308
2 1294 4
2 1295 63
2 1296 2
2 1297 231
2 1298 5
2 1299 32
2 1300 4
2 1301 2
2 1302 6
2 1303 70
2 1304 18
2 1305 7
2 1306 2
2 1307 60
2 1308 49
2 1309 4
2 1310 3
2 1312 4
2 1313 2
2 1314 5
2 1315 76
2 1316 2
2 1317 48
2 1318 25
2 1319 7
2 1320 3
2 1321 2
2 1322 88
2 1323 62
2 1324 12
2 1325 5
2 1326 34
2 1327 16
2 1328 4
2 1329 97
2 1330 27
2 1331 54
2 1332 1053
2 1333 40
2 1334 352
2 1335 3
2 1336 32
2 1337 2
2 1338 3
2 1339 7
2 1340 34
2 1341 95
2 1342 50
2 1343 53
2 1344 5
2 1345 37
2 1346 20
2 1347 2
2 1348 2
2 1349 67
2 1350 3
2 1351 4
2 1352 1
2 1353 39
2 1354 91
2 1355 966
2 1357 8
2 1359 1
2 1360 45
2 1361 94
2 1362 54
2 1363 1
2 1364 2
2 1365 90
2 1366 30
2 1367 136
2 1368 78
2 1369 88
2 1370 60
2 1371 63
2 1372 73
2 1373 111
2 1374 39
2 1375 5
2 1376 2
2 1377 72
2 1378 268
2 1379 3
2 1380 66
2 1381 103
2 1382 3
2 1383 4
2 1384 5
2 1385 17
2 1386 65
2 1387 4
2 1388 4
2 1389 11
2 1390 21
2 1391 1
2 1392 10
2 1393 2
2 1394 87
2 1395 23
2 1396 39
2 1397 89
2 1398 9
2 1399 96
2 1400 2
2 1401 68
2 1402 35
2 1403 78
2 1404 24
2 1405 6
2 1406 25
2 1407 28
2 1408 50
2 1409 108
2 1410 4
2 1411 26
2 1412 59
2 1413 3
2 1414 45
2 1415 74
2 1416 4
2 1417 92
2 1418 7
2 1419 109
2 1420 34
2 1421 20
2 1422 70
2 1423 1
2 1424 68
2 1425 6
2 1426 9
2 1427 37
2 1428 72
2 1429 21
2 1430 80
2 1431 48
2 1432 17
2 1434 143
2 1435 7
2 1436 59
2 1437 66
2 1438 132
2 1439 58
2 1440 3
2 1441 88
2 1442 3
2 1443 2
2 1444 6
2 1445 100
2 1446 17
2 1447 28
2 1449 4
2 1450 122
2 1451 6
2 1452 45
2 1453 112
2 1454 113
2 1455 35
2 1456 320
2 1457 73
2 1458 50
2 1459 7
2 1460 97
2 1461 24
2 1462 50
2 1463 8
2 1464 46
2 1465 8
2 1466 102
2 1467 53
2 1468 4
2 1469 108
2 1470 7
2 1471 3
2 1472 5
2 1473 55
2 1474 6
2 1475 96
2 1476 23
2 1477 5
2 1478 109
2 1480 3
2 1481 886
2 1482 4
2 1483 27
2 1484 3
2 1485 53
2 1486 10
2 1487 30
2 1488 14
2 1489 104
2 1490 5
2 1491 38
2 1492 6
2 1493 65
2 1494 69
2 1495 27
2 1496 48
2 1497 7
2 1498 89
2 1499 135
2 1500 41
2 1501 76
2 1502 67
2 1503 86
2 1504 5
2 1505 69
2 1506 66
2 1507 2
2 1508 26
2 1509 34
2 1510 57
2 1511 893
2 1512 37
2 1513 30
2 1514 12
2 1515 5
2 1516 5
2 1517 5
2 1518 38
2 1519 11
2 1520 61
2 1521 5
2 1522 1
2 1523 49
2 1524 9
2 1525 32
2 1526 670
2 1527 30
2 1529 74
2 1530 3
2 1531 3
2 1532 69
2 1533 66
2 1534 5
2 1535 12
2 1536 40
2 1537 1
2 1538 5
2 1539 12
2 1540 5
2 1541 49
2 1542 49
2 1543 113
2 1544 60
2 1545 72
2 1546 2
2 1547 50
2 1548 45
2 1549 1
2 1550 79
2 1551 31
2 1552 74
2 1553 2
2 1554 4
2 1555 2
2 1556 93
2 1557 3
2 1558 9
2 1559 110
2 1560 162
2 1561 2
2 1562 8
2 1563 2
2 1564 1
2 1565 2
2 1566 14
2 1567 5
2 1568 7
2 1569 89
2 1570 67
2 1571 33
2 1572 522
2 1573 76
2 1574 3
2 1575 29
2 1576 28
2 1577 117
2 1578 8
2 1579 40
2 1580 113
2 1581 1287
2 1582 67
2 1583 2
2 1584 15
2 1585 61
2 1586 93
2 1587 4
2 1588 531
2 1589 60
2 1590 5
2 1591 42
2 1592 6
2 1593 142
2 1594 72
2 1595 5
2 1596 100
2 1597 10
2 1598 6
2 1599 2
2 1600 37
2 1601 3
2 1602 15
2 1603 2
2 1604 52
2 1605 2
2 1606 1
2 1607 4
2 1608 190
2 1609 4
2 1610 6
2 1611 119
2 1612 34
2 1613 8
2 1614 2
2 1615 93
2 1616 4
2 1617 46
2 1618 98
2 1619 4
2 1620 41
2 1621 3
2 1622 32
2 1623 6
2 1624 4
2 1625 44
2 1626 51
2 1627 7
2 1628 48
2 1629 113
2 1630 151
2 1631 5
2 1632 34
2 1633 4
2 1634 13
2 1635 63
2 1636 88
2 1637 59
2 1638 85
2 1639 70
2 1640 2
2 1641 2
2 1642 71
2 1643 37
2 1644 86
2 1645 5
2 1646 20
2 1647 5
2 1648 37
2 1649 4
2 1650 74
2 1651 9
2 1652 10
2 1653 2
2 1654 47
2 1655 45
2 1656 11
2 1657 2
2 1658 1
2 1659 2
2 1660 32
2 1661 103
2 1662 38
2 1663 5
2 1664 2
2 1665 2
2 1666 7
2 1667 1
2 1668 54
2 1669 2
2 1670 39
2 1671 10
2 1672 503
2 1673 7
2 1674 25
2 1675 51
2 1676 117
2 1677 3
2 1678 5
2 1679 11
2 1680 266
2 1681 43
2 1682 4
2 1683 3
2 1684 6
2 1685 4
2 1686 5
2 1687 36
2 1688 90
2 1689 1
2 1690 1
2 1691 4
2 1692 1128
2 1693 49
2 1694 7
2 1695 63
2 1696 3
2 1697 60
2 1698 21
2 1699 26
2 1700 5
2 1701 79
2 1702 4
2 1703 7
2 1704 76
2 1705 122
2 1706 4
2 1707 118
2 1708 3
2 1709 8
2 1710 121
2 1711 20
2 1712 8
2 1713 27
2 1714 47
2 1715 5
2 1716 3
2 1717 113
2 1718 4
2 1719 25
2 1720 87
2 1721 131
2 1722 11
2 1723 4
2 1724 50
2 1725 2
2 1726 93
2 1727 108
2 1728 4
2 1729 49
2 1730 84
2 1731 92
2 1732 3
2 1733 24
2 1734 52
2 1735 73
2 1736 66
2 1738 29
2 1739 125
2 1740 104
2 1741 46
2 1742 7
2 1743 1
2 1744 1
2 1745 50
2 1746 3
2 1747 38
2 1748 36
2 1749 2
2 1750 11
2 1751 4
2 1752 73
2 1753 3
2 1754 18
2 1755 125
2 1756 120
2 1757 3
2 1758 7
2 1759 2
2 1760 2
2 1761 71
2 1762 31
2 1763 76
2 1764 4
2 1765 6
2 1766 5
2 1767 136
2 1768 3
2 1769 4
2 1770 19
2 1771 5
2 1772 2
2 1773 3
2 1774 8
2 1775 72
2 1776 357
2 1777 3
2 1778 5
2 1779 3
2 1780 86
2 1781 85
2 1782 1152
2 1783 6
2 1784 2
2 1785 5
2 1786 2
2 1787 64
2 1788 2
2 1789 5
2 1790 298
2 1791 5
2 1792 2
2 1793 7
2 1794 59
2 1795 138
2 1796 99
2 1797 5
2 1798 45
2 1799 71
2 1800 36
2 1801 3
2 1802 95
2 1803 6
2 1804 13
2 1805 87
2 1806 43
2 1807 79
2 1808 41
2 1809 10
2 1810 18
2 1811 19
2 1812 108
2 1813 4
2 1814 60
2 1815 45
2 1816 177
2 1817 3
2 1818 2
2 1819 42
2 1820 62
2 1821 58
2 1822 165
2 1823 2
2 1824 7
2 1825 60
2 1826 7
2 1827 5
2 1828 4
2 1829 23
2 1830 4
2 1831 11
2 1832 3
2 1833 3
2 1834 28
2 1835 41
2 1836 66
2 1837 4
2 1838 60
2 1839 57
2 1840 923
2 1841 10
2 1842 5
2 1843 5
2 1844 3
2 1845 89
2 1846 5
2 1847 40
2 1848 63
2 1849 4
2 1850 3
2 1851 54
2 1852 3
2 1853 21
2 1854 3
2 1855 3
2 1856 701
2 1857 1246
2 1858 45
2 1859 3
2 1860 30
2 1861 64
2 1862 3
2 1863 57
2 1864 8
2 1865 89
2 1866 4
2 1867 998
2 1868 117
2 1869 3
2 1870 47
2 1871 9
2 1872 42
2 1873 3
2 1874 55
2 1875 7
2 1876 18
2 1877 65
2 1878 55
2 1879 24
2 1880 321
2 1881 62
2 1882 5
2 1883 100
2 1884 2
2 1885 69
2 1886 28
2 1887 41
2 1888 3
2 1889 7
2 1890 5
2 1891 39
2 1892 136
2 1893 1
2 1894 6
2 1895 4
2 1896 62
2 1897 61
2 1898 37
2 1899 3
2 1900 129
2 1901 82
2 1902 3
2 1903 7
2 1904 1
2 1905 29
2 1906 40
2 1907 4
2 1908 28
2 1909 66
2 1910 63
2 1911 206
2 1912 5
2 1913 8
2 1914 3
2 1915 8
2 1916 55
2 1917 3
2 1919 4
2 1920 52
2 1921 2
2 1922 82
2 1923 8
2 1924 27
2 1925 71
2 1926 5
2 1927 58
2 1928 2
2 1929 7
2 1930 69
2 1931 28
2 1933 36
2 1934 54
2 1935 790
2 1936 4
2 1937 33
2 1938 23
2 1939 62
2 1940 3
2 1941 52
2 1942 4
2 1943 18
2 1944 9
2 1945 135
2 1946 2
2 1947 3
2 1948 97
2 1949 8
2 1950 7
2 1951 36
2 1952 34
2 1953 6
2 1954 1
2 1955 102
2 1956 7
2 1957 67
2 1958 30
2 1959 3
2 1960 11
2 1961 4
2 1962 15
2 1963 1
2 1964 5
2 1965 6
2 1966 24
2 1967 2
2 1968 60
2 1969 3
2 1970 60
2 1971 58
2 1972 2
2 1973 7
2 1974 4
2 1975 4
2 1976 2
2 1977 2
2 1978 39
2 1979 5
2 1980 5
2 1981 62
2 1982 52
2 1983 2
2 1984 81
2 1985 43
2 1986 42
2 1987 6
2 1988 7
2 1989 75
2 1990 5
2 1991 4
2 1992 4
2 1993 4
2 1994 6
2 1996 3
2 1997 83
2 1998 22
2 1999 6
2 2000 98
2 2001 47
2 2002 37
2 2003 4
2 2004 65
2 2005 7
2 2006 4
2 2007 4
2 2008 67
2 2009 4
2 2010 2
2 2011 5
2 2012 157
2 2013 4
2 2014 4
2 2015 1
2 2016 2
2 2017 1017
2 2018 38
2 2019 3
2 2020 83
2 2021 73
2 2022 31
2 2024 52
2 2025 7
2 2026 4
2 2027 29
2 2028 3
2 2029 2
2 2030 2
2 2031 22
2 2033 3
2 2034 54
2 2035 32
2 2036 21
2 2037 29
2 2038 55
2 2039 4
2 2040 2
2 2041 13
2 2042 1
2 2043 17
2 2044 8
2 2045 1
2 2046 4
2 2047 4
2 2048 105
2 2049 26
2 2050 5
2 2051 343
2 2052 4
2 2053 97
2 2054 5
2 2055 244
2 2056 170
2 2057 86
2 2058 2
2 2059 6
2 2060 4
2 2061 2
2 2062 96
2 2063 69
2 2064 3
2 2065 44
2 2066 4
2 2067 1
2 2068 4
2 2069 19
2 2070 7
2 2071 8
2 2072 29
2 2073 52
2 2074 7
2 2075 129
2 2076 1
2 2077 34
2 2079 4
2 2080 51
2 2081 5
2 2082 23
2 2083 77
2 2084 93
2 2085 29
2 2086 7
2 2087 18
2 2088 3
2 2089 5
2 2090 4
2 2091 73
2 2092 2
2 2093 32
2 2094 1
2 2095 35
2 2096 71
2 2097 3
2 2098 1
2 2099 126
2 2100 42
2 2101 9
2 2102 2
2 2103 2
2 2104 1194
2 2105 58
2 2106 116
2 2107 34
2 2108 124
2 2109 6
2 2110 2
2 2111 6
2 2112 4
2 2113 7
2 2114 8
2 2115 5
2 2116 41
2 2117 4
2 2118 21
2 2119 3
2 2120 45
2 2121 4
2 2122 81
2 2123 4
2 2124 22
2 2125 32
2 2126 36
2 2127 66
2 2128 6
2 2129 8
2 2130 39
2 2131 3
2 2132 182
2 2133 62
2 2134 89
2 2135 129
2 2136 1
2 2137 14
2 2138 3
2 2139 4
2 2140 66
2 2141 6
2 2142 5
2 2143 88
2 2144 75
2 2145 42
2 2146 5
2 2147 12
2 2148 9
2 2149 967
2 2150 106
2 2151 30
2 2152 78
2 2153 4
2 2154 4
2 2155 86
2 2156 22
2 2157 1
2 2158 6
2 2159 8
2 2160 42
2 2161 58
2 2162 1
2 2163 86
2 2164 24
2 2165 175
2 2166 4
2 2167 112
2 2168 55
2 2170 4
2 2171 10
2 2172 38
2 2173 4
2 2174 285
2 2175 6
2 2176 2
2 2177 15
2 2178 3
2 2179 32
2 2180 94
2 2181 6
2 2182 2
2 2183 2
2 2184 48
2 2185 55
2 2186 5
2 2187 4
2 2188 16
2 2189 102
2 2190 71
2 2191 14
2 2192 6
2 2193 5
2 2194 2
2 2195 95
2 2196 3
2 2197 5
2 2198 122
2 2199 37
2 2200 507
2 2201 2
2 2202 5
2 2203 2
2 2204 14
2 2205 2
2 2206 45
2 2207 5
2 2208 47
2 2209 12
2 2210 34
2 2211 132
2 2212 3
2 2213 5
2 2214 46
2 2215 96
2 2216 39
2 2217 1204
2 2218 106
2 2219 30
2 2220 79
2 2221 75
2 2222 61
2 2223 51
2 2224 46
2 2225 73
2 2226 44
2 2227 48
2 2228 3
2 2229 61
2 2230 12
2 2231 100
2 2232 96
2 2233 2
2 2234 5
2 2235 75
2 2236 72
2 2237 6
2 2238 5
2 2239 4
2 2240 1131
2 2241 3
2 2242 87
2 2243 103
2 2244 33
2 2245 1218
2 2246 119
2 2247 33
2 2248 1
2 2249 2
2 2250 2
2 2251 1
2 2252 2
2 2253 3
2 2254 5
2 2255 84
2 2256 103
2 2257 6
2 2258 7
2 2259 2
2 2260 44
2 2261 1
2 2262 34
2 2263 15
2 2264 4
2 2265 66
2 2266 5
2 2267 127
2 2268 45
2 2269 6
2 2270 2
2 2271 99
2 2272 75
2 2273 44
2 2274 1
2 2275 84
2 2276 2
2 2277 39
2 2278 9
2 2279 8
2 2280 78
2 2281 677
2 2282 88
2 2283 31
2 2284 18
2 2285 2
2 2286 59
2 2287 14
2 2288 1161
2 2289 41
2 2290 63
2 2291 47
2 2292 5
2 2293 2
2 2294 36
2 2295 41
2 2296 2
2 2297 4
2 2298 4
2 2299 4
2 2300 2
2 2301 3
2 2302 69
2 2303 80
2 2304 29
2 2305 6
2 2306 17
2 2307 32
2 2308 18
2 2309 26
2 2310 67
2 2311 47
2 2312 2
2 2313 65
2 2314 28
2 2315 1
2 2316 69
2 2317 65
2 2318 38
2 2319 5
2 2320 2
2 2321 3
2 2322 40
2 2323 140
2 2324 58
2 2325 86
2 2326 91
2 2327 65
2 2328 2
2 2329 51
2 2330 110
2 2331 80
2 2332 82
2 2333 84
2 2334 88
2 2335 39
2 2336 610
2 2337 2
2 2338 3
2 2339 6
2 2340 49
2 2341 4
2 2342 3
2 2343 97
2 2344 2
2 2345 2
2 2346 26
2 2347 52
2 2348 3
2 2349 203
2 2350 5
2 2351 103
2 2352 57
2 2353 6
2 2354 5
2 2355 113
2 2356 3
2 2357 13
2 2358 165
2 2359 28
2 2360 34
2 2361 6
2 2362 91
2 2363 27
2 2364 90
2 2365 46
2 2366 37
2 2367 120
2 2368 4
2 2370 5
2 2371 2
2 2372 91
2 2373 55
2 2374 20
2 2375 8
2 2376 7
2 2377 6
2 2378 4
2 2379 2
2 2380 103
2 2381 46
2 2382 1105
2 2383 64
2 2384 3
2 2385 1
2 2386 2
2 2387 106
2 2388 30
2 2389 3
2 2390 6
2 2391 36
2 2392 2
2 2393 14
2 2394 3
2 2395 903
2 2396 35
2 2397 18
2 2398 1
2 2399 89
2 2400 25
2 2401 3
2 2402 24
2 2403 71
2 2404 29
2 2405 7
2 2406 3
2 2407 5
2 2408 127
2 2409 58
2 2410 68
2 2411 4
2 2412 58
2 2413 65
2 2414 2
2 2415 41
2 2416 71
2 2417 6
2 2418 90
2 2419 1
2 2420 3
2 2421 4
2 2422 32
2 2423 77
2 2424 69
2 2425 64
2 2426 3
2 2427 4
2 2428 1
2 2429 21
2 2430 1
2 2431 45
2 2432 7
2 2433 3
2 2434 2
2 2435 54
2 2436 16
2 2437 1167
2 2438 43
2 2439 13
2 2440 3
2 2441 38
2 2442 6
2 2443 95
2 2444 4
2 2445 30
2 2446 69
2 2447 17
2 2448 3
2 2449 42
2 2450 9
2 2451 41
2 2452 14
2 2453 64
2 2454 84
2 2455 18
2 2456 4
2 2457 3
2 2458 75
2 2459 8
2 2460 1
2 2461 45
2 2462 104
2 2463 36
2 2464 32
2 2465 1
2 2466 184
2 2467 14
2 2468 4
2 2469 3
2 2470 55
2 2471 115
2 2472 107
2 2473 75
2 2474 1
2 2475 34
2 2476 1
2 2477 50
2 2478 25
2 2479 96
2 2480 3
2 2481 8
2 2482 16
2 2483 6
2 2484 16
2 2485 30
2 2486 4
2 2487 98
2 2488 1030
2 2489 86
2 2490 39
2 2491 1
2 2492 7
2 2493 65
2 2494 33
2 2495 86
2 2496 4
2 2497 3
2 2498 73
2 2499 2
2 2500 3
2 2501 2
2 2502 85
2 2503 4
2 2504 28
2 2505 2
2 2506 3
2 2507 1
2 2508 65
2 2509 76
2 2510 3
2 2511 60
2 2512 6
2 2513 24
2 2514 6
2 2515 3
2 2516 28
2 2517 44
2 2518 3
2 2519 4
2 2520 7
2 2521 6
2 2522 106
2 2523 77
2 2524 66
2 2525 2
2 2526 92
2 2528 17
2 2529 6
2 2530 1
2 2531 49
2 2532 60
2 2533 3
2 2534 2
2 2535 4
2 2536 71
2 2537 700
2 2538 57
2 2539 56
2 2540 5
2 2541 5
2 2542 4
2 2543 285
2 2544 117
2 2545 80
2 2546 2
2 2547 2
2 2548 3
2 2549 43
2 2550 53
2 2551 4
2 2552 3
2 2553 39
2 2554 813
2 2555 18
2 2556 3
2 2557 2
2 2558 2
2 2559 9
2 2560 68
2 2561 67
2 2562 89
2 2563 22
2 2564 8
2 2566 5
2 2567 637
2 2568 122
2 2569 7
2 2570 7
2 2571 35
2 2572 114
2 2573 2
2 2574 2
2 2575 1226
2 2576 8
2 2577 4
2 2579 28
2 2580 111
2 2581 49
2 2582 808
2 2583 57
2 2584 47
2 2585 7
2 2586 51
2 2587 9
2 2588 89
2 2589 4
2 2590 6
2 2591 52
2 2592 1
2 2593 8
2 2594 8
2 2595 6
2 2596 125
2 2597 105
2 2598 4
2 2599 1
2 2600 44
2 2601 5
2 2602 6
2 2603 872
2 2604 2
2 2605 64
2 2606 11
2 2607 22
2 2608 74
2 2609 58
2 2610 3
2 2611 96
2 2612 7
2 2613 7
2 2614 71
2 2615 8
2 2616 3
2 2617 40
2 2618 7
2 2619 301
2 2620 6
2 2621 976
2 2622 26
2 2623 18
2 2624 4
2 2625 89
2 2626 114
2 2627 3
2 2628 43
2 2629 69
2 2630 134
2 2631 8
2 2632 4
2 2633 80
2 2634 4
2 2635 4
2 2636 9
2 2637 28
2 2638 29
2 2639 2
2 2640 11
2 2641 4
2 2642 3
2 2643 90
2 2644 6
2 2645 74
2 2646 2
2 2647 5
2 2648 30
2 2649 63
2 2650 2
2 2651 26
2 2652 130
2 2653 88
2 2654 60
2 2655 105
2 2656 1
2 2657 20
2 2658 3
2 2659 78
2 2660 7
2 2661 1
2 2662 78
2 2663 10
2 2664 3
2 2665 6
2 2666 76
2 2667 3
2 2668 15
2 2669 1
2 2670 5
2 2671 8
2 2672 50
2 2673 5
2 2674 14
2 2675 3
2 2676 49
2 2677 11
2 2678 7
2 2679 23
2 2680 128
2 2681 41
2 2682 50
2 2683 3
2 2684 64
2 2685 10
2 2686 3
2 2687 2
2 2688 4
2 2689 1
2 2690 55
2 2691 5
2 2692 1104
2 2693 3
2 2694 47
2 2695 7
2 2696 74
2 2697 4
2 2698 1214
2 2699 5
2 2700 47
2 2701 4
2 2702 21
2 2703 110
2 2704 6
2 2705 27
2 2706 2
2 2707 4
2 2708 5
2 2709 70
2 2710 4
2 2711 71
2 2712 65
2 2713 1
2 2714 38
2 2715 27
2 2716 2
2 2717 45
2 2718 7
2 2719 23
2 2720 4
2 2721 3
2 2722 2
2 2723 33
2 2724 4
2 2725 694
2 2726 9
2 2727 24
2 2728 100
2 2729 365
2 2730 1
2 2731 2
2 2732 10
2 2733 88
2 2734 2
2 2735 94
2 2736 49
2 2737 47
2 2738 47
2 2739 4
2 2740 5
2 2741 89
2 2742 2
2 2743 1
2 2744 83
2 2745 6
2 2746 4
2 2748 37
2 2749 90
2 2750 87
2 2751 76
2 2752 2
2 2753 6
2 2754 75
2 2755 12
2 2756 36
2 2757 39
2 2758 75
2 2759 2
2 2760 56
2 2761 34
2 2762 3
2 2763 58
2 2764 68
2 2765 33
2 2766 7
2 2767 3
2 2768 5
2 2769 7
2 2770 1060
2 2771 87
2 2772 55
2 2773 28
2 2774 39
2 2775 170
2 2776 61
2 2777 129
2 2778 4
2 2779 10
2 2780 6
2 2781 2
2 2782 3
2 2783 91
2 2784 51
2 2785 55
2 2786 40
2 2787 9
2 2788 8
2 2789 77
2 2790 33
2 2791 2
2 2792 82
2 2794 4
2 2795 6
2 2796 4
2 2797 9
2 2798 125
2 2799 82
2 2800 83
2 2801 10
2 2802 65
2 2803 4
2 2804 3
2 2805 5
2 2806 23
2 2807 5
2 2808 74
2 2809 5
2 2810 182
2 2811 4
2 2812 92
2 2813 42
2 2814 4
2 2815 62
2 2816 29
2 2817 49
2 2818 7
2 2819 4
2 2820 5
2 2821 58
2 2822 88
2 2823 91
2 2824 8
2 2825 23
2 2826 30
2 2827 54
2 2828 66
2 2829 36
2 2830 2
2 2831 6
2 2832 45
2 2833 70
2 2834 6
2 2835 3
2 2836 98
2 2837 198
2 2838 82
2 2839 4
2 2840 1212
2 2841 42
2 2842 4
2 2843 74
2 2844 1
2 2845 92
2 2846 4
2 2847 2
2 2848 3
2 2849 3
2 2850 35
2 2851 68
2 2852 557
2 2853 4
2 2854 2
2 2855 36
2 2857 3
2 2858 9
2 2859 1
2 2860 7
2 2861 5
2 2862 5
2 2863 2
2 2864 52
2 2865 41
2 2866 58
2 2867 4
2 2868 6
2 2869 6
2 2870 5
2 2871 5
2 2872 5
2 2873 20
2 2874 88
2 2875 68
2 2876 6
2 2877 5
2 2878 4
2 2879 898
2 2880 1186
2 2881 8
2 2882 104
2 2883 4
2 2884 39
2 2885 1024
2 2886 61
2 2887 59
2 2888 6
2 2889 3
2 2890 1
2 2891 619
2 2892 24
2 2893 4
2 2894 1
2 2895 32
2 2896 5
2 2897 22
2 2898 4
2 2899 63
2 2900 2
2 2901 5
2 2902 44
2 2903 52
2 2904 66
2 2905 5
2 2906 1
2 2907 71
2 2908 5
2 2909 7
2 2910 3
2 2911 140
2 2912 5
2 2913 6
2 2914 65
2 2915 2
2 2916 31
2 2917 78
2 2918 44
2 2919 9
2 2920 54
2 2921 23
2 2922 64
2 2923 75
2 2924 30
2 2925 71
2 2926 50
2 2927 6
2 2928 4
2 2929 121
2 2930 58
2 2931 75
2 2932 969
2 2933 47
2 2934 54
2 2935 2
2 2936 40
2 2937 862
2 2938 79
2 2939 51
2 2940 9
2 2943 5
2 2944 6
2 2945 3
2 2946 6
2 2947 84
2 2948 4
2 2949 5
2 2950 9
2 2951 60
2 2952 41
2 2953 32
2 2954 46
2 2955 7
2 2956 6
2 2957 98
2 2958 3
2 2959 5
2 2960 105
2 2961 85
2 2962 42
2 2963 12
2 2964 40
2 2965 39
2 2966 3
2 2967 5
2 2968 4
2 2969 3
2 2970 139
2 2971 2
2 2972 88
2 2973 36
2 2974 190
2 2975 3
2 2976 10
2 2977 29
2 2978 2
2 2979 2
2 2980 86
2 2981 6
2 2982 43
2 2983 45
2 2984 23
2 2985 18
2 2986 96
2 2987 1
2 2988 72
2 2989 91
2 2990 4
2 2991 74
2 2992 5
2 2993 49
2 2994 10
2 2995 62
2 2996 4
2 2997 6
2 2998 5
2 2999 8
2 3000 52
2 3001 44
2 3002 6
2 3003 5
2 3004 34
2 3005 22
2 3006 3
2 3007 56
2 3008 4
2 3009 1
2 3010 6
2 3011 3
2 3012 2
2 3013 3
2 3014 20
2 3015 851
2 3016 13
2 3017 34
2 3018 4
2 3019 2
2 3020 23
2 3021 9
2 3022 119
2 3023 72
2 3024 42
2 3025 32
2 3026 64
2 3027 6
2 3028 801
2 3029 5
2 3030 7
2 3031 791
2 3032 98
2 3033 4
2 3034 6
2 3035 8
2 3036 38
2 3037 67
2 3038 7
2 3039 3
2 3040 8
2 3041 113
2 3042 1
2 3043 122
2 3044 20
2 3045 34
2 3046 12
2 3047 62
2 3048 12
2 3049 1
2 3050 3
2 3051 1
2 3052 83
2 3053 1
2 3054 88
2 3055 57
2 3056 2
2 3057 4
2 3058 772
2 3059 3
2 3060 48
2 3061 4
2 3062 1
2 3063 63
2 3064 33
2 3065 9
2 3066 3
2 3067 3
2 3068 5
2 3069 51
2 3070 40
2 3071 3
2 3072 52
2 3073 81
2 3074 60
2 3075 3
2 3076 38
2 3077 5
2 3078 18
2 3079 31
2 3080 105
2 3081 5
2 3082 2
2 3083 6
2 3084 72
2 3085 86
2 3086 70
2 3087 4
2 3088 65
2 3089 47
2 3090 3
2 3091 6
2 3092 93
2 3093 2
2 3094 68
2 3095 392
2 3096 68
2 3097 36
2 3098 5
2 3099 17
2 3100 6
2 3101 17
2 3102 65
2 3103 80
2 3104 2
2 3105 5
2 3106 3
2 3107 29
2 3108 81
2 3109 56
2 3110 6
2 3111 103
2 3112 78
2 3113 106
2 3114 121
2 3115 79
2 3116 67
2 3117 2
2 3118 2
2 3119 6
2 3120 6
2 3121 88
2 3122 71
2 3123 3
2 3124 12
2 3125 44
2 3126 1
2 3127 59
2 3128 39
2 3129 26
2 3130 32
2 3131 12
2 3132 57
2 3133 10
2 3134 30
2 3135 91
2 3136 4
2 3137 5
2 3138 28
2 3139 4
2 3140 8
2 3141 5
2 3142 105
2 3143 54
2 3144 101
2 3145 38
2 3146 62
2 3147 9
2 3148 2
2 3149 41
2 3150 51
2 3151 2
2 3152 4
2 3153 3
2 3154 8
2 3155 67
2 3156 64
2 3157 86
2 3158 19
2 3159 15
2 3160 154
2 3161 229
2 3162 8
2 3163 17
2 3164 4
2 3165 65
2 3166 88
2 3167 21
2 3168 13
2 3169 128
2 3170 5
2 3171 2
2 3172 4
2 3173 28
2 3174 4
2 3175 43
2 3177 27
2 3178 7
2 3179 4
2 3180 473
2 3181 52
2 3182 85
2 3183 19
2 3184 45
2 3185 84
2 3186 42
2 3187 4
2 3188 121
2 3189 91
2 3190 30
2 3191 13
2 3192 50
2 3193 418
2 3194 61
2 3195 2
2 3196 11
2 3197 56
2 3198 68
2 3199 57
2 3200 57
2 3201 5
2 3202 74
2 3203 83
2 3204 44
2 3205 69
2 3206 4
2 3207 24
2 3208 41
2 3209 7
2 3210 2
2 3211 2
2 3212 991
2 3213 56
2 3214 2
2 3215 48
2 3216 75
2 3217 54
2 3218 110
2 3219 39
2 3220 2
2 3221 84
2 3222 7
2 3223 1095
2 3224 3
2 3225 3
2 3226 5
2 3227 4
2 3228 259
2 3229 3
2 3230 2
2 3231 58
2 3232 86
2 3233 45
2 3234 76
2 3235 8
2 3236 2
2 3237 3
2 3238 29
2 3239 10
2 3240 5
2 3241 6
2 3242 9
2 3243 3
2 3244 5
2 3245 1221
2 3246 104
2 3247 2
2 3248 40
2 3249 55
2 3250 2
2 3251 92
2 3252 2
2 3253 57
2 3254 2
2 3255 1
2 3256 9
2 3257 3
2 3258 1008
2 3259 6
2 3260 6
2 3261 116
2 3262 94
2 3263 95
2 3264 4
2 3265 201
2 3266 62
2 3267 27
2 3268 69
2 3269 2
2 3270 2
2 3271 51
2 3272 81
2 3273 4
2 3274 6
2 3275 18
2 3276 1148
2 3277 3
2 3278 7
2 3279 65
2 3280 5
2 3281 2
2 3282 6
2 3283 8
2 3284 39
2 3285 5
2 3286 63
2 3287 54
2 3288 74
2 3289 708
2 3290 3
2 3291 5
2 3292 5
2 3293 48
2 3294 88
2 3295 34
2 3296 3
2 3297 17
2 3298 6
2 3299 62
2 3300 5
2 3301 1
2 3302 23
2 3303 975
2 3304 61
2 3305 1013
2 3306 7
2 3307 28
2 3308 21
2 3309 38
2 3310 13
2 3311 4
2 3312 1
2 3313 55
2 3314 6
2 3315 4
2 3316 52
2 3317 4
2 3318 34
2 3319 48
2 3320 4
2 3322 45
2 3323 7
2 3324 6
2 3325 4
2 3326 4
2 3327 134
2 3328 120
2 3329 5
2 3330 43
2 3331 5
2 3332 307
2 3333 66
2 3334 6
2 3335 4
2 3336 8
2 3337 4
2 3338 2
2 3339 1116
2 3340 124
2 3341 4
2 3342 50
2 3343 146
2 3344 27
2 3345 1
2 3346 1
2 3347 2
2 3348 72
2 3349 2
2 3350 4
2 3352 19
2 3353 43
2 3354 70
2 3355 3
2 3356 4
2 3357 64
2 3358 4
2 3359 23
2 3360 16
2 3361 50
2 3362 70
2 3363 46
2 3364 3
2 3365 18
2 3366 49
2 3367 39
2 3368 5
2 3369 4
2 3370 2
2 3371 33
2 3372 64
2 3373 71
2 3374 2
2 3375 6
2 3376 500
2 3377 4
2 3378 51
2 3379 2
2 3380 37
2 3381 32
2 3382 2
2 3384 26
2 3385 12
2 3386 103
2 3387 89
2 3388 48
2 3389 2
2 3390 2
2 3391 4
2 3392 36
2 3393 4
2 3394 2
2 3395 8
2 3396 7
2 3397 61
2 3398 3
2 3399 6
2 3400 61
2 3401 4
2 3402 20
2 3403 19
2 3404 44
2 3405 93
2 3406 4
2 3407 21
2 3408 53
2 3409 112
2 3410 52
2 3411 4
2 3412 45
2 3413 33
2 3414 41
2 3415 47
2 3416 86
2 3417 81
2 3418 19
2 3419 87
2 3420 86
2 3421 53
2 3422 90
2 3423 4
2 3424 41
2 3425 5
2 3426 268
2 3427 80
2 3428 76
2 3429 32
2 3430 40
2 3431 6
2 3432 26
2 3433 11
2 3434 4
2 3435 41
2 3436 30
2 3437 1115
2 3438 8
2 3439 35
2 3440 612
2 3441 1
2 3442 3
2 3443 88
2 3444 18
2 3445 61
2 3446 1
2 3447 60
2 3448 27
2 3449 65
2 3450 6
2 3451 146
2 3452 8
2 3453 79
2 3454 9
2 3455 5
2 3457 4
2 3458 75
2 3459 52
2 3460 38
2 3461 1
2 3462 2
2 3463 52
2 3464 2
2 3465 14
2 3466 5
2 3467 16
2 3468 4
2 3469 82
2 3470 67
2 3471 64
2 3473 46
2 3474 2
2 3475 98
2 3476 5
2 3477 12
2 3478 4
2 3479 2
2 3480 6
2 3481 4
2 3482 45
2 3483 7
2 3484 50
2 3485 1194
2 3486 137
2 3487 5
2 3488 2
2 3489 2
2 3490 47
2 3491 5
2 3492 3
2 3493 5
2 3494 57
2 3495 47
2 3496 169
2 3497 5
2 3498 73
2 3499 6
2 3500 49
2 3501 76
2 3502 33
2 3503 34
2 3504 4
2 3505 62
2 3506 4
2 3508 55
2 3509 4
2 3510 2
2 3511 6
2 3512 82
2 3513 44
2 3514 4
2 3515 79
2 3516 2
2 3517 8
2 3518 1004
2 3519 25
2 3520 593
2 3521 959
2 3522 54
2 3523 506
2 3524 5
2 3525 6
2 3526 46
2 3527 123
2 3528 5
2 3529 81
2 3530 57
2 3531 85
2 3532 3
2 3533 27
2 3534 7
2 3535 45
2 3536 105
2 3537 6
2 3538 2
2 3539 40
2 3540 19
2 3541 21
2 3542 74
2 3543 335
2 3544 40
2 3545 2
2 3546 16
2 3547 76
2 3548 1253
2 3549 25
2 3550 6
2 3551 3
2 3552 1063
2 3553 152
2 3554 29
2 3555 6
2 3556 111
2 3557 80
2 3558 7
2 3559 7
2 3560 101
2 3561 5
2 3562 75
2 3563 30
2 3564 10
2 3565 56
2 3566 5
2 3567 11
2 3568 5
2 3569 3
2 3570 6
2 3571 1
2 3572 1
2 3573 32
2 3574 60
2 3575 6
2 3576 71
2 3577 7
2 3578 9
2 3579 44
2 3580 3
2 3581 734
2 3582 6
2 3583 59
2 3584 4
2 3585 23
2 3586 3
2 3587 60
2 3588 1238
2 3589 6
2 3590 3
2 3592 4
2 3593 26
2 3594 115
2 3595 50
2 3596 33
2 3597 4
2 3598 2
2 3599 5
2 3600 56
2 3601 3
2 3602 9
2 3603 98
2 3604 2
2 3605 74
2 3606 6
2 3607 47
2 3608 2
2 3609 39
2 3610 4
2 3611 3
2 3612 87
2 3613 5
2 3614 1033
2 3615 132
2 3616 480
2 3617 5
2 3618 2
2 3619 80
2 3620 2
2 3621 6
2 3622 68
2 3623 1
2 3624 8
2 3625 4
2 3626 58
2 3627 38
2 3628 54
2 3629 87
2 3630 68
2 3631 43
2 3632 102
2 3633 30
2 3634 4
2 3635 7
2 3636 2
2 3637 6
2 3638 5
2 3639 70
2 3640 55
2 3641 58
2 3642 7
2 3643 6
2 3644 96
2 3646 3
2 3647 61
2 3648 25
2 3649 5
2 3650 2
2 3651 491
2 3652 8
2 3653 1
2 3654 40
2 3655 6
2 3656 1
2 3657 1
2 3658 40
2 3659 1046
2 3660 48
2 3661 57
2 3662 92
2 3663 2
2 3665 45
2 3666 36
2 3667 7
2 3668 2
2 3669 714
2 3670 3
2 3671 24
2 3672 59
2 3673 4
2 3674 46
2 3675 101
2 3676 6
2 3677 47
2 3678 25
2 3679 144
2 3680 64
2 3681 116
2 3682 5
2 3683 108
2 3684 59
2 3685 521
2 3686 73
2 3687 3
2 3688 4
2 3689 64
2 3690 5
2 3691 43
2 3692 2
2 3693 10
2 3694 24
2 3695 5
2 3696 66
2 3697 65
2 3698 67
2 3699 65
2 3700 17
2 3701 65
2 3702 2
2 3703 8
2 3704 2
2 3705 77
2 3706 51
2 3707 3
2 3708 66
2 3709 2
2 3710 82
2 3711 49
2 3712 21
2 3713 37
2 3714 10
2 3715 2
2 3716 6
2 3717 6
2 3718 50
2 3719 3
2 3720 4
2 3721 4
2 3722 8
2 3723 64
2 3724 85
2 3725 115
2 3726 5
2 3727 12
2 3728 1120
2 3729 105
2 3730 15
2 3731 21
2 3732 4
2 3733 6
2 3734 59
2 3735 94
2 3736 4
2 3737 64
2 3738 2
2 3739 45
2 3740 133
2 3741 5
2 3742 642
2 3743 3
2 3744 6
2 3745 2
2 3746 26
2 3747 2
2 3748 33
2 3749 4
2 3750 50
2 3751 1
2 3752 104
2 3753 950
2 3754 4
2 3755 3
2 3756 4
2 3757 39
2 3758 1
2 3759 89
2 3760 3
2 3761 58
2 3762 87
2 3763 61
2 3764 27
2 3765 105
2 3766 75
2 3767 4
2 3768 30
2 3769 6
2 3770 4
2 3771 55
2 3772 4
2 3773 62
2 3774 26
2 3775 8
2 3776 79
2 3777 3
2 3778 6
2 3779 24
2 3780 98
2 3781 1
2 3782 45
2 3783 4
2 3784 4
2 3785 23
2 3786 2
2 3787 9
2 3788 11
2 3789 115
2 3790 6
2 3791 1216
2 3792 67
2 3793 9
2 3794 123
2 3795 15
2 3796 45
2 3797 1172
2 3798 79
2 3799 117
2 3800 6
2 3801 4
2 3802 242
2 3803 5
2 3804 6
2 3805 342
2 3806 10
2 3807 94
2 3808 43
2 3809 79
2 3810 82
2 3811 32
2 3812 4
2 3813 48
2 3814 40
2 3815 9
2 3816 56
2 3817 84
2 3818 33
2 3819 60
2 3820 7
2 3821 38
2 3822 4
2 3823 5
2 3824 4
2 3825 33
2 3826 54
2 3827 95
2 3828 95
2 3829 3
2 3830 11
2 3831 5
2 3832 2
2 3833 82
2 3834 8
2 3835 53
2 3836 1
2 3837 8
2 3838 2
2 3839 3
2 3840 84
2 3841 14
2 3842 4
2 3843 4
2 3844 7
2 3845 62
2 3846 125
2 3848 6
2 3849 11
2 3850 1045
2 3851 8
2 3852 74
2 3853 48
2 3854 5
2 3855 5
2 3856 8
2 3857 7
2 3858 59
2 3859 41
2 3860 1
2 3861 5
2 3862 87
2 3863 54
2 3864 2
2 3865 8
2 3866 37
2 3867 3
2 3868 5
2 3869 549
2 3870 51
2 3871 1
2 3872 3
2 3873 4
2 3874 4
2 3875 12
2 3876 45
2 3877 3
2 3878 1
2 3879 95
2 3880 68
2 3881 7
2 3882 3
2 3883 341
2 3884 8
2 3885 3
2 3886 7
2 3887 1
2 3888 11
2 3889 3
2 3890 84
2 3891 8
2 3892 4
2 3893 41
2 3894 51
2 3895 6
2 3897 41
2 3898 138
2 3899 57
2 3900 198
2 3901 4
2 3902 55
2 3903 4
2 3904 8
2 3905 5
2 3906 86
2 3907 107
2 3908 53
2 3909 89
2 3910 1
2 3911 4
2 3912 5
2 3913 3
2 3914 2
2 3915 3
2 3916 4
2 3917 424
2 3918 5
2 3919 5
2 3920 5
2 3921 101
2 3922 4
2 3923 3
2 3924 3
2 3925 47
2 3926 4
2 3927 3
2 3928 2
2 3929 34
2 3930 47
2 3931 7
2 3932 60
2 3933 202
2 3934 2
2 3935 87
2 3936 6
2 3937 64
2 3938 3
2 3939 11
2 3940 25
2 3941 5
2 3942 35
2 3943 6
2 3944 879
2 3945 4
2 3946 52
2 3947 64
2 3948 7
2 3949 7
2 3950 6
2 3951 40
2 3952 17
2 3953 72
2 3954 60
2 3955 5
2 3956 42
2 3957 1
2 3958 4
2 3959 2
2 3960 77
2 3961 9
2 3962 7
2 3963 4
2 3964 4
2 3965 39
2 3966 4
2 3967 4
2 3968 286
2 3969 5
2 3970 7
2 3971 4
2 3972 4
2 3973 3
2 3974 1136
2 3975 125
2 3976 1019
2 3977 28
2 3978 24
2 3979 764
2 3980 49
2 3981 3
2 3982 106
2 3983 3
2 3984 4
2 3985 41
2 3986 4
2 3987 4
2 3988 90
2 3989 146
2 3990 63
2 3991 31
2 3992 6
2 3993 1
2 3994 66
2 3995 43
2 3996 9
2 3997 456
2 3998 171
2 3999 4
2 4000 71
2 4001 4
2 4002 24
2 4003 25
2 4004 2
2 4005 58
2 4006 135
2 4007 28
2 4009 193
2 4010 13
2 4011 2
2 4012 28
2 4013 115
2 4014 57
2 4015 43
2 4016 45
2 4018 115
2 4019 40
2 4020 113
2 4021 56
2 4022 16
2 4023 17
2 4024 29
2 4025 6
2 4026 101
2 4027 111
2 4028 3
2 4029 127
2 4031 36
2 4032 47
2 4033 7
2 4034 99
2 4035 7
2 4036 1
2 4037 3
2 4038 72
2 4039 2
2 4040 72
2 4041 49
2 4042 6
2 4043 3
2 4044 44
2 4045 4
2 4046 84
2 4047 60
2 4048 19
2 4049 113
2 4050 9
2 4051 2
2 4052 6
2 4053 82
2 4054 42
2 4055 4
2 4056 57
2 4057 49
2 4058 3
2 4059 6
2 4060 2
2 4061 486
2 4062 7
2 4063 157
2 4064 41
2 4065 73
2 4066 70
2 4067 41
2 4068 369
2 4069 907
2 4070 89
2 4071 4
2 4072 19
2 4073 33
2 4074 25
2 4075 860
2 4076 7
2 4077 5
2 4078 10
2 4079 47
2 4080 2
2 4081 76
2 4082 45
2 4083 1
2 4084 3
2 4085 2
2 4086 2
2 4087 3
2 4088 1
2 4089 125
2 4090 3
2 4091 6
2 4092 22
2 4093 1
2 4094 1
2 4095 7
2 4096 47
2 4097 7
2 4098 8
2 4099 78
2 4100 13
2 4101 3
2 4102 40
2 4103 82
2 4104 15
2 4105 2
2 4106 14
2 4107 53
2 4108 41
2 4109 4
2 4110 76
2 4111 43
2 4112 5
2 4113 85
2 4115 4
2 4116 7
2 4117 38
2 4118 4
2 4119 75
2 4120 34
2 4121 7
2 4122 6
2 4123 2
2 4124 3
2 4125 3
2 4127 23
2 4128 273
2 4129 98
2 4130 8
2 4131 87
2 4132 28
2 4133 5
2 4134 31
2 4135 52
2 4136 18
2 4137 3
2 4138 6
2 4139 60
2 4140 5
2 4141 87
2 4142 34
2 4143 25
2 4144 3
2 4145 49
2 4146 20
2 4147 3
2 4148 88
2 4149 41
2 4150 45
2 4151 3
2 4153 4
2 4154 6
2 4155 3
2 4156 71
2 4157 4
2 4158 3
2 4159 56
2 4160 61
2 4161 4
2 4162 88
2 4163 69
2 4164 37
2 4165 3
2 4166 149
2 4167 2
2 4168 96
2 4169 1
2 4171 94
2 4172 38
2 4173 4
2 4174 20
2 4175 4
2 4176 4
2 4177 34
2 4178 6
2 4179 46
2 4180 5
2 4181 2
2 4182 53
2 4183 9
2 4184 108
2 4185 2
2 4186 3
2 4187 343
2 4188 106
2 4189 2
2 4190 71
2 4191 7
2 4192 82
2 4193 42
2 4194 64
2 4195 2
2 4196 41
2 4197 31
2 4198 5
2 4199 1
2 4200 41
2 4201 108
2 4202 5
2 4203 2
2 4204 97
2 4206 37
2 4207 793
2 4208 2
2 4209 16
2 4210 102
2 4211 52
2 4212 33
2 4213 4
2 4214 1126
2 4215 30
2 4216 6
2 4217 6
2 4218 6
2 4219 26
2 4220 23
2 4221 1274
2 4222 10
2 4223 3
2 4224 7
2 4225 2
2 4226 4
2 4227 5
2 4228 6
2 4229 4
2 4230 2
2 4231 96
2 4232 36
2 4233 15
2 4234 4
2 4235 48
2 4236 4
2 4237 39
2 4238 3
2 4239 43
2 4240 65
2 4241 126
2 4242 6
2 4243 5
2 4244 917
2 4245 2
2 4246 2
2 4247 6
2 4248 85
2 4249 61
2 4250 5
2 4251 57
2 4252 2
2 4253 7
2 4254 7
2 4255 46
2 4256 6
2 4257 137
2 4258 4
2 4259 639
2 4261 52
2 4262 3
2 4263 89
2 4264 55
2 4265 1
2 4266 3
2 4267 181
2 4268 26
2 4269 4
2 4270 98
2 4271 2
2 4272 7
2 4273 62
2 4274 32
2 4275 7
2 4276 1
2 4277 96
2 4278 52
2 4279 74
2 4281 54
2 4282 117
2 4283 9
2 4284 56
2 4286 8
2 4287 53
2 4288 60
2 4289 3
2 4290 68
2 4291 90
2 4292 6
2 4293 2
2 4294 886
2 4295 8
2 4296 1
2 4297 50
2 4298 76
2 4299 24
2 4300 74
2 4301 28
2 4302 5
2 4303 3
2 4304 45
2 4306 49
2 4307 63
2 4308 36
2 4309 2
2 4310 2
2 4311 4
2 4312 74
2 4313 3
2 4314 2
2 4315 5
2 4316 80
2 4317 47
2 4318 33
2 4319 50
2 4320 2
2 4321 37
2 4322 5
2 4323 63
2 4324 14
2 4325 2
2 4326 2
2 4327 43
2 4328 5
2 4329 69
2 4330 13
2 4331 4
2 4333 3
2 4334 25
2 4335 2
2 4336 504
2 4337 2
2 4338 3
2 4339 131
2 4340 2
2 4341 75
2 4342 67
2 4343 18
2 4344 17
2 4345 7
2 4346 64
2 4347 46
2 4348 31
2 4349 10
2 4350 6
2 4351 81
2 4352 7
2 4353 120
2 4354 39
2 4355 53
2 4356 44
2 4357 6
2 4358 42
2 4359 3
2 4360 89
2 4361 1
2 4362 5
2 4363 2
2 4364 26
2 4365 3
2 4366 1
2 4367 75
2 4368 35
2 4369 6
2 4370 21
2 4371 2
2 4372 49
2 4373 1
2 4374 4
2 4375 42
2 4376 7
2 4377 50
2 4378 1
2 4379 47
2 4380 558
2 4381 5
2 4382 5
2 4383 61
2 4384 264
2 4385 28
2 4386 4
2 4387 33
2 4388 127
2 4389 133
2 4390 85
2 4391 1
2 4392 47
2 4393 5
2 4394 96
2 4395 57
2 4396 6
2 4397 3
2 4398 68
2 4399 6
2 4400 83
2 4401 3
2 4402 13
2 4403 2
2 4404 4
2 4405 4
2 4406 109
2 4407 8
2 4408 40
2 4409 5
2 4410 3
2 4411 4
2 4412 5
2 4413 94
2 4414 48
2 4415 61
2 4416 6
2 4417 8
2 4418 242
2 4419 96
2 4420 5
2 4421 3
2 4422 23
2 4423 137
2 4424 39
2 4425 6
2 4426 37
2 4427 22
2 4428 22
2 4429 3
2 4430 1
2 4432 3
2 4433 92
2 4434 106
2 4435 64
2 4436 19
2 4437 3
2 4438 28
2 4439 84
2 4440 9
2 4441 54
2 4442 9
2 4443 5
2 4445 3
2 4446 5
2 4447 3
2 4448 128
2 4449 1
2 4450 32
2 4451 1
2 4452 92
2 4453 54
2 4454 56
2 4455 4
2 4456 4
2 4457 2
2 4458 56
2 4459 59
2 4460 58
2 4461 27
2 4462 4
2 4463 42
2 4464 109
2 4465 50
2 4466 2
2 4467 2
2 4468 35
2 4469 45
2 4470 133
2 4471 70
2 4472 61
2 4473 34
2 4474 77
2 4475 4
2 4476 25
2 4477 6
2 4478 2
2 4479 81
2 4480 18
2 4481 2
2 4482 5
2 4483 10
2 4484 88
2 4485 124
2 4486 5
2 4487 35
2 4488 9
2 4489 38
2 4490 8
2 4491 137
2 4492 99
2 4493 14
2 4494 32
2 4495 3
2 4496 4
2 4497 29
2 4498 61
2 4499 6
2 4500 97
2 4501 4
2 4502 46
2 4503 92
2 4504 2
2 4505 36
2 4506 97
2 4507 31
2 4508 2
2 4509 1
2 4510 7
2 4511 73
2 4513 6
2 4515 99
2 4516 4
2 4517 1
2 4518 56
2 4519 2
2 4520 87
2 4521 8
2 4522 8
2 4523 34
2 4524 77
2 4525 4
2 4526 4
2 4527 4
2 4528 3
2 4529 3
2 4530 26
2 4531 43
2 4532 19
2 4533 5
2 4534 2
2 4535 74
2 4536 2
2 4537 6
2 4538 2
2 4539 20
2 4540 46
2 4541 1024
2 4542 122
2 4543 12
2 4544 5
2 4545 3
2 4546 5
2 4547 3
2 4548 3
2 4549 18
2 4550 52
2 4551 97
2 4552 71
2 4553 90
2 4554 40
2 4555 7
2 4556 123
2 4557 80
2 4558 6
2 4559 3
2 4560 2
2 4561 9
2 4562 3
2 4563 48
2 4564 5
2 4565 1144
2 4566 12
2 4567 101
2 4568 3
2 4569 68
2 4570 2
2 4571 2
2 4572 3
2 4573 5
2 4574 1
2 4575 7
2 4576 78
2 4577 4
2 4578 40
2 4579 31
2 4580 65
2 4581 29
2 4582 3
2 4583 64
2 4584 2
2 4585 89
2 4586 45
2 4587 80
2 4588 7
2 4589 5
2 4590 57
2 4591 15
2 4592 3
2 4593 6
2 4594 3
2 4595 3
2 4596 3
2 4597 8
2 4599 8
2 4600 38
2 4601 5
2 4602 55
2 4603 4
2 4604 14
2 4605 39
2 4606 81
2 4607 58
2 4608 3
2 4609 6
2 4610 6
2 4611 16
2 4612 2
2 4613 3
2 4614 3
2 4615 49
2 4616 99
2 4617 165
2 4618 64
2 4619 44
2 4620 136
2 4621 5
2 4622 25
2 4623 5
2 4625 95
2 4626 6
2 4627 19
2 4628 44
2 4629 73
2 4630 4
2 4631 55
2 4632 8
2 4633 5
2 4634 2
2 4635 36
2 4636 8
2 4637 88
2 4638 11
2 4639 2
2 4640 115
2 4641 1
2 4642 4
2 4643 2
2 4644 7
2 4645 29
2 4646 7
2 4647 950
2 4648 16
2 4649 48
2 4650 5
2 4651 4
2 4652 4
2 4653 56
2 4654 44
2 4655 82
2 4656 12
2 4657 2
2 4658 70
2 4659 51
2 4660 5
2 4661 5
2 4662 5
2 4663 5
2 4664 597
2 4665 6
2 4666 65
2 4667 83
2 4668 612
2 4669 7
2 4670 52
2 4671 29
2 4672 77
2 4673 4
2 4674 38
2 4675 143
2 4676 95
2 4677 90
2 4678 37
2 4679 155
2 4680 112
2 4681 61
2 4682 10
2 4683 26
2 4684 5
2 4685 40
2 4686 10
2 4687 3
2 4688 1
2 4689 53
2 4690 5
2 4691 3
2 4692 158
2 4693 6
2 4694 6
2 4695 39
2 4696 3
2 4697 51
2 4698 83
2 4699 4
2 4700 15
2 4701 96
2 4702 8
2 4703 9
2 4704 26
2 4705 38
2 4706 9
2 4707 3
2 4708 1
2 4709 32
2 4710 44
2 4711 52
2 4712 27
2 4714 44
2 4715 97
2 4716 29
2 4717 80
2 4718 31
2 4719 73
2 4720 77
2 4721 5
2 4722 9
2 4723 109
2 4724 63
2 4725 5
2 4726 58
2 4727 12
2 4728 30
2 4729 55
2 4730 87
2 4731 5
2 4732 1
2 4733 133
2 4734 156
2 4735 76
2 4736 46
2 4737 694
2 4738 4
2 4739 48
2 4740 1
2 4741 39
2 4742 6
2 4743 548
2 4744 8
2 4745 5
2 4746 23
2 4747 4
2 4748 28
2 4749 5
2 4750 7
2 4751 61
2 4752 5
2 4753 6
2 4754 22
2 4755 6
2 4756 64
2 4757 51
2 4758 6
2 4759 10
2 4760 47
2 4761 68
2 4762 83
2 4763 104
2 4764 2
2 4765 1
2 4766 30
2 4767 95
2 4768 64
2 4769 7
2 4771 15
2 4772 4
2 4773 1162
2 4774 1
2 4775 4
2 4776 3
2 4777 10
2 4778 63
2 4779 25
2 4780 121
2 4781 1
2 4782 1
2 4783 38
2 4784 72
2 4785 49
2 4786 20
2 4787 9
2 4788 987
2 4789 26
2 4790 72
2 4791 75
2 4792 99
2 4793 74
2 4794 43
2 4795 40
2 4796 47
2 4797 78
2 4798 4
2 4799 47
2 4800 9
2 4801 21
2 4802 1
2 4803 1015
2 4804 3
2 4805 1232
2 4806 4
2 4807 1215
2 4808 158
2 4809 2
2 4810 89
2 4811 5
2 4812 2
2 4813 83
2 4814 26
2 4815 4
2 4816 7
2 4817 60
2 4818 288
2 4819 6
2 4820 2
2 4821 36
2 4822 25
2 4823 26
2 4824 95
2 4825 9
2 4826 53
2 4827 81
2 4828 3
2 4829 86
2 4831 79
2 4832 3
2 4833 18
2 4834 4
2 4835 62
2 4836 1
2 4837 7
2 4838 4
2 4839 10
2 4840 37
2 4841 4
2 4842 1
2 4843 72
2 4844 39
2 4845 3
2 4846 1
2 4847 1
2 4848 28
2 4849 6
2 4850 48
2 4851 1
2 4852 40
2 4853 7
2 4854 6
2 4855 34
2 4856 2
2 4857 80
2 4858 6
2 4859 39
2 4860 56
2 4861 4
2 4862 5
2 4863 2
2 4864 14
2 4865 3
2 4866 89
2 4867 75
2 4868 8
2 4869 71
2 4870 17
2 4871 24
2 4872 4
2 4873 2
2 4874 16
2 4875 42
2 4876 8
2 4877 3
2 4878 48
2 4879 35
2 4880 983
2 4881 2
2 4882 70
2 4883 99
2 4884 19
2 4885 5
2 4886 71
2 4887 2
2 4888 53
2 4889 5
2 4890 476
2 4891 2
2 4892 2
2 4893 25
2 4894 22
2 4895 4
2 4896 5
2 4897 32
2 4898 79
2 4899 94
2 4900 3
2 4901 4
2 4902 5
2 4903 89
2 4904 49
2 4905 33
2 4906 6
2 4907 51
2 4908 3
2 4909 37
2 4910 5
2 4911 3
2 4912 25
2 4913 8
2 4914 79
2 4915 4
2 4916 14
2 4917 187
2 4918 126
2 4919 7
2 4920 3
2 4921 5
2 4922 4
2 4923 2
2 4924 78
2 4925 92
2 4926 2
2 4927 181
2 4928 113
2 4929 2
2 4930 2
2 4931 58
2 4932 2
2 4933 41
2 4934 4
2 4935 30
2 4936 7
2 4937 4
2 4938 70
2 4939 199
2 4940 42
2 4941 4
2 4942 2
2 4943 4
2 4944 32
2 4945 5
2 4946 66
2 4947 22
2 4948 4
2 4949 44
2 4950 3
2 4951 67
2 4952 22
2 4953 4
2 4954 4
2 4955 23
2 4956 69
2 4957 137
2 4958 45
2 4959 123
2 4960 556
2 4961 9
2 4962 631
2 4963 45
2 4964 72
2 4965 3
2 4966 6
2 4967 6
2 4968 1
2 4969 6
2 4970 109
2 4971 2
2 4972 22
2 4973 4
2 4974 45
2 4975 8
2 4976 1
2 4977 67
2 4978 4
2 4979 98
2 4980 1
2 4981 3
2 4982 3
2 4983 5
2 4984 4
2 4985 3
2 4986 9
2 4987 101
2 4988 37
2 4989 2
2 4990 106
2 4991 2
2 4992 4
2 4993 23
2 4994 5
2 4995 29
2 4996 5
2 4997 5
2 4998 18
2 4999 80
2 5000 69
2 5001 4
2 5002 80
2 5003 44
2 5004 41
2 5005 3
2 5006 6
2 5007 25
2 5008 4
2 5009 6
2 5011 29
2 5012 6
2 5013 72
2 5014 62
2 5016 46
2 5017 29
2 5018 1
2 5019 23
2 5021 6
2 5022 18
2 5023 750
2 5024 1
2 5025 79
2 5026 6
2 5027 36
2 5028 7
2 5029 48
2 5030 3
2 5031 68
2 5032 71
2 5033 2
2 5034 103
2 5035 4
2 5036 38
2 5037 35
2 5038 51
2 5039 53
2 5040 45
2 5041 7
2 5042 85
2 5043 54
2 5044 29
2 5045 31
2 5046 1
2 5047 34
2 5048 1
2 5049 24
2 5050 2
2 5051 2
2 5052 23
2 5053 63
2 5054 22
2 5055 53
2 5056 2
2 5057 7
2 5058 9
2 5059 49
2 5060 18
2 5061 23
2 5062 93
2 5063 95
2 5064 4
2 5065 42
2 5066 4
2 5067 2
2 5068 5
2 5069 5
2 5070 38
2 5071 143
2 5072 161
2 5073 34
2 5074 13
2 5075 6
2 5076 7
2 5077 7
2 5078 6
2 5079 126
2 5080 71
2 5081 5
2 5082 2
2 5083 5
2 5084 4
2 5085 3
2 5086 3
2 5087 5
2 5088 60
2 5089 89
2 5090 23
2 5091 1
2 5092 102
2 5093 107
2 5094 3
2 5095 42
2 5096 6
2 5098 6
2 5099 3
2 5100 3
2 5101 74
2 5102 11
2 5103 5
2 5104 100
2 5105 182
2 5106 1101
2 5107 73
2 5108 5
2 5109 5
2 5110 709
2 5111 2
2 5112 145
2 5113 3
2 5114 30
2 5115 106
2 5116 1
2 5117 4
2 5118 5
2 5119 119
2 5120 118
2 5121 4
2 5122 56
2 5123 5
2 5124 786
2 5125 80
2 5126 94
2 5127 138
2 5128 75
2 5129 78
2 5130 4
2 5131 737
2 5132 2
2 5133 42
2 5134 1
2 5135 16
2 5136 77
2 5137 21
2 5138 5
2 5139 7
2 5140 6
2 5141 80
2 5142 55
2 5143 73
2 5144 64
2 5145 18
2 5146 28
2 5147 35
2 5148 85
2 5149 33
2 5150 4
2 5151 21
2 5152 10
2 5153 3
2 5154 5
2 5155 55
2 5156 63
2 5157 80
2 5158 2
2 5160 7
2 5161 26
2 5162 87
2 5163 5
2 5164 73
2 5165 103
2 5166 58
2 5167 42
2 5168 2
2 5169 35
2 5170 73
2 5171 21
2 5172 6
2 5173 4
2 5174 3
2 5175 28
2 5176 3
2 5177 8
2 5178 3
2 5179 4
2 5180 33
2 5181 87
2 5182 4
2 5183 4
2 5184 133
2 5185 2
2 5186 4
2 5187 17
2 5188 4
2 5189 67
2 5190 796
2 5191 54
2 5192 38
2 5193 41
2 5194 72
2 5195 46
2 5196 5
2 5197 51
2 5198 59
2 5199 72
2 5200 50
2 5201 98
2 5202 100
2 5203 6
2 5204 1
2 5205 4
2 5206 4
2 5207 539
2 5208 61
2 5209 56
2 5210 96
2 5211 2
2 5212 86
2 5213 5
2 5214 6
2 5215 212
2 5216 5
2 5217 5
2 5218 6
2 5219 2
2 5220 64
2 5221 5
2 5222 3
2 5223 2
2 5224 28
2 5225 4
2 5226 49
2 5227 6
2 5228 79
2 5229 1
2 5230 65
2 5231 40
2 5232 68
2 5233 6
2 5234 130
2 5235 3
2 5236 56
2 5237 2
2 5238 667
2 5239 101
2 5240 9
2 5241 3
2 5242 384
2 5243 4
2 5244 86
2 5245 6
2 5246 63
2 5247 60
2 5248 42
2 5249 70
2 5250 40
2 5251 81
2 5252 19
2 5253 3
2 5254 129
2 5255 39
2 5256 760
2 5257 4
2 5258 1
2 5259 797
2 5260 59
2 5261 51
2 5262 65
2 5263 65
2 5264 4
2 5265 36
2 5266 5
2 5267 3
2 5268 3
2 5269 30
2 5270 1
2 5271 11
2 5272 2
2 5273 41
2 5274 2
2 5275 40
2 5276 39
2 5277 6
2 5278 74
2 5279 2
2 5280 68
2 5281 64
2 5282 2
2 5283 3
2 5284 5
2 5285 55
2 5286 96
2 5287 3
2 5288 3
2 5289 38
2 5290 125
2 5291 16
2 5292 58
2 5293 18
2 5294 78
2 5295 25
2 5296 6
2 5297 93
2 5298 84
2 5299 27
2 5300 157
2 5301 4
2 5302 3
2 5303 55
2 5304 2
2 5305 58
2 5306 3
2 5307 4
2 5308 3
2 5309 126
2 5310 38
2 5311 16
2 5312 1
2 5313 2
2 5314 3
2 5315 56
2 5316 5
2 5317 7
2 5318 95
2 5319 43
2 5320 191
2 5321 67
2 5322 24
2 5323 5
2 5324 2
2 5325 39
2 5326 5
2 5327 52
2 5328 2
2 5329 67
2 5330 2
2 5331 57
2 5332 2
2 5333 83
2 5334 139
2 5335 106
2 5336 1
2 5337 6
2 5338 23
2 5339 11
2 5340 42
2 5341 4
2 5342 5
2 5343 7
2 5344 76
2 5345 43
2 5346 84
2 5347 108
2 5348 335
2 5349 3
2 5350 139
2 5351 75
2 5352 7
2 5353 3
2 5354 41
2 5355 28
2 5356 81
2 5357 97
2 5358 61
2 5359 98
2 5360 5
2 5361 2
2 5362 1
2 5363 3
2 5364 72
2 5365 310
2 5366 3
2 5367 29
2 5368 74
2 5369 3
2 5370 38
2 5371 47
2 5372 4
2 5374 10
2 5375 13
2 5376 142
2 5377 1
2 5378 32
2 5379 23
2 5380 57
2 5381 6
2 5382 2
2 5383 36
2 5384 16
2 5385 28
2 5386 5
2 5387 4
2 5388 89
2 5389 108
2 5390 10
2 5391 3
2 5392 63
2 5393 5
2 5394 79
2 5395 2
2 5396 85
2 5397 722
2 5398 4
2 5399 73
2 5400 68
2 5401 17
2 5403 24
2 5404 108
2 5405 3
2 5406 33
2 5407 2
2 5408 7
2 5409 100
2 5410 25
2 5411 100
2 5412 97
2 5413 5
2 5414 4
2 5415 3
2 5416 48
2 5417 54
2 5418 26
2 5419 1
2 5420 5
2 5421 3
2 5422 54
2 5423 3
2 5424 4
2 5425 3
2 5426 4
2 5427 52
2 5428 25
2 5429 110
2 5430 1016
2 5431 41
2 5432 4
2 5433 57
2 5434 10
2 5435 7
2 5436 101
2 5437 16
2 5438 5
2 5439 4
2 5440 4
2 5441 461
2 5442 36
2 5443 37
2 5444 6
2 5445 3
2 5446 19
2 5447 103
2 5448 870
2 5449 3
2 5450 35
2 5451 8
2 5452 12
2 5453 53
2 5454 407
2 5455 39
2 5456 52
2 5458 6
2 5459 1
2 5460 3
2 5461 3
2 5462 5
2 5463 4
2 5464 4
2 5465 25
2 5466 45
2 5467 73
2 5468 2
2 5469 47
2 5470 32
2 5471 66
2 5472 17
2 5473 3
2 5474 9
2 5475 3
2 5476 336
2 5477 16
2 5478 141
2 5479 54
2 5480 3
2 5481 3
2 5482 29
2 5483 2
2 5485 6
2 5486 1
2 5487 7
2 5488 34
2 5489 29
2 5490 197
2 5491 115
2 5492 137
2 5493 22
2 5494 57
2 5495 23
2 5496 373
2 5497 279
2 5498 8
2 5499 1
2 5500 4
2 5501 28
2 5502 50
2 5503 2
2 5504 2
2 5505 3
2 5506 10
2 5507 21
2 5508 68
2 5509 11
2 5510 145
2 5511 59
2 5512 63
2 5513 58
2 5514 25
2 5515 139
2 5516 54
2 5517 82
2 5518 92
2 5519 9
2 5520 4
2 5521 2
2 5522 50
2 5523 30
2 5525 33
2 5526 71
2 5527 31
2 5528 98
2 5529 26
2 5530 5
2 5531 1
2 5532 96
2 5533 19
2 5534 3
2 5535 44
2 5536 96
2 5537 6
2 5538 33
2 5540 3
2 5541 9
2 5542 32
2 5543 124
2 5544 3
2 5545 87
2 5546 80
2 5547 92
2 5548 53
2 5549 5
2 5550 27
2 5551 3
2 5552 64
2 5553 3
2 5554 21
2 5555 62
2 5556 73
2 5557 5
2 5558 2
2 5559 211
2 5560 65
2 5561 81
2 5562 31
2 5563 46
2 5564 3
2 5565 6
2 5566 2
2 5567 3
2 5568 150
2 5569 4
2 5570 4
2 5571 66
2 5572 1
2 5573 66
2 5574 92
2 5576 1
2 5577 58
2 5578 1
2 5579 1
2 5580 128
2 5581 104
2 5582 23
2 5583 119
2 5584 16
2 5585 44
2 5586 4
2 5587 39
2 5588 46
2 5589 27
2 5590 6
2 5591 11
2 5592 43
2 5593 9
2 5594 17
2 5595 1
2 5596 1
2 5597 2
2 5598 32
2 5599 4
2 5600 63
2 5601 2
2 5602 61
2 5603 4
2 5604 28
2 5605 1
2 5606 49
2 5608 22
2 5609 4
2 5610 84
2 5611 43
2 5612 39
2 5613 6
2 5615 4
2 5616 42
2 5617 1
2 5618 56
2 5619 27
2 5620 43
2 5621 44
2 5622 36
2 5623 3
2 5624 9
2 5625 81
2 5626 35
2 5627 20
2 5629 6
2 5630 4
2 5631 12
2 5632 47
2 5633 3
2 5634 7
2 5635 30
2 5636 48
2 5637 6
2 5638 57
2 5639 79
2 5640 7
2 5641 3
2 5642 35
2 5643 4
2 5644 357
2 5645 2
2 5646 8
2 5647 36
2 5648 56
2 5649 58
2 5650 12
2 5651 31
2 5652 117
2 5653 2
2 5654 157
2 5655 1
2 5656 38
2 5657 33
2 5658 60
2 5659 1
2 5660 42
2 5661 42
2 5662 33
2 5663 37
2 5664 1
2 5665 1
2 5666 4
2 5667 24
2 5668 1
2 5669 3
2 5670 15
2 5671 5
2 5672 44
2 5673 63
2 5674 51
2 5675 38
2 5676 31
2 5677 3
2 5678 21
2 5679 68
2 5681 41
2 5682 36
2 5683 12
2 5684 4
2 5685 23
2 5686 81
2 5687 4
2 5688 61
2 5689 9
2 5690 94
2 5691 1
2 5692 3
2 5693 4
2 5694 13
2 5695 3
2 5696 49
2 5697 48
2 5698 2
2 5699 901
2 5700 51
2 5701 4
2 5702 3
2 5703 4
2 5704 4
2 5705 2
2 5706 89
2 5707 37
2 5708 8
2 5709 2
2 5710 42
2 5711 21
2 5712 47
2 5713 24
2 5714 469
2 5715 4
2 5716 1
2 5717 3
2 5718 17
2 5719 6
2 5721 40
2 5722 2
2 5723 43
2 5724 3
2 5725 82
2 5726 1
2 5729 2
2 5731 230
2 5732 5
2 5733 33
2 5734 15
2 5735 1191
2 5736 4
2 5737 8
2 5738 4
2 5739 55
2 5740 32
2 5741 1141
2 5742 8
2 5743 2
2 5744 7
2 5745 2
2 5746 41
2 5747 4
2 5748 4
2 5749 1
2 5750 50
2 5751 84
2 5752 6
2 5753 1
2 5754 6
2 5755 3
2 5756 91
2 5757 7
2 5758 116
2 5759 5
2 5760 64
2 5761 35
2 5762 61
2 5763 64
2 5764 21
2 5765 8
2 5766 65
2 5767 8
2 5768 7
2 5769 254
2 5770 1
2 5771 57
2 5772 3
2 5773 42
2 5774 11
2 5775 26
2 5776 63
2 5777 5
2 5778 74
2 5779 4
2 5780 3
2 5781 5
2 5782 3
2 5783 14
2 5784 626
2 5785 40
2 5786 47
2 5787 55
2 5788 122
2 5789 54
2 5790 23
2 5791 2
2 5792 36
2 5793 4
2 5794 4
2 5795 4
2 5796 4
2 5797 94
2 5798 26
2 5799 99
2 5800 43
2 5801 7
2 5802 58
2 5803 4
2 5804 51
2 5805 1
2 5806 5
2 5807 30
2 5808 5
2 5809 36
2 5810 3
2 5811 71
2 5812 6
2 5813 76
2 5814 3
2 5815 3
2 5816 7
2 5817 5
2 5818 19
2 5819 82
2 5820 77
2 5821 117
2 5822 28
2 5823 6
2 5824 47
2 5825 2
2 5826 1
2 5827 36
2 5828 72
2 5829 1265
2 5830 9
2 5831 102
2 5832 66
2 5833 3
2 5834 119
2 5835 61
2 5836 43
2 5837 102
2 5838 3
2 5839 3
2 5840 73
2 5841 16
2 5842 952
2 5843 27
2 5844 34
2 5845 83
2 5846 58
2 5847 5
2 5848 20
2 5849 61
2 5850 71
2 5851 62
2 5852 48
2 5853 65
2 5854 2
2 5855 3
2 5856 27
2 5857 5
2 5858 67
2 5859 5
2 5861 46
2 5862 2
2 5863 6
2 5864 37
2 5865 6
2 5866 5
2 5867 4
2 5868 85
2 5869 7
2 5870 12
2 5871 80
2 5872 9
2 5873 4
2 5874 29
2 5875 2
2 5876 2
2 5877 28
2 5878 96
2 5879 35
2 5880 2
2 5881 113
2 5882 5
2 5883 39
2 5884 21
2 5885 3
2 5886 5
2 5887 84
2 5889 71
2 5890 16
2 5891 4
2 5892 2
2 5893 35
2 5894 4
2 5895 3
2 5896 13
2 5897 29
2 5898 161
2 5899 59
2 5900 104
2 5901 86
2 5902 3
2 5903 63
2 5904 53
2 5905 6
2 5906 81
2 5907 5
2 5908 5
2 5909 77
2 5910 7
2 5911 82
2 5912 21
2 5913 52
2 5914 4
2 5915 2
2 5917 2
2 5918 5
2 5919 6
2 5920 1
2 5921 5
2 5922 2
2 5923 5
2 5924 1
2 5925 41
2 5926 8
2 5927 4
2 5928 2
2 5929 5
2 5930 3
2 5931 473
2 5932 42
2 5933 3
2 5934 2
2 5935 10
2 5936 5
2 5937 3
2 5938 91
2 5939 26
2 5940 3
2 5941 49
2 5942 105
2 5943 8
2 5944 95
2 5945 57
2 5946 62
2 5947 3
2 5948 10
2 5949 2
2 5950 193
2 5951 47
2 5952 5
2 5953 3
2 5954 162
2 5955 48
2 5956 88
2 5957 5
2 5958 2
2 5959 69
2 5960 7
2 5961 4
2 5962 25
2 5963 4
2 5964 42
2 5965 4
2 5966 73
2 5967 4
2 5968 9
2 5969 667
2 5970 102
2 5971 24
2 5972 79
2 5973 75
2 5974 105
2 5975 17
2 5976 5
2 5977 3
2 5978 84
2 5979 48
2 5980 4
2 5981 21
2 5982 15
2 5983 3
2 5984 8
2 5985 13
2 5986 7
2 5987 2
2 5988 16
2 5989 2
2 5990 7
2 5991 97
2 5992 90
2 5993 25
2 5994 2
2 5995 6
2 5996 91
2 5997 1
2 5998 4
2 5999 5
2 6000 9
2 6001 29
2 6002 3
2 6003 38
2 6004 69
2 6005 3
2 6006 2
2 6007 4
2 6008 74
2 6009 66
2 6010 48
2 6011 40
2 6012 73
2 6013 937
2 6014 7
2 6015 4
2 6016 192
2 6017 42
2 6018 3
2 6019 3
2 6020 15
2 6021 8
2 6022 40
2 6023 100
2 6024 4
2 6025 6
2 6026 5
2 6027 70
2 6028 2
2 6029 6
2 6030 8
2 6031 23
2 6032 43
2 6033 4
2 6034 124
2 6035 64
2 6036 42
2 6037 5
2 6038 3
2 6039 76
2 6040 69
2 6041 3
2 6042 47
2 6043 15
2 6044 47
2 6045 10
2 6046 5
2 6047 123
2 6048 212
2 6049 8
2 6050 49
2 6051 48
2 6052 95
2 6053 25
2 6054 6
2 6055 3
2 6056 3
2 6057 37
2 6058 99
2 6059 56
2 6060 5
2 6061 41
2 6062 32
2 6063 88
2 6064 2
2 6065 51
2 6066 52
2 6067 3
2 6068 7
2 6069 78
2 6070 12
2 6071 39
2 6072 4
2 6073 45
2 6074 36
2 6075 6
2 6076 4
2 6077 140
2 6078 298
2 6079 3
2 6080 53
2 6081 3
2 6082 4
2 6083 4
2 6084 3
2 6085 3
2 6086 3
2 6087 47
2 6088 6
2 6089 24
2 6090 24
2 6091 76
2 6092 56
2 6093 70
2 6094 25
2 6095 30
2 6096 6
2 6097 12
2 6098 75
2 6099 1
2 6100 68
2 6101 57
2 6102 126
2 6103 5
2 6104 54
2 6105 82
2 6106 53
2 6107 8
2 6108 1
2 6109 71
2 6110 76
2 6111 48
2 6112 52
2 6114 125
2 6115 7
2 6116 174
2 6117 5
2 6118 84
2 6119 3
2 6120 78
2 6121 94
2 6122 1
2 6123 2
2 6124 3
2 6125 3
2 6126 76
2 6127 23
2 6128 24
2 6129 28
2 6130 40
2 6131 37
2 6132 3
2 6133 2
2 6134 33
2 6135 120
2 6136 61
2 6137 21
2 6138 4
2 6139 6
2 6140 5
2 6141 8
2 6142 23
2 6143 3
2 6144 48
2 6145 8
2 6146 112
2 6147 5
2 6148 46
2 6149 5
2 6150 1234
2 6151 2
2 6152 70
2 6153 2
2 6154 4
2 6155 6
2 6156 5
2 6157 112
2 6158 47
2 6159 2
2 6160 44
2 6161 67
2 6162 2
2 6163 89
2 6164 47
2 6165 47
2 6166 3
2 6167 2
2 6168 6
2 6169 166
2 6170 5
2 6171 526
2 6172 50
2 6173 36
2 6174 579
2 6175 53
2 6176 51
2 6177 3
2 6178 1
2 6179 146
2 6180 10
2 6181 81
2 6182 85
2 6183 106
2 6184 3
2 6185 3
2 6186 82
2 6187 3
2 6188 2
2 6189 2
2 6190 64
2 6191 62
2 6192 31
2 6193 27
2 6194 111
2 6195 28
2 6196 26
2 6197 74
2 6198 4
2 6199 35
2 6200 8
2 6201 4
2 6202 157
2 6203 10
2 6204 3
2 6205 12
2 6206 8
2 6207 57
2 6208 3
2 6209 43
2 6210 20
2 6211 5
2 6212 140
2 6213 5
2 6214 55
2 6215 1140
2 6216 74
2 6217 22
2 6218 8
2 6219 5
2 6220 7
2 6221 1
2 6222 5
2 6223 24
2 6224 5
2 6225 48
2 6226 79
2 6228 25
2 6229 5
2 6230 4
2 6231 27
2 6232 10
2 6233 47
2 6234 7
2 6235 4
2 6236 5
2 6237 9
2 6238 4
2 6239 100
2 6240 7
2 6241 43
2 6242 6
2 6243 154
2 6244 7
2 6245 6
2 6246 47
2 6247 24
2 6248 4
2 6249 45
2 6250 48
2 6251 9
2 6252 76
2 6253 78
2 6254 6
2 6255 1088
2 6256 1
2 6257 66
2 6258 5
2 6259 27
2 6260 4
2 6261 22
2 6262 40
2 6263 4
2 6264 6
2 6265 49
2 6266 5
2 6267 116
2 6268 45
2 6269 1
2 6270 36
2 6271 4
2 6272 41
2 6273 32
2 6274 5
2 6275 22
2 6276 49
2 6277 3
2 6278 29
2 6279 8
2 6280 41
2 6281 3
2 6282 31
2 6283 73
2 6284 4
2 6285 8
2 6286 6
2 6287 7
2 6288 45
2 6289 3
2 6290 37
2 6291 56
2 6292 911
2 6293 42
2 6294 17
2 6295 65
2 6296 8
2 6297 3
2 6298 90
2 6299 4
2 6300 4
2 6301 57
2 6302 1
2 6303 65
2 6304 80
2 6305 22
2 6306 79
2 6307 7
2 6308 103
2 6309 63
2 6310 29
2 6311 92
2 6312 3
2 6313 23
2 6314 32
2 6315 479
2 6316 4
2 6317 43
2 6318 47
2 6319 5
2 6320 36
2 6321 64
2 6322 99
2 6323 39
2 6324 43
2 6325 99
2 6326 28
2 6327 49
2 6328 4
2 6329 131
2 6330 37
2 6331 5
2 6332 84
2 6333 53
2 6334 20
2 6335 10
2 6336 484
2 6337 4
2 6338 6
2 6339 52
2 6340 63
2 6341 631
2 6342 14
2 6343 2
2 6344 63
2 6345 5
2 6346 6
2 6347 45
2 6348 61
2 6349 54
2 6350 5
2 6351 100
2 6352 79
2 6353 5
2 6354 76
2 6355 3
2 6356 88
2 6357 26
2 6358 36
2 6359 26
2 6360 73
2 6361 620
2 6362 4
2 6363 2
2 6364 27
2 6365 4
2 6366 3
2 6368 2
2 6369 1044
2 6370 69
2 6371 1
2 6372 25
2 6373 99
2 6374 4
2 6375 79
2 6376 30
2 6377 5
2 6378 1
2 6379 3
2 6380 1
2 6381 5
2 6382 2
2 6383 3
2 6384 2
2 6385 59
2 6386 66
2 6387 938
2 6388 75
2 6389 66
2 6390 34
2 6391 103
2 6392 5
2 6393 1
2 6394 4
2 6395 2
2 6396 3
2 6397 20
2 6398 25
2 6399 35
2 6400 104
2 6401 65
2 6402 55
2 6403 42
2 6404 3
2 6405 8
2 6406 3
2 6407 40
2 6408 3
2 6409 42
2 6410 26
2 6411 2
2 6412 3
2 6413 2
2 6414 92
2 6415 215
2 6416 5
2 6417 119
2 6418 55
2 6419 100
2 6420 4
2 6422 60
2 6423 227
2 6424 3
2 6425 178
2 6426 5
2 6427 58
2 6428 8
2 6429 3
2 6430 4
2 6431 45
2 6432 4
2 6433 3
2 6434 94
2 6435 49
2 6436 86
2 6437 45
2 6438 11
2 6439 1
2 6440 4
2 6441 83
2 6442 652
2 6443 4
2 6444 2
2 6445 30
2 6446 47
2 6447 133
2 6448 87
2 6449 28
2 6450 85
2 6451 71
2 6452 41
2 6453 88
2 6454 45
2 6455 6
2 6456 270
2 6457 1
2 6458 9
2 6459 7
2 6460 2
2 6461 7
2 6462 55
2 6463 110
2 6464 99
2 6465 49
2 6466 5
2 6467 3
2 6468 2
2 6469 24
2 6470 1
2 6471 3
2 6472 4
2 6473 49
2 6474 54
2 6475 59
2 6476 78
2 6477 4
2 6478 5
2 6479 298
2 6480 3
2 6481 1
2 6482 5
2 6483 6
2 6484 2
2 6485 113
2 6486 3
2 6487 28
2 6488 1
2 6489 4
2 6490 82
2 6491 7
2 6492 67
2 6493 3
2 6494 64
2 6495 1
2 6496 4
2 6497 24
2 6498 51
2 6499 131
2 6500 645
2 6501 6
2 6502 60
2 6503 2
2 6504 32
2 6505 67
2 6506 5
2 6507 152
2 6508 52
2 6509 69
2 6510 40
2 6511 43
2 6512 41
2 6513 1
2 6514 106
2 6515 1
2 6516 3
2 6517 3
2 6518 96
2 6519 4
2 6520 53
2 6521 66
2 6522 14
2 6523 2
2 6524 108
2 6525 5
2 6526 69
2 6527 8
2 6528 2
2 6529 5
2 6530 37
2 6531 5
2 6532 4
2 6533 106
2 6534 71
2 6535 2
2 6536 57
2 6537 59
2 6538 2
2 6539 1
2 6540 1
2 6541 101
2 6542 7
2 6543 39
2 6544 4
2 6545 72
2 6546 41
2 6547 8
2 6548 383
2 6549 2
2 6550 9
2 6551 1
2 6552 44
2 6553 3
2 6554 2
2 6555 82
2 6556 39
2 6557 58
2 6558 31
2 6559 40
2 6560 3
2 6561 5
2 6562 40
2 6563 4
2 6564 4
2 6565 1
2 6566 1
2 6567 19
2 6568 31
2 6569 2
2 6570 1054
2 6571 109
2 6572 5
2 6573 4
2 6574 7
2 6575 89
2 6576 49
2 6577 26
2 6578 2
2 6579 5
2 6580 44
2 6581 3
2 6582 3
2 6583 1
2 6584 57
2 6585 40
2 6586 46
2 6587 136
2 6588 4
2 6589 8
2 6590 48
2 6591 3
2 6592 39
2 6593 40
2 6594 26
2 6595 114
2 6596 20
2 6597 6
2 6598 41
2 6599 1221
2 6600 7
2 6601 1
2 6602 6
2 6603 3
2 6604 974
2 6605 92
2 6606 89
2 6607 22
2 6608 68
2 6609 124
2 6610 36
2 6611 85
2 6612 6
2 6613 27
2 6614 96
2 6615 3
2 6616 99
2 6617 8
2 6618 499
2 6619 57
2 6620 17
2 6621 3
2 6622 3
2 6623 6
2 6624 2
2 6626 18
2 6627 5
2 6628 3
2 6629 13
2 6630 23
2 6631 3
2 6632 2
2 6633 19
2 6634 5
2 6635 86
2 6636 2
2 6637 53
2 6638 1
2 6639 61
2 6640 5
2 6641 3
2 6642 2
2 6645 62
2 6646 79
2 6647 2
2 6648 3
2 6649 76
2 6651 3
2 6652 3
2 6653 39
2 6654 54
2 6655 2
2 6656 3
2 6657 81
2 6658 5
2 6659 4
2 6660 32
2 6661 3
2 6662 5
2 6664 93
2 6665 65
2 6666 66
2 6667 89
2 6668 66
2 6669 49
2 6670 8
2 6671 11
2 6672 4
2 6673 80
2 6674 5
2 6675 1
2 6676 1171
2 6677 4
2 6678 4
2 6679 58
2 6681 76
2 6682 106
2 6683 3
2 6684 3
2 6685 487
2 6686 191
2 6687 246
2 6688 67
2 6689 85
2 6690 11
2 6691 35
2 6692 7
2 6693 83
2 6694 23
2 6695 4
2 6696 203
2 6697 60
2 6698 6
2 6699 63
2 6700 8
2 6701 4
2 6702 42
2 6703 85
2 6704 1
2 6705 9
2 6706 9
2 6707 34
2 6708 49
2 6709 25
2 6710 66
2 6711 3
2 6712 24
2 6713 3
2 6714 42
2 6715 7
2 6716 33
2 6717 48
2 6718 90
2 6719 1
2 6720 67
2 6721 106
2 6722 4
2 6724 29
2 6725 4
2 6726 1160
2 6727 39
2 6728 44
2 6729 6
2 6730 2
2 6731 13
2 6732 31
2 6733 43
2 6734 4
2 6735 69
2 6736 3
2 6737 78
2 6738 7
2 6739 4
2 6740 7
2 6741 39
2 6742 42
2 6743 3
2 6744 15
2 6745 112
2 6746 3
2 6747 1
2 6748 25
2 6749 31
2 6750 5
2 6751 118
2 6752 99
2 6753 3
2 6754 46
2 6755 58
2 6756 101
2 6757 40
2 6758 86
2 6759 2
2 6760 21
2 6761 146
2 6762 47
2 6763 104
2 6764 96
2 6765 7
2 6766 56
2 6767 42
2 6768 2
2 6769 1073
2 6770 12
2 6771 3
2 6772 105
2 6773 35
2 6774 29
2 6775 68
2 6776 23
2 6777 89
2 6778 2
2 6779 2
2 6780 110
2 6781 6
2 6782 129
2 6783 4
2 6784 14
2 6785 33
2 6786 3
2 6787 59
2 6788 5
2 6789 56
2 6790 43
2 6791 16
2 6792 5
2 6793 94
2 6794 2
2 6795 8
2 6797 2
2 6798 22
2 6799 2
2 6800 86
2 6801 97
2 6802 79
2 6803 17
2 6804 3
2 6805 63
2 6806 47
2 6807 32
2 6808 4
2 6809 9
2 6810 3
2 6811 6
2 6812 9
2 6813 4
2 6814 121
2 6815 2
2 6816 12
2 6817 89
2 6818 39
2 6820 18
2 6821 60
2 6822 8
2 6823 15
2 6824 58
2 6825 23
2 6826 57
2 6827 77
2 6828 1
2 6830 5
2 6831 31
2 6832 21
2 6833 63
2 6834 54
2 6835 1
2 6836 43
2 6837 4
2 6838 2
2 6839 2
2 6840 94
2 6841 4
2 6842 5
2 6843 4
2 6844 251
2 6845 30
2 6846 77
2 6847 3
2 6848 3
2 6849 35
2 6850 40
2 6851 81
2 6852 6
2 6853 54
2 6854 1
2 6855 61
2 6856 2
2 6857 38
2 6858 4
2 6859 3
2 6860 2
2 6861 31
2 6862 26
2 6863 14
2 6864 980
2 6865 2
2 6866 78
2 6867 82
2 6868 24
2 6869 1
2 6870 57
2 6871 27
2 6872 2
2 6873 65
2 6874 48
2 6875 3
2 6876 3
2 6877 4
2 6878 109
2 6879 49
2 6880 30
2 6881 8
2 6882 3
2 6883 41
2 6884 26
2 6885 55
2 6886 77
2 6887 64
2 6888 1049
2 6889 24
2 6890 45
2 6891 5
2 6892 1
2 6893 47
2 6894 34
2 6895 4
2 6896 63
2 6897 38
2 6898 40
2 6899 51
2 6900 66
2 6901 100
2 6902 107
2 6903 2
2 6904 488
2 6905 4
2 6906 119
2 6907 30
2 6908 7
2 6909 16
2 6910 3
2 6911 6
2 6912 4
2 6913 2
2 6914 9
2 6915 10
2 6916 343
2 6917 13
2 6918 34
2 6919 47
2 6920 2
2 6921 36
2 6922 3
2 6923 3
2 6924 2
2 6925 35
2 6926 3
2 6927 366
2 6928 28
2 6929 18
2 6930 88
2 6931 4
2 6932 45
2 6933 4
2 6934 6
2 6935 6
2 6936 560
2 6937 2
2 6938 89
2 6939 6
2 6940 55
2 6941 110
2 6942 8
2 6943 22
2 6944 1028
2 6945 16
2 6946 2
2 6947 12
2 6948 15
2 6949 5
2 6950 3
2 6951 50
2 6952 45
2 6953 22
2 6954 51
2 6955 31
2 6956 86
2 6957 9
2 6958 1
2 6959 6
2 6960 39
2 6961 144
2 6962 4
2 6963 3
2 6964 2
2 6965 2
2 6966 2
2 6967 27
2 6968 68
2 6969 90
2 6970 4
2 6971 80
2 6972 1
2 6973 147
2 6974 5
2 6975 8
2 6976 91
2 6977 5
2 6978 6
2 6979 2
2 6980 68
2 6981 5
2 6982 96
2 6983 4
2 6984 4
2 6985 43
2 6986 1
2 6987 55
2 6988 7
2 6989 12
2 6990 7
2 6991 5
2 6992 2
2 6993 83
2 6994 2
2 6995 124
2 6996 3
2 6997 49
2 6998 6
2 6999 8
2 7000 4
2 7001 5
2 7002 5
2 7003 98
2 7004 8
2 7005 8
2 7006 9
2 7007 53
2 7008 6
2 7009 89
2 7010 7
2 7011 4
2 7012 60
2 7013 51
2 7014 3
2 7015 6
2 7016 62
2 7017 6
2 7018 5
2 7019 300
2 7020 19
2 7021 5
2 7022 28
2 7023 193
2 7024 3
2 7025 341
2 7026 131
2 7027 69
2 7028 72
2 7029 1
2 7030 1
2 7031 45
2 7032 2
2 7033 1006
2 7034 6
2 7035 3
2 7036 28
2 7037 91
2 7038 32
2 7039 28
2 7040 92
2 7041 55
2 7042 92
2 7043 89
2 7044 6
2 7045 45
2 7046 8
2 7047 3
2 7048 2
2 7049 49
2 7050 25
2 7051 153
2 7052 128
2 7053 2
2 7054 65
2 7055 3
2 7056 125
2 7057 35
2 7058 33
2 7059 4
2 7060 3
2 7061 4
2 7062 3
2 7063 4
2 7064 2
2 7065 60
2 7066 68
2 7067 31
2 7068 22
2 7069 64
2 7070 9
2 7071 39
2 7072 8
2 7074 8
2 7075 43
2 7076 31
2 7077 1190
2 7078 3
2 7079 2
2 7080 68
2 7081 47
2 7082 772
2 7083 4
2 7084 5
2 7085 3
2 7086 7
2 7087 2
2 7088 1
2 7089 30
2 7090 61
2 7091 6
2 7092 2
2 7093 5
2 7094 35
2 7095 663
2 7096 84
2 7097 21
2 7098 35
2 7099 5
2 7100 4
2 7101 83
2 7102 3
2 7103 74
2 7104 5
2 7105 6
2 7106 29
2 7107 109
2 7108 3
2 7109 145
2 7110 7
2 7111 7
2 7112 9
2 7113 110
2 7114 7
2 7115 1
2 7116 2
2 7117 3
2 7118 1
2 7119 27
2 7120 7
2 7121 53
2 7122 7
2 7123 59
2 7124 6
2 7125 5
2 7126 79
2 7127 39
2 7128 118
2 7129 39
2 7130 3
2 7131 106
2 7132 2
2 7133 3
2 7134 8
2 7135 33
2 7136 54
2 7137 32
2 7138 50
2 7139 782
2 7140 33
2 7141 2
2 7142 14
2 7143 9
2 7144 31
2 7145 95
2 7146 10
2 7147 8
2 7148 80
2 7149 4
2 7150 39
2 7151 32
2 7152 6
2 7154 4
2 7155 3
2 7156 91
2 7157 19
2 7158 29
2 7159 1225
2 7160 10
2 7161 64
2 7162 2
2 7163 1
2 7164 60
2 7165 36
2 7166 4
2 7167 1
2 7168 4
2 7169 118
2 7170 4
2 7171 72
2 7172 10
2 7173 5
2 7174 6
2 7175 3
2 7176 60
2 7177 34
2 7178 6
2 7179 43
2 7180 4
2 7181 83
2 7182 55
2 7183 73
2 7184 84
2 7185 2
2 7186 89
2 7187 69
2 7188 4
2 7189 65
2 7190 4
2 7191 3
2 7192 8
2 7193 88
2 7194 36
2 7195 65
2 7196 54
2 7197 6
2 7198 13
2 7199 7
2 7200 3
2 7201 3
2 7202 121
2 7203 119
2 7204 44
2 7205 51
2 7206 110
2 7207 48
2 7208 50
2 7209 59
2 7211 55
2 7212 68
2 7213 5
2 7214 5
2 7215 1
2 7216 1
2 7217 3
2 7218 7
2 7219 1
2 7220 19
2 7221 55
2 7222 38
2 7223 40
2 7224 1
2 7225 2
2 7226 47
2 7227 4
2 7228 72
2 7229 2
2 7230 7
2 7231 76
2 7232 98
2 7233 12
2 7234 39
2 7235 65
2 7236 33
2 7237 5
2 7238 140
2 7239 35
2 7240 34
2 7241 1135
2 7242 27
2 7243 75
2 7244 7
2 7245 5
2 7246 2
2 7247 6
2 7248 71
2 7249 4
2 7250 3
2 7251 15
2 7252 1
2 7253 18
2 7254 65
2 7255 2
2 7256 5
2 7257 44
2 7258 66
2 7259 73
2 7260 24
2 7261 3
2 7262 52
2 7263 3
2 7264 48
2 7265 1256
2 7266 6
2 7267 3
2 7268 11
2 7269 2
2 7270 35
2 7271 9
2 7272 49
2 7273 64
2 7274 23
2 7275 56
2 7276 14
2 7277 2
2 7278 128
2 7279 92
2 7280 11
2 7281 60
2 7282 5
2 7283 37
2 7284 41
2 7285 107
2 7286 48
2 7287 84
2 7288 40
2 7289 39
2 7290 3
2 7291 6
2 7292 8
2 7293 8
2 7294 3
2 7295 7
2 7296 99
2 7297 58
2 7298 6
2 7299 15
2 7300 18
2 7301 5
2 7302 5
2 7303 5
2 7304 5
2 7305 5
2 7306 80
2 7307 52
2 7308 116
2 7309 3
2 7310 112
2 7311 8
2 7312 6
2 7313 5
2 7314 4
2 7315 10
2 7316 2
2 7317 9
2 7318 68
2 7319 7
2 7320 3
2 7321 3
2 7322 4
2 7323 3
2 7324 3
2 7325 37
2 7326 2
2 7327 4
2 7328 3
2 7329 97
2 7330 32
2 7331 8
2 7332 2
2 7333 735
2 7334 8
2 7335 27
2 7336 69
2 7337 5
2 7338 3
2 7339 27
2 7340 3
2 7341 48
2 7342 85
2 7343 85
2 7344 3
2 7345 26
2 7346 1
2 7347 3
2 7348 23
2 7349 24
2 7350 61
2 7351 1049
2 7352 4
2 7353 1004
2 7354 4
2 7355 34
2 7356 43
2 7357 5
2 7358 6
2 7359 3
2 7360 71
2 7361 50
2 7362 2
2 7363 4
2 7364 69
2 7365 4
2 7366 42
2 7367 7
2 7368 63
2 7369 67
2 7370 12
2 7371 794
2 7372 35
2 7373 50
2 7374 33
2 7375 59
2 7376 117
2 7377 5
2 7378 6
2 7379 98
2 7380 50
2 7381 5
2 7382 1004
2 7383 11
2 7384 13
2 7385 1
2 7386 28
2 7387 5
2 7388 1045
2 7389 4
2 7390 10
2 7391 52
2 7392 3
2 7393 39
2 7394 18
2 7395 32
2 7396 3
2 7397 6
2 7398 49
2 7399 2
2 7400 71
2 7401 33
2 7402 2
2 7403 113
2 7404 14
2 7405 6
2 7406 3
2 7407 2
2 7408 63
2 7409 5
2 7410 8
2 7411 173
2 7412 3
2 7413 62
2 7414 1
2 7415 10
2 7416 3
2 7417 5
2 7418 3
2 7419 1
2 7420 135
2 7421 7
2 7422 41
2 7423 5
2 7424 4
2 7425 129
2 7426 80
2 7427 5
2 7428 2
2 7429 1
2 7430 3
2 7431 111
2 7432 2
2 7433 3
2 7434 5
2 7435 2
2 7436 3
2 7437 54
2 7438 137
2 7439 32
2 7440 370
2 7441 1
2 7442 13
2 7443 18
2 7444 5
2 7445 2
2 7446 2
2 7447 7
2 7448 6
2 7449 6
2 7450 4
2 7451 3
2 7452 30
2 7453 3
2 7454 64
2 7455 87
2 7456 62
2 7457 3
2 7458 2
2 7459 2
2 7460 53
2 7461 54
2 7462 14
2 7463 25
2 7464 4
2 7465 159
2 7466 2
2 7467 7
2 7468 19
2 7469 61
2 7470 70
2 7471 47
2 7472 52
2 7473 60
2 7474 57
2 7475 31
2 7476 5
2 7477 1
2 7478 20
2 7479 2
2 7480 2
2 7481 3
2 7482 16
2 7483 5
2 7484 614
2 7485 30
2 7486 20
2 7487 3
2 7488 15
2 7489 60
2 7490 7
2 7491 82
2 7492 70
2 7493 2
2 7495 5
2 7496 4
2 7497 40
2 7498 6
2 7499 7
2 7500 3
2 7501 4
2 7502 3
2 7503 6
2 7504 3
2 7506 4
2 7507 24
2 7508 39
2 7509 1
2 7510 23
2 7511 6
2 7512 10
2 7513 1
2 7514 24
2 7515 44
2 7516 769
2 7517 662
2 7518 3
2 7519 32
2 7520 4
2 7521 1
2 7522 2
2 7523 3
2 7524 3
2 7525 1061
2 7526 3
2 7527 58
2 7528 16
2 7529 12
2 7530 51
2 7531 16
2 7532 53
2 7533 4
2 7534 3
2 7535 3
2 7536 3
2 7537 73
2 7538 36
2 7539 64
2 7540 47
2 7541 32
2 7542 1
2 7543 6
2 7544 3
2 7545 2
2 7546 4
2 7547 30
2 7548 10
2 7549 4
2 7550 58
2 7551 7
2 7552 30
2 7553 1
2 7554 32
2 7555 15
2 7556 11
2 7557 4
2 7558 136
2 7559 3
2 7560 5
2 7561 2
2 7562 40
2 7563 108
2 7564 58
2 7565 35
2 7566 75
2 7567 107
2 7568 1
2 7569 9
2 7570 10
2 7571 79
2 7572 538
2 7573 3
2 7574 3
2 7575 1
2 7576 942
2 7577 7
2 7578 3
2 7579 114
2 7580 23
2 7581 17
2 7582 5
2 7583 56
2 7584 45
2 7585 41
2 7586 238
2 7587 86
2 7588 202
2 7589 67
2 7590 1
2 7591 27
2 7592 75
2 7593 41
2 7594 2
2 7595 2
2 7596 66
2 7597 5
2 7598 30
2 7599 3
2 7600 1
2 7601 9
2 7602 3
2 7603 6
2 7604 87
2 7605 42
2 7606 4
2 7607 5
2 7608 3
2 7609 72
2 7610 65
2 7611 4
2 7612 45
2 7613 8
2 7614 3
2 7615 6
2 7616 26
2 7617 61
2 7618 43
2 7619 59
2 7620 66
2 7621 2
2 7622 50
2 7623 4
2 7624 6
2 7625 83
2 7626 104
2 7627 42
2 7628 2
2 7629 89
2 7630 3
2 7631 27
2 7632 60
2 7633 52
2 7634 977
2 7635 925
2 7636 57
2 7637 955
2 7638 3
2 7639 4
2 7640 53
2 7641 62
2 7642 3
2 7643 22
2 7644 2
2 7645 80
2 7646 65
2 7647 6
2 7648 68
2 7649 2
2 7650 33
2 7651 84
2 7652 20
2 7653 122
2 7654 3
2 7655 45
2 7656 7
2 7657 6
2 7658 93
2 7659 5
2 7660 65
2 7661 4
2 7662 88
2 7663 57
2 7664 4
2 7665 1
2 7666 2
2 7667 136
2 7668 5
2 7669 121
2 7670 3
2 7671 62
2 7672 4
2 7673 27
2 7674 1227
2 7675 820
2 7676 16
2 7677 5
2 7678 37
2 7679 6
2 7680 120
2 7681 49
2 7682 3
2 7683 3
2 7684 34
2 7685 52
2 7686 67
2 7687 46
2 7688 133
2 7689 104
2 7690 125
2 7691 90
2 7692 32
2 7693 2
2 7694 5
2 7695 1
2 7696 2
2 7697 2
2 7698 139
2 7699 158
2 7700 107
2 7701 92
2 7702 55
2 7703 5
2 7704 7
2 7705 117
2 7706 7
2 7707 3
2 7708 45
2 7709 3
2 7710 5
2 7711 12
2 7712 121
2 7713 5
2 7714 38
2 7715 100
2 7716 57
2 7717 41
2 7718 16
2 7719 3
2 7720 146
2 7721 116
2 7722 44
2 7723 66
2 7724 7
2 7725 29
2 7726 10
2 7727 9
2 7729 8
2 7730 66
2 7731 58
2 7732 63
2 7733 3
2 7734 4
2 7735 37
2 7736 5
2 7737 74
2 7738 77
2 7739 60
2 7740 72
2 7741 5
2 7742 69
2 7743 65
2 7744 4
2 7745 27
2 7746 68
2 7747 4
2 7748 1
2 7749 45
2 7750 9
2 7751 6
2 7752 5
2 7753 3
2 7754 20
2 7755 54
2 7756 13
2 7757 18
2 7758 5
2 7759 73
2 7760 2
2 7761 1
2 7762 71
2 7763 86
2 7764 80
2 7765 85
2 7766 121
2 7767 60
2 7768 41
2 7769 3
2 7770 4
2 7771 6
2 7772 105
2 7773 61
2 7774 33
2 7775 90
2 7776 33
2 7777 64
2 7778 3
2 7779 5
2 7781 46
2 7782 67
2 7783 1224
2 7784 7
2 7785 37
2 7786 5
2 7787 1
2 7788 6
2 7789 5
2 7790 65
2 7791 141
2 7792 18
2 7793 6
2 7794 82
2 7795 30
2 7796 64
2 7797 123
2 7798 41
2 7799 78
2 7800 81
2 7801 4
2 7802 2
2 7803 5
2 7804 3
2 7805 105
2 7806 83
2 7807 67
2 7808 2
2 7809 31
2 7810 37
2 7811 6
2 7812 1
2 7813 4
2 7814 5
2 7815 4
2 7816 43
2 7817 1203
2 7818 17
2 7819 944
2 7820 4
2 7821 47
2 7822 3
2 7823 6
2 7824 2
2 7825 32
2 7826 33
2 7827 21
2 7828 63
2 7829 107
2 7830 51
2 7831 71
2 7832 2
2 7833 29
2 7834 4
2 7835 93
2 7836 66
2 7837 1
2 7839 80
2 7840 28
2 7841 54
2 7842 6
2 7843 8
2 7844 6
2 7845 5
2 7846 2
2 7847 20
2 7848 31
2 7849 46
2 7850 27
2 7851 966
2 7852 26
2 7853 969
2 7854 39
2 7855 16
2 7856 47
2 7857 6
2 7858 6
2 7859 2
2 7860 136
2 7861 606
2 7862 71
2 7863 5
2 7864 56
2 7865 2
2 7866 35
2 7867 2
2 7868 50
2 7869 36
2 7870 51
2 7871 6
2 7872 4
2 7873 53
2 7874 5
2 7875 4
2 7876 39
2 7877 53
2 7878 411
2 7879 44
2 7880 5
2 7881 28
2 7882 55
2 7883 2
2 7884 3
2 7885 20
2 7886 83
2 7887 85
2 7888 28
2 7889 95
2 7890 1
2 7891 37
2 7892 34
2 7893 47
2 7894 2
2 7895 6
2 7896 5
2 7897 31
2 7898 5
2 7899 4
2 7900 3
2 7901 51
2 7902 55
2 7903 81
2 7904 4
2 7905 4
2 7906 27
2 7907 5
2 7908 72
2 7909 6
2 7910 2
2 7911 3
2 7912 5
2 7913 59
2 7914 4
2 7915 32
2 7916 7
2 7917 52
2 7918 4
2 7919 91
2 7920 36
2 7921 57
2 7922 49
2 7923 57
2 7924 58
2 7925 9
2 7926 5
2 7927 78
2 7928 67
2 7929 116
2 7930 868
2 7931 117
2 7932 6
2 7933 41
2 7934 94
2 7935 64
2 7936 16
2 7937 5
2 7938 4
2 7939 24
2 7940 9
2 7941 101
2 7942 75
2 7943 22
2 7944 32
2 7945 9
2 7946 7
2 7947 1
2 7948 132
2 7950 4
2 7951 5
2 7952 95
2 7953 104
2 7954 3
2 7955 3
2 7956 5
2 7957 16
2 7958 12
2 7959 5
2 7960 117
2 7961 12
2 7962 47
2 7963 34
2 7964 5
2 7965 2
2 7966 26
2 7967 57
2 7968 7
2 7969 36
2 7970 1
2 7971 54
2 7972 6
2 7973 28
2 7974 101
2 7975 47
2 7976 49
2 7977 21
2 7978 1057
2 7979 2
2 7980 6
2 7981 23
2 7982 4
2 7983 81
2 7984 55
2 7985 72
2 7986 3
2 7987 2
2 7988 56
2 7989 40
2 7990 69
2 7991 438
2 7992 66
2 7993 22
2 7994 65
2 7995 2
2 7996 1
2 7997 7
2 7998 2
2 7999 6
2 8000 779
2 8001 31
2 8002 49
2 8003 47
2 8004 5
2 8005 37
2 8006 3
2 8007 85
2 8008 16
2 8009 33
2 8010 23
2 8011 60
2 8012 87
2 8013 5
2 8014 44
2 8015 24
2 8016 4
2 8017 41
2 8018 73
2 8019 1
2 8020 110
2 8021 55
2 8022 3
2 8023 68
2 8025 3
2 8026 78
2 8027 23
2 8028 45
2 8029 2
2 8030 6
2 8031 6
2 8032 40
2 8033 180
2 8034 11
2 8035 9
2 8036 10
2 8037 6
2 8038 117
2 8039 9
2 8040 81
2 8041 68
2 8042 127
2 8043 35
2 8044 17
2 8045 110
2 8046 1102
2 8047 10
2 8048 126
2 8049 130
2 8050 4
2 8051 6
2 8052 28
2 8053 49
2 8054 4
2 8055 87
2 8056 2
2 8057 5
2 8058 9
2 8059 54
2 8060 37
2 8061 7
2 8062 5
2 8063 6
2 8064 25
2 8065 71
2 8066 6
2 8067 1
2 8068 72
2 8069 139
2 8070 50
2 8071 84
2 8072 25
2 8073 435
2 8074 6
2 8075 98
2 8076 35
2 8077 83
2 8078 7
2 8079 5
2 8080 6
2 8081 70
2 8082 2
2 8083 3
2 8084 3
2 8085 6
2 8086 75
2 8087 5
2 8088 2
2 8089 83
2 8090 3
2 8091 135
2 8092 150
2 8093 6
2 8094 49
2 8095 867
2 8096 54
2 8097 2
2 8098 77
2 8099 4
2 8100 2
2 8101 15
2 8102 92
2 8103 50
2 8104 66
2 8105 106
2 8106 38
2 8107 74
2 8108 44
2 8109 1
2 8110 84
2 8111 24
2 8112 8
2 8113 3
2 8114 42
2 8115 180
2 8116 73
2 8117 32
2 8118 62
2 8119 2
2 8120 1067
2 8121 51
2 8122 69
2 8123 71
2 8124 75
2 8125 29
2 8126 2
2 8127 6
2 8128 2
2 8129 82
2 8130 2
2 8131 82
2 8132 5
2 8133 7
2 8134 45
2 8135 79
2 8136 56
2 8137 47
2 8138 71
2 8139 72
2 8140 76
2 8141 44
2 8142 694
2 8143 35
2 8144 57
2 8145 5
2 8146 6
2 8147 1
2 8148 91
2 8149 5
2 8150 2
2 8151 61
2 8152 5
2 8153 31
2 8154 90
2 8155 441
2 8156 29
2 8157 115
2 8158 4
2 8159 7
2 8160 64
2 8161 88
2 8162 465
2 8163 13
2 8164 31
2 8165 72
2 8166 77
2 8167 20
2 8168 76
2 8169 39
2 8170 85
2 8171 3
2 8172 87
2 8173 49
2 8174 50
2 8175 3
2 8176 2
2 8177 8
2 8178 4
2 8179 4
2 8180 68
2 8181 198
2 8182 81
2 8183 61
2 8184 1139
2 8185 3
2 8186 458
2 8187 122
2 8188 1
2 8189 80
2 8190 914
2 8191 65
2 8192 6
2 8193 1
2 8194 3
2 8195 11
2 8196 98
2 8197 30
2 8198 3
2 8199 4
2 8200 3
2 8201 2
2 8202 3
2 8203 4
2 8204 101
2 8205 3
2 8206 2
2 8207 48
2 8208 4
2 8209 6
2 8210 40
2 8211 41
2 8212 41
2 8213 16
2 8214 7
2 8215 31
2 8216 70
2 8217 1
2 8218 210
2 8219 5
2 8220 155
2 8222 37
2 8223 218
2 8224 1
2 8225 32
2 8226 53
2 8227 42
2 8228 3
2 8229 1070
2 8230 28
2 8231 2
2 8232 653
2 8233 1124
2 8234 118
2 8235 2
2 8236 6
2 8237 50
2 8238 686
2 8239 2
2 8240 86
2 8241 493
2 8242 2
2 8243 24
2 8244 3
2 8245 37
2 8247 4
2 8248 45
2 8249 18
2 8250 102
2 8251 4
2 8252 2
2 8253 2
2 8254 76
2 8255 4
2 8256 2
2 8257 46
2 8258 813
2 8259 50
2 8260 1
2 8261 2
2 8262 1
2 8263 4
2 8264 100
2 8265 14
2 8266 7
2 8267 7
2 8268 10
2 8269 1
2 8270 5
2 8271 1128
2 8272 74
2 8273 1
2 8274 3
2 8275 17
2 8276 150
2 8277 86
2 8278 2
2 8279 43
2 8280 1
2 8281 101
2 8282 33
2 8284 131
2 8285 95
2 8286 3
2 8287 2
2 8288 2
2 8289 83
2 8290 41
2 8291 2
2 8292 5
2 8293 116
2 8294 116
2 8295 40
2 8296 28
2 8297 11
2 8298 236
2 8299 89
2 8300 35
2 8301 39
2 8302 1
2 8303 124
2 8304 78
2 8305 2
2 8306 80
2 8307 20
2 8308 68
2 8309 7
2 8310 10
2 8312 4
2 8313 31
2 8314 23
2 8315 153
2 8316 10
2 8317 85
2 8318 3
2 8319 30
2 8320 7
2 8321 123
2 8322 124
2 8323 56
2 8324 30
2 8325 54
2 8326 80
2 8327 1
2 8328 3
2 8329 29
2 8330 7
2 8331 44
2 8333 106
2 8334 62
2 8335 3
2 8336 3
2 8337 2
2 8338 653
2 8339 3
2 8341 3
2 8342 87
2 8343 1
2 8344 3
2 8345 5
2 8346 6
2 8347 55
2 8348 33
2 8349 33
2 8350 24
2 8351 35
2 8352 2
2 8353 1251
2 8354 6
2 8355 69
2 8356 5
2 8357 39
2 8358 47
2 8360 5
2 8361 5
2 8362 49
2 8363 2
2 8364 9
2 8365 2
2 8366 7
2 8367 23
2 8369 70
2 8370 2
2 8371 3
2 8372 1
2 8373 4
2 8374 1
2 8375 7
2 8376 27
2 8377 3
2 8378 62
2 8379 9
2 8380 38
2 8381 68
2 8382 6
2 8383 55
2 8384 80
2 8385 4
2 8386 3
2 8387 6
2 8388 5
2 8389 68
2 8390 5
2 8391 41
2 8392 78
2 8393 2
2 8394 5
2 8395 4
2 8396 1
2 8397 145
2 8398 1
2 8399 115
2 8400 25
2 8401 7
2 8402 73
2 8403 8
2 8404 4
2 8405 321
2 8406 720
2 8407 18
2 8408 1
2 8409 26
2 8410 87
2 8411 69
2 8412 6
2 8413 86
2 8414 5
2 8415 1
2 8416 3
2 8417 37
2 8418 3
2 8419 6
2 8420 93
2 8421 4
2 8422 22
2 8423 68
2 8424 29
2 8425 4
2 8426 53
2 8427 46
2 8428 73
2 8429 880
2 8430 4
2 8431 27
2 8432 3
2 8433 82
2 8434 28
2 8435 77
2 8436 9
2 8437 1
2 8438 351
2 8439 72
2 8440 22
2 8441 36
2 8442 35
2 8443 2
2 8444 2
2 8445 75
2 8446 3
2 8447 2
2 8448 1
2 8449 4
2 8450 5
2 8451 54
2 8452 31
2 8453 138
2 8454 1
2 8455 3
2 8456 5
2 8457 42
2 8458 6
2 8459 4
2 8460 3
2 8461 1
2 8463 3
2 8464 22
2 8465 52
2 8466 17
2 8467 4
2 8468 49
2 8469 47
2 8470 7
2 8471 57
2 8472 5
2 8473 32
2 8474 5
2 8475 81
2 8476 68
2 8477 141
2 8478 2
2 8479 21
2 8480 3
2 8481 42
2 8482 3
2 8483 300
2 8484 4
2 8485 36
2 8486 3
2 8487 1
2 8488 11
2 8489 6
2 8490 3
2 8491 10
2 8492 26
2 8493 50
2 8494 41
2 8495 110
2 8496 63
2 8497 2
2 8498 5
2 8499 4
2 8500 2
2 8501 42
2 8502 126
2 8503 88
2 8504 1
2 8505 9
2 8506 3
2 8507 1072
2 8508 5
2 8509 5
2 8510 4
2 8511 56
2 8512 4
2 8513 37
2 8514 3
2 8515 80
2 8516 97
2 8517 80
2 8518 265
2 8519 54
2 8520 9
2 8521 44
2 8522 32
2 8523 941
2 8524 7
2 8525 25
2 8526 79
2 8527 125
2 8528 2
2 8529 5
2 8530 64
2 8531 25
2 8532 13
2 8533 89
2 8534 3
2 8535 7
2 8536 7
2 8537 95
2 8538 3
2 8539 3
2 8540 8
2 8541 1188
2 8542 45
2 8543 43
2 8544 148
2 8545 5
2 8546 67
2 8547 3
2 8548 60
2 8549 2
2 8550 75
2 8551 76
2 8552 2
2 8553 40
2 8554 2
2 8555 3
2 8556 2
2 8557 22
2 8558 88
2 8559 36
2 8560 6
2 8561 46
2 8562 2
2 8563 51
2 8564 61
2 8565 105
2 8566 5
2 8567 4
2 8568 76
2 8569 5
2 8570 5
2 8571 5
2 8572 28
2 8573 1160
2 8574 3
2 8575 55
2 8576 7
2 8577 90
2 8578 44
2 8579 22
2 8580 6
2 8581 86
2 8582 36
2 8583 74
2 8584 151
2 8585 4
2 8586 428
2 8587 73
2 8588 3
2 8589 45
2 8590 1082
2 8591 2
2 8592 3
2 8593 41
2 8594 3
2 8595 36
2 8596 57
2 8597 52
2 8598 109
2 8599 2
2 8600 33
2 8601 55
2 8602 29
2 8603 35
2 8604 107
2 8605 3
2 8606 3
2 8607 19
2 8608 21
2 8609 1
2 8610 4
2 8611 71
2 8612 4
2 8613 60
2 8614 7
2 8615 75
2 8616 46
2 8617 3
2 8618 39
2 8619 31
2 8620 3
2 8621 7
2 8622 3
2 8623 119
2 8624 18
2 8625 1050
2 8626 27
2 8627 4
2 8628 6
2 8629 8
2 8630 2
2 8631 41
2 8632 33
2 8633 8
2 8634 3
2 8635 47
2 8636 6
2 8637 83
2 8638 125
2 8639 117
2 8640 25
2 8641 20
2 8642 17
2 8643 57
2 8644 24
2 8645 4
2 8646 61
2 8647 81
2 8648 9
2 8649 377
2 8650 2
2 8651 5
2 8652 6
2 8653 3
2 8654 4
2 8655 66
2 8656 2
2 8657 77
2 8658 27
2 8659 57
2 8660 1129
2 8661 2
2 8662 41
2 8663 20
2 8664 53
2 8665 93
2 8666 3
2 8667 6
2 8668 6
2 8669 75
2 8670 90
2 8671 6
2 8672 71
2 8673 60
2 8674 27
2 8675 2
2 8676 9
2 8677 4
2 8678 79
2 8679 70
2 8680 69
2 8681 3
2 8682 1
2 8683 1220
2 8684 6
2 8685 3
2 8686 65
2 8687 13
2 8688 2
2 8689 52
2 8690 3
2 8691 3
2 8692 4
2 8693 4
2 8694 1
2 8695 1
2 8696 105
2 8698 31
2 8699 2
2 8700 14
2 8701 484
2 8702 30
2 8703 1
2 8704 4
2 8705 1
2 8706 35
2 8707 2
2 8708 62
2 8709 4
2 8711 16
2 8712 29
2 8713 41
2 8714 5
2 8715 3
2 8716 389
2 8717 87
2 8718 4
2 8719 1
2 8720 5
2 8721 1
2 8722 52
2 8723 8
2 8724 28
2 8725 2
2 8726 7
2 8727 6
2 8728 77
2 8729 2
2 8730 184
2 8731 43
2 8732 75
2 8733 3
2 8734 29
2 8735 4
2 8736 14
2 8737 4
2 8738 8
2 8739 3
2 8740 6
2 8741 2
2 8743 71
2 8744 1012
2 8745 37
2 8746 1026
2 8747 64
2 8748 5
2 8749 108
2 8750 109
2 8751 64
2 8752 226
2 8753 41
2 8754 3
2 8755 51
2 8756 76
2 8757 6
2 8758 3
2 8759 4
2 8760 1
2 8761 13
2 8762 795
2 8763 400
2 8764 6
2 8765 18
2 8766 1
2 8767 63
2 8768 14
2 8769 21
2 8770 1
2 8771 64
2 8772 13
2 8773 23
2 8774 5
2 8775 86
2 8776 55
2 8777 3
2 8778 59
2 8779 3
2 8780 52
2 8781 37
2 8782 8
2 8783 47
2 8784 4
2 8785 5
2 8786 34
2 8787 6
2 8788 4
2 8789 17
2 8790 82
2 8791 6
2 8792 4
2 8794 5
2 8795 11
2 8796 20
2 8797 5
2 8799 45
2 8800 34
2 8801 66
2 8802 22
2 8803 24
2 8804 2
2 8805 11
2 8806 5
2 8807 50
2 8808 2
2 8809 473
2 8810 1
2 8811 63
2 8812 7
2 8813 53
2 8814 41
2 8815 6
2 8816 80
2 8817 278
2 8818 3
2 8819 69
2 8820 14
2 8821 47
2 8822 416
2 8823 17
2 8824 43
2 8825 1198
2 8826 24
2 8827 1
2 8828 7
2 8829 4
2 8830 4
2 8831 41
2 8832 4
2 8833 59
2 8834 52
2 8835 43
2 8836 69
2 8837 65
2 8838 22
2 8839 7
2 8840 62
2 8841 1
2 8842 3
2 8843 107
2 8844 19
2 8845 10
2 8846 3
2 8847 15
2 8848 5
2 8849 1091
2 8850 6
2 8851 1
2 8852 2
2 8853 59
2 8854 3
2 8855 3
2 8856 6
2 8857 21
2 8858 70
2 8859 44
2 8860 4
2 8861 67
2 8862 26
2 8863 2
2 8864 5
2 8865 67
2 8866 73
2 8867 3
2 8868 64
2 8869 4
2 8870 6
2 8871 53
2 8872 24
2 8873 3
2 8874 2
2 8875 57
2 8876 76
2 8877 5
2 8878 60
2 8879 31
2 8880 4
2 8882 45
2 8883 6
2 8884 3
2 8885 3
2 8886 2
2 8887 178
2 8888 36
2 8889 4
2 8890 2
2 8891 9
2 8892 7
2 8893 28
2 8894 76
2 8895 1
2 8896 2
2 8897 11
2 8898 29
2 8899 424
2 8900 6
2 8901 3
2 8902 1
2 8903 38
2 8904 2
2 8905 2
2 8906 48
2 8907 5
2 8908 4
2 8909 4
2 8910 2
2 8911 3
2 8912 6
2 8913 3
2 8914 9
2 8915 3
2 8916 649
2 8917 73
2 8918 39
2 8919 2
2 8920 3
2 8921 4
2 8922 1086
2 8923 19
2 8924 1
2 8925 58
2 8926 5
2 8927 54
2 8928 41
2 8929 5
2 8930 2
2 8931 4
2 8932 21
2 8933 31
2 8934 72
2 8935 28
2 8936 17
2 8937 24
2 8938 5
2 8939 25
2 8940 1
2 8941 13
2 8942 5
2 8943 84
2 8944 42
2 8945 5
2 8946 38
2 8947 25
2 8948 36
2 8949 1
2 8950 49
2 8951 34
2 8952 83
2 8953 84
2 8954 4
2 8955 62
2 8956 70
2 8957 36
2 8958 23
2 8959 96
2 8960 17
2 8961 5
2 8962 52
2 8963 202
2 8964 56
2 8965 79
2 8966 16
2 8967 56
2 8968 46
2 8969 105
2 8970 66
2 8971 1
2 8972 3
2 8973 31
2 8974 1
2 8975 2
2 8976 1
2 8977 19
2 8978 1
2 8979 5
2 8980 2
2 8981 3
2 8982 2
2 8983 38
2 8984 26
2 8985 3
2 8986 74
2 8987 465
2 8988 1
2 8989 1
2 8990 19
2 8991 13
2 8992 30
2 8993 33
2 8994 4
2 8995 76
2 8996 2
2 8997 68
2 8998 13
2 8999 2
2 9000 11
2 9001 67
2 9002 41
2 9003 2
2 9004 3
2 9005 55
2 9006 6
2 9007 15
2 9008 3
2 9009 4
2 9010 1
2 9011 19
2 9012 3
2 9013 85
2 9015 4
2 9016 20
2 9017 74
2 9018 3
2 9019 36
2 9021 908
2 9022 5
2 9023 36
2 9024 97
2 9025 2
2 9026 55
2 9027 3
2 9028 4
2 9029 93
2 9030 33
2 9031 105
2 9032 5
2 9033 73
2 9034 4
2 9035 5
2 9036 6
2 9037 6
2 9038 3
2 9039 3
2 9040 33
2 9041 980
2 9042 3
2 9043 2
2 9044 1
2 9045 4
2 9046 68
2 9047 57
2 9048 88
2 9049 3
2 9050 45
2 9051 59
2 9052 10
2 9053 52
2 9054 51
2 9055 4
2 9056 3
2 9057 28
2 9058 47
2 9059 5
2 9060 67
2 9061 5
2 9062 3
2 9063 34
2 9064 2
2 9065 4
2 9066 6
2 9067 1151
2 9068 1
2 9069 8
2 9070 101
2 9071 4
2 9072 379
2 9073 59
2 9074 63
2 9075 4
2 9076 5
2 9077 50
2 9078 1
2 9079 67
2 9080 2
2 9081 39
2 9083 949
2 9084 3
2 9085 6
2 9086 115
2 9087 39
2 9088 3
2 9089 49
2 9090 2
2 9091 15
2 9092 34
2 9093 14
2 9094 1
2 9095 4
2 9096 2
2 9097 54
2 9098 57
2 9099 53
2 9100 12
2 9101 4
2 9102 4
2 9103 86
2 9104 22
2 9105 55
2 9106 2
2 9107 42
2 9108 5
2 9109 55
2 9110 78
2 9111 2
2 9112 8
2 9113 59
2 9114 3
2 9115 4
2 9116 97
2 9117 37
2 9118 58
2 9119 10
2 9120 1233
2 9121 38
2 9122 61
2 9123 41
2 9124 3
2 9125 1
2 9126 71
2 9127 3
2 9128 18
2 9129 37
2 9130 29
2 9131 80
2 9132 4
2 9133 63
2 9134 7
2 9135 2
2 9136 6
2 9137 8
2 9138 13
2 9139 117
2 9140 3
2 9141 3
2 9142 37
2 9143 129
2 9144 3
2 9145 47
2 9146 82
2 9147 1
2 9148 1264
2 9149 2
2 9150 67
2 9151 51
2 9152 17
2 9153 5
2 9154 6
2 9155 3
2 9156 60
2 9157 53
2 9158 40
2 9159 7
2 9160 57
2 9161 40
2 9162 3
2 9163 20
2 9164 31
2 9165 18
2 9166 30
2 9167 21
2 9169 3
2 9170 1
2 9171 3
2 9172 1
2 9173 73
2 9174 1
2 9175 3
2 9176 19
2 9177 1
2 9178 4
2 9179 3
2 9180 20
2 9181 13
2 9182 44
2 9183 4
2 9184 7
2 9185 2
2 9186 13
2 9187 39
2 9188 3
2 9189 33
2 9190 1
2 9191 4
2 9192 4
2 9193 34
2 9194 20
2 9195 3
2 9196 1153
2 9197 147
2 9198 1009
2 9199 24
2 9200 54
2 9201 7
2 9202 41
2 9203 311
2 9204 135
2 9205 2
2 9206 2
2 9207 2
2 9208 19
2 9209 40
2 9210 4
2 9211 4
2 9212 21
2 9213 34
2 9214 65
2 9215 88
2 9216 5
2 9217 90
2 9218 54
2 9219 22
2 9220 3
2 9221 23
2 9222 24
2 9223 58
2 9224 77
2 9225 72
2 9226 25
2 9227 2
2 9228 10
2 9229 52
2 9230 36
2 9231 3
2 9232 70
2 9233 1
2 9234 127
2 9235 21
2 9236 55
2 9237 9
2 9238 9
2 9239 86
2 9240 40
2 9241 40
2 9242 46
2 9243 8
2 9244 5
2 9245 45
2 9246 43
2 9248 26
2 9249 1
2 9250 87
2 9251 102
2 9252 4
2 9253 25
2 9254 3
2 9255 146
2 9256 78
2 9257 26
2 9259 3
2 9260 1190
2 9261 5
2 9262 8
2 9263 9
2 9264 60
2 9265 1
2 9266 54
2 9267 123
2 9268 5
2 9269 6
2 9270 5
2 9271 62
2 9272 102
2 9273 7
2 9274 43
2 9275 2
2 9276 43
2 9277 3
2 9278 5
2 9279 7
2 9280 5
2 9281 23
2 9282 78
2 9283 4
2 9284 100
2 9285 39
2 9286 4
2 9287 8
2 9288 26
2 9289 65
2 9290 5
2 9291 7
2 9292 26
2 9293 9
2 9294 26
2 9295 5
2 9296 51
2 9297 32
2 9298 27
2 9299 77
2 9300 1
2 9301 4
2 9302 7
2 9303 2
2 9304 1
2 9305 15
2 9306 2
2 9307 6
2 9308 3
2 9309 43
2 9310 1
2 9311 3
2 9312 3
2 9313 120
2 9314 198
2 9315 132
2 9316 34
2 9317 27
2 9318 31
2 9319 5
2 9320 54
2 9321 79
2 9322 42
2 9323 3
2 9324 2
2 9325 3
2 9326 34
2 9327 6
2 9328 399
2 9329 4
2 9330 19
2 9331 47
2 9332 32
2 9333 80
2 9334 55
2 9335 2
2 9336 100
2 9337 2
2 9338 3
2 9339 59
2 9340 1159
2 9341 5
2 9342 3
2 9343 5
2 9345 1
2 9346 38
2 9347 1
2 9348 2
2 9349 4
2 9350 5
2 9351 113
2 9352 80
2 9353 4
2 9354 6
2 9355 7
2 9356 1
2 9357 75
2 9358 4
2 9359 4
2 9360 1
2 9361 1
2 9362 3
2 9363 23
2 9364 31
2 9365 226
2 9366 90
2 9367 37
2 9368 1160
2 9369 6
2 9370 116
2 9371 37
2 9372 28
2 9373 2
2 9374 13
2 9375 7
2 9376 6
2 9377 595
2 9378 68
2 9379 5
2 9380 3
2 9381 67
2 9382 5
2 9383 88
2 9384 99
2 9385 51
2 9386 63
2 9387 7
2 9388 4
2 9389 17
2 9390 3
2 9391 89
2 9392 37
2 9393 80
2 9394 106
2 9395 5
2 9396 2
2 9397 31
2 9398 4
2 9399 8
2 9400 609
2 9401 36
2 9402 5
2 9403 4
2 9404 26
2 9405 5
2 9406 35
2 9407 49
2 9408 2
2 9409 3
2 9410 2
2 9411 4
2 9412 1156
2 9413 13
2 9414 39
2 9415 306
2 9416 46
2 9417 123
2 9418 24
2 9419 4
2 9420 4
2 9421 5
2 9422 2
2 9423 93
2 9424 111
2 9425 4
2 9426 30
2 9427 54
2 9428 140
2 9429 111
2 9430 9
2 9431 3
2 9432 119
2 9433 40
2 9434 120
2 9435 8
2 9436 46
2 9437 2
2 9438 6
2 9439 2
2 9440 133
2 9441 3
2 9442 4
2 9443 3
2 9444 44
2 9445 7
2 9446 9
2 9447 47
2 9448 1
2 9449 1
2 9450 32
2 9451 87
2 9452 1
2 9453 83
2 9454 1136
2 9455 1
2 9456 4
2 9457 179
2 9458 37
2 9459 35
2 9460 52
2 9461 703
2 9462 24
2 9463 1192
2 9464 40
2 9465 889
2 9466 16
2 9467 13
2 9468 53
2 9469 21
2 9470 2
2 9472 33
2 9473 59
2 9474 6
2 9475 56
2 9476 23
2 9477 32
2 9478 63
2 9479 73
2 9480 113
2 9481 36
2 9482 5
2 9483 6
2 9484 1238
2 9485 2
2 9486 2
2 9487 4
2 9488 33
2 9489 84
2 9490 5
2 9491 117
2 9492 3
2 9493 6
2 9494 61
2 9495 7
2 9496 6
2 9497 6
2 9498 163
2 9499 4
2 9500 49
2 9501 58
2 9502 4
2 9503 37
2 9504 57
2 9505 41
2 9506 4
2 9507 5
2 9508 2
2 9509 4
2 9510 52
2 9511 6
2 9512 5
2 9513 45
2 9514 81
2 9515 9
2 9516 1
2 9517 2
2 9518 6
2 9519 15
2 9520 63
2 9521 36
2 9522 86
2 9523 1
2 9524 57
2 9525 1140
2 9526 6
2 9527 6
2 9528 69
2 9529 2
2 9530 2
2 9531 68
2 9532 6
2 9533 137
2 9534 5
2 9535 88
2 9536 2
2 9537 49
2 9538 5
2 9539 2
2 9540 5
2 9541 41
2 9542 5
2 9543 962
2 9544 5
2 9545 28
2 9546 63
2 9547 75
2 9548 2
2 9549 6
2 9550 4
2 9551 82
2 9552 7
2 9553 45
2 9555 58
2 9556 7
2 9557 45
2 9558 113
2 9559 65
2 9560 22
2 9561 3
2 9562 10
2 9563 82
2 9564 70
2 9565 4
2 9566 695
2 9567 84
2 9568 6
2 9569 5
2 9570 6
2 9571 45
2 9572 48
2 9573 65
2 9574 65
2 9575 2
2 9576 74
2 9577 59
2 9578 58
2 9579 57
2 9580 2
2 9581 52
2 9582 1110
2 9583 26
2 9584 86
2 9585 48
2 9586 4
2 9587 42
2 9588 8
2 9589 6
2 9590 46
2 9591 907
2 9592 3
2 9593 3
2 9594 91
2 9595 4
2 9596 2
2 9597 4
2 9598 5
2 9599 19
2 9600 4
2 9601 101
2 9602 26
2 9603 7
2 9604 4
2 9605 4
2 9606 24
2 9607 43
2 9608 99
2 9609 6
2 9610 39
2 9611 9
2 9612 33
2 9613 136
2 9614 78
2 9615 2
2 9616 93
2 9617 3
2 9618 1
2 9619 60
2 9620 22
2 9622 2
2 9623 3
2 9624 2
2 9625 50
2 9626 6
2 9627 157
2 9628 53
2 9629 49
2 9630 35
2 9631 72
2 9632 82
2 9633 1
2 9634 7
2 9635 3
2 9636 25
2 9637 1
2 9638 3
2 9639 4
2 9640 7
2 9641 38
2 9642 35
2 9643 51
2 9644 42
2 9645 56
2 9646 58
2 9647 14
2 9648 4
2 9649 6
2 9650 2
2 9651 85
2 9652 29
2 9653 19
2 9654 46
2 9655 5
2 9656 1162
2 9657 90
2 9658 30
2 9659 1
2 9660 69
2 9661 8
2 9662 4
2 9663 3
2 9664 50
2 9665 5
2 9666 26
2 9667 44
2 9668 25
2 9669 2
2 9670 4
2 9672 36
2 9673 44
2 9675 71
2 9676 50
2 9677 46
2 9678 25
2 9679 8
2 9681 82
2 9682 43
2 9683 19
2 9684 2
2 9685 18
2 9686 3
2 9687 86
2 9688 67
2 9689 1
2 9690 36
2 9691 3
2 9692 940
2 9693 148
2 9694 3
2 9695 66
2 9696 49
2 9697 6
2 9698 4
2 9699 38
2 9701 5
2 9702 30
2 9703 4
2 9704 5
2 9705 106
2 9706 739
2 9707 108
2 9708 91
2 9709 6
2 9710 38
2 9711 4
2 9713 1156
2 9714 33
2 9715 71
2 9716 7
2 9717 5
2 9718 121
2 9719 871
2 9720 47
2 9721 79
2 9722 78
2 9723 4
2 9724 75
2 9725 5
2 9726 43
2 9727 63
2 9728 5
2 9729 33
2 9730 4
2 9731 2
2 9732 17
2 9733 62
2 9734 28
2 9735 2
2 9736 44
2 9737 4
2 9738 3
2 9740 2
2 9741 5
2 9742 70
2 9743 19
2 9744 4
2 9745 12
2 9746 4
2 9747 2
2 9748 5
2 9749 3
2 9750 63
2 9751 50
2 9752 54
2 9753 5
2 9754 2
2 9755 2
2 9756 2
2 9757 3
2 9758 96
2 9759 6
2 9760 3
2 9761 77
2 9762 4
2 9763 6
2 9764 3
2 9765 3
2 9766 25
2 9767 1153
2 9768 47
2 9769 5
2 9770 33
2 9771 6
2 9772 3
2 9773 2
2 9774 3
2 9775 55
2 9776 52
2 9777 1
2 9778 18
2 9779 46
2 9780 89
2 9781 22
2 9782 3
2 9783 5
2 9784 3
2 9785 83
2 9786 102
2 9787 29
2 9788 1
2 9789 104
2 9790 3
2 9792 2
2 9793 797
2 9794 7
2 9795 7
2 9796 43
2 9797 3
2 9798 44
2 9799 3
2 9800 4
2 9801 22
2 9802 26
2 9803 13
2 9804 8
2 9805 33
2 9806 6
2 9807 71
2 9808 72
2 9809 117
2 9810 38
2 9811 44
2 9812 2
2 9813 4
2 9814 4
2 9816 44
2 9817 54
2 9818 76
2 9819 8
2 9821 3
2 9822 46
2 9823 26
2 9824 72
2 9825 22
2 9826 155
2 9827 3
2 9828 53
2 9829 6
2 9830 11
2 9831 5
2 9832 50
2 9833 46
2 9834 3
2 9835 2
2 9836 53
2 9837 82
2 9838 655
2 9839 51
2 9840 86
2 9841 67
2 9842 5
2 9843 34
2 9844 4
2 9845 6
2 9846 2
2 9847 9
2 9848 56
2 9849 98
2 9850 71
2 9851 40
2 9852 53
2 9853 57
2 9854 3
2 9855 36
2 9856 7
2 9857 40
2 9858 1
2 9859 4
2 9860 1
2 9861 41
2 9862 131
2 9863 2
2 9864 2
2 9865 74
2 9866 26
2 9867 2
2 9868 8
2 9869 5
2 9870 8
2 9871 3
2 9872 54
2 9873 16
2 9874 60
2 9875 97
2 9876 45
2 9877 6
2 9878 56
2 9880 46
2 9881 6
2 9882 2
2 9883 42
2 9884 3
2 9885 64
2 9886 31
2 9887 114
2 9888 117
2 9889 7
2 9890 80
2 9891 128
2 9892 18
2 9893 4
2 9894 5
2 9895 4
2 9896 5
2 9897 66
2 9898 1
2 9899 40
2 9900 5
2 9901 95
2 9902 5
2 9903 3
2 9904 72
2 9905 3
2 9906 92
2 9907 50
2 9908 1112
2 9909 83
2 9910 26
2 9911 3
2 9912 67
2 9913 3
2 9914 46
2 9915 63
2 9916 51
2 9917 2
2 9918 4
2 9919 7
2 9920 15
2 9921 56
2 9922 7
2 9923 101
2 9924 3
2 9925 1
2 9926 60
2 9927 5
2 9928 2
2 9929 54
2 9930 65
2 9931 28
2 9932 6
2 9933 39
2 9934 5
2 9935 51
2 9936 2
2 9937 2
2 9938 68
2 9939 1
2 9940 117
2 9941 3
2 9942 23
2 9943 2
2 9944 140
2 9945 24
2 9946 5
2 9947 2
2 9948 1
2 9949 65
2 9950 51
2 9951 1
2 9952 68
2 9953 46
2 9954 7
2 9955 58
2 9956 36
2 9957 2
2 9958 3
2 9959 106
2 9960 4
2 9961 36
2 9962 5
2 9963 4
2 9964 48
2 9965 53
2 9966 4
2 9967 34
2 9968 6
2 9969 5
2 9970 50
2 9971 4
2 9972 7
2 9973 1
2 9974 6
2 9975 87
2 9976 5
2 9977 2
2 9978 55
2 9979 79
2 9980 22
2 9981 7
2 9982 36
2 9983 49
2 9984 52
2 9985 88
2 9986 62
2 9987 1174
2 9988 30
2 9989 3
2 9990 6
2 9991 1067
2 9992 52
2 9993 24
2 9994 6
2 9995 11
2 9996 54
2 9997 3
2 9998 4
2 9999 5
2 10000 53
2 10001 51
2 10002 25
2 10003 37
2 10004 42
2 10005 23
2 10006 33
2 10007 37
2 10008 7
2 10009 6
2 10010 30
2 10011 113
2 10012 31
2 10013 20
2 10014 4
2 10015 5
2 10016 4
2 10017 114
2 10018 973
2 10019 1
2 10020 2
2 10021 4
2 10022 67
2 10023 74
2 10024 17
2 10025 4
2 10026 1
2 10027 939
2 10028 2
2 10029 3
2 10030 47
2 10031 4
2 10032 307
2 10033 1
2 10034 7
2 10035 24
2 10036 63
2 10037 72
2 10038 1
2 10039 2
2 10041 71
2 10042 6
2 10043 1
2 10044 7
2 10045 2
2 10046 89
2 10047 26
2 10048 147
2 10049 3
2 10050 50
2 10051 171
2 10052 26
2 10053 38
2 10054 5
2 10055 41
2 10056 4
2 10057 6
2 10058 67
2 10059 59
2 10060 8
2 10061 42
2 10062 122
2 10063 41
2 10064 183
2 10065 1
2 10067 7
2 10068 5
2 10069 23
2 10070 33
2 10071 2
2 10072 18
2 10073 62
2 10074 4
2 10075 4
2 10076 10
2 10077 43
2 10078 2
2 10079 59
2 10080 5
2 10081 27
2 10082 2
2 10083 1
2 10084 4
2 10085 42
2 10086 16
2 10087 2
2 10088 47
2 10089 48
2 10090 8
2 10091 6
2 10092 69
2 10093 5
2 10094 57
2 10095 2
2 10096 44
2 10097 29
2 10098 9
2 10099 113
2 10100 6
2 10101 62
2 10102 2
2 10103 8
2 10104 1
2 10105 45
2 10106 3
2 10107 10
2 10108 96
2 10109 6
2 10110 48
2 10111 73
2 10112 68
2 10113 4
2 10114 2
2 10115 37
2 10116 94
2 10117 63
2 10118 8
2 10119 2
2 10120 9
2 10121 3
2 10122 68
2 10123 130
2 10124 1
2 10125 3
2 10126 72
2 10127 44
2 10128 614
2 10129 33
2 10130 44
2 10131 93
2 10132 37
2 10133 70
2 10134 5
2 10135 24
2 10136 64
2 10137 221
2 10138 213
2 10139 54
2 10140 52
2 10141 12
2 10142 30
2 10143 34
2 10144 56
2 10145 6
2 10146 31
2 10147 28
2 10148 47
2 10149 6
2 10150 46
2 10151 137
2 10152 7
2 10153 55
2 10154 29
2 10155 24
2 10156 95
2 10157 5
2 10158 69
2 10159 7
2 10160 26
2 10161 20
2 10162 5
2 10163 58
2 10164 41
2 10166 58
2 10167 573
2 10168 7
2 10169 6
2 10170 23
2 10171 5
2 10172 3
2 10173 2
2 10174 3
2 10175 38
2 10176 39
2 10177 81
2 10178 99
2 10179 3
2 10180 741
2 10181 4
2 10182 5
2 10183 60
2 10184 3
2 10185 67
2 10186 4
2 10187 13
2 10188 3
2 10189 543
2 10190 6
2 10191 2
2 10192 184
2 10193 25
2 10194 35
2 10195 4
2 10196 53
2 10197 61
2 10198 22
2 10199 25
2 10200 110
2 10201 35
2 10202 54
2 10203 89
2 10204 8
2 10205 79
2 10206 1
2 10207 6
2 10208 21
2 10209 25
2 10210 52
2 10211 60
2 10212 27
2 10213 943
2 10214 91
2 10215 81
2 10216 2
2 10217 3
2 10218 57
2 10219 3
2 10220 5
2 10221 9
2 10222 5
2 10223 6
2 10224 66
2 10225 4
2 10226 26
2 10227 29
2 10228 4
2 10229 15
2 10230 1055
2 10231 46
2 10232 3
2 10233 66
2 10234 8
2 10235 1
2 10236 32
2 10237 1
2 10238 3
2 10239 53
2 10240 7
2 10241 3
2 10242 20
2 10243 1
2 10244 4
2 10245 57
2 10246 36
2 10247 6
2 10248 4
2 10249 54
2 10250 54
2 10251 61
2 10252 60
2 10253 57
2 10254 5
2 10255 4
2 10256 3
2 10257 30
2 10258 3
2 10259 42
2 10260 81
2 10261 7
2 10262 3
2 10263 1
2 10264 758
2 10265 1
2 10266 4
2 10267 5
2 10268 59
2 10269 79
2 10270 5
2 10271 80
2 10272 90
2 10273 34
2 10274 7
2 10275 6
2 10276 8
2 10277 48
2 10279 4
2 10280 65
2 10281 4
2 10282 42
2 10283 61
2 10284 61
2 10285 34
2 10286 107
2 10287 87
2 10288 7
2 10289 3
2 10290 2
2 10291 87
2 10292 262
2 10293 46
2 10294 64
2 10295 120
2 10296 23
2 10297 8
2 10298 3
2 10299 26
2 10300 4
2 10301 21
2 10302 5
2 10303 3
2 10304 5
2 10305 56
2 10306 2
2 10307 11
2 10308 190
2 10309 4
2 10310 3
2 10311 45
2 10312 84
2 10313 72
2 10314 2
2 10315 49
2 10316 94
2 10317 2
2 10318 7
2 10319 69
2 10320 2
2 10321 3
2 10322 4
2 10324 3
2 10325 4
2 10326 82
2 10327 12
2 10328 3
2 10329 41
2 10330 53
2 10331 3
2 10332 45
2 10333 2
2 10334 4
2 10335 6
2 10336 1
2 10337 35
2 10338 32
2 10339 19
2 10340 12
2 10341 387
2 10342 32
2 10343 32
2 10344 92
2 10345 49
2 10346 24
2 10347 65
2 10348 64
2 10349 3
2 10350 47
2 10351 38
2 10352 50
2 10353 33
2 10355 5
2 10356 78
2 10357 3
2 10358 4
2 10359 4
2 10362 68
2 10363 69
2 10364 68
2 10365 37
2 10366 4
2 10367 2
2 10368 76
2 10369 10
2 10370 1171
2 10371 44
2 10372 4
2 10373 28
2 10374 32
2 10375 9
2 10376 65
2 10377 99
2 10378 46
2 10379 5
2 10380 64
2 10381 8
2 10382 2
2 10383 6
2 10384 135
2 10385 43
2 10386 49
2 10387 72
2 10388 101
2 10389 65
2 10390 58
2 10391 5
2 10392 300
2 10393 2
2 10394 55
2 10395 1
2 10396 8
2 10397 4
2 10398 82
2 10399 1
2 10400 104
2 10401 1
2 10402 33
2 10403 3
2 10404 3
2 10405 4
2 10406 8
2 10407 69
2 10408 4
2 10409 7
2 10410 3
2 10411 45
2 10412 4
2 10413 6
2 10414 37
2 10415 1
2 10416 40
2 10417 600
2 10418 2
2 10419 85
2 10420 5
2 10421 73
2 10422 36
2 10423 97
2 10424 949
2 10425 7
2 10426 5
2 10427 43
2 10428 55
2 10429 8
2 10430 158
2 10431 72
2 10432 7
2 10433 4
2 10434 32
2 10435 59
2 10436 2
2 10437 759
2 10438 2
2 10439 25
2 10440 17
2 10441 32
2 10442 3
2 10443 20
2 10444 63
2 10445 76
2 10446 1205
2 10447 9
2 10448 212
2 10449 79
2 10450 5
2 10451 1
2 10452 73
2 10453 167
2 10454 68
2 10455 30
2 10456 34
2 10457 4
2 10458 3
2 10459 38
2 10460 3
2 10461 4
2 10462 18
2 10463 78
2 10464 9
2 10465 125
2 10466 30
2 10467 22
2 10468 4
2 10469 76
2 10470 60
2 10471 29
2 10472 7
2 10473 12
2 10475 5
2 10476 45
2 10477 8
2 10478 28
2 10479 6
2 10480 48
2 10481 2
2 10482 93
2 10483 2
2 10484 103
2 10485 9
2 10486 72
2 10487 66
2 10488 32
2 10489 54
2 10490 77
2 10491 9
2 10492 3
2 10493 67
2 10494 3
2 10495 6
2 10496 5
2 10497 61
2 10498 1137
2 10499 11
2 10500 16
2 10501 56
2 10502 4
2 10503 85
2 10504 1
2 10505 48
2 10506 4
2 10507 128
2 10508 103
2 10509 67
2 10510 4
2 10511 23
2 10512 8
2 10513 4
2 10514 98
2 10515 5
2 10516 4
2 10517 421
2 10518 120
2 10519 2
2 10520 4
2 10521 58
2 10522 15
2 10523 50
2 10524 6
2 10525 3
2 10526 21
2 10527 66
2 10528 7
2 10529 1011
2 10530 46
2 10531 43
2 10532 2
2 10533 2
2 10534 8
2 10535 89
2 10536 6
2 10537 97
2 10538 187
2 10539 6
2 10540 85
2 10541 45
2 10542 8
2 10543 91
2 10544 23
2 10545 4
2 10546 46
2 10547 6
2 10548 3
2 10549 6
2 10550 4
2 10551 120
2 10552 2
2 10553 80
2 10554 31
2 10555 14
2 10556 60
2 10557 45
2 10558 22
2 10559 4
2 10560 21
2 10561 88
2 10562 92
2 10563 4
2 10564 27
2 10565 6
2 10566 5
2 10567 90
2 10568 4
2 10569 4
2 10570 37
2 10571 1
2 10572 4
2 10573 3
2 10574 61
2 10575 67
2 10576 104
2 10577 3
2 10578 124
2 10579 5
2 10580 30
2 10581 112
2 10582 4
2 10583 29
2 10584 66
2 10585 2
2 10586 39
2 10587 20
2 10588 4
2 10589 13
2 10590 2
2 10591 6
2 10592 2
2 10593 57
2 10594 37
2 10595 421
2 10596 1
2 10597 2
2 10598 415
2 10599 6
2 10600 47
2 10601 76
2 10602 1
2 10603 8
2 10604 8
2 10605 77
2 10606 5
2 10607 102
2 10608 72
2 10609 71
2 10610 50
2 10611 1149
2 10612 17
2 10613 4
2 10614 2
2 10615 4
2 10616 92
2 10617 73
2 10618 46
2 10619 8
2 10620 5
2 10621 4
2 10622 67
2 10623 91
2 10624 23
2 10625 72
2 10626 25
2 10627 7
2 10628 27
2 10629 2
2 10630 502
2 10631 44
2 10632 8
2 10633 45
2 10634 81
2 10635 65
2 10636 41
2 10637 2
2 10638 139
2 10639 4
2 10640 5
2 10641 3
2 10642 9
2 10643 61
2 10644 2
2 10645 2
2 10646 6
2 10647 4
2 10648 11
2 10649 10
2 10650 35
2 10651 4
2 10652 3
2 10653 15
2 10654 4
2 10655 33
2 10656 7
2 10657 54
2 10658 3
2 10659 72
2 10660 67
2 10661 45
2 10662 4
2 10663 54
2 10664 56
2 10665 41
2 10666 6
2 10667 3
2 10668 5
2 10669 85
2 10670 72
2 10671 23
2 10672 4
2 10673 98
2 10674 64
2 10675 84
2 10676 5
2 10677 4
2 10678 108
2 10679 7
2 10680 5
2 10681 174
2 10682 1
2 10683 1
2 10684 146
2 10685 54
2 10686 78
2 10687 12
2 10688 227
2 10689 94
2 10690 50
2 10691 8
2 10692 1
2 10693 59
2 10694 35
2 10695 69
2 10696 4
2 10697 113
2 10698 42
2 10699 94
2 10700 6
2 10701 8
2 10702 8
2 10703 5
2 10704 4
2 10705 79
2 10706 54
2 10707 6
2 10708 6
2 10709 1
2 10710 48
2 10711 7
2 10712 42
2 10713 4
2 10714 5
2 10715 7
2 10716 6
2 10717 1
2 10718 46
2 10719 5
2 10720 2
2 10721 2
2 10722 62
2 10723 84
2 10724 58
2 10725 46
2 10726 3
2 10727 27
2 10728 4
2 10729 71
2 10730 8
2 10731 6
2 10732 52
2 10733 109
2 10734 20
2 10735 71
2 10736 3
2 10737 35
2 10738 64
2 10739 66
2 10740 25
2 10741 65
2 10742 22
2 10743 33
2 10744 69
2 10745 47
2 10746 2
2 10747 81
2 10748 7
2 10749 3
2 10750 3
2 10751 1
2 10752 59
2 10753 4
2 10754 3
2 10755 12
2 10756 5
2 10757 45
2 10758 8
2 10759 83
2 10760 42
2 10761 26
2 10762 1
2 10763 5
2 10764 7
2 10765 2
2 10766 25
2 10767 1088
2 10768 92
2 10769 52
2 10770 45
2 10771 1
2 10772 8
2 10773 10
2 10774 5
2 10775 98
2 10776 4
2 10777 34
2 10778 51
2 10779 77
2 10780 1
2 10781 921
2 10782 76
2 10783 6
2 10784 2
2 10785 5
2 10787 50
2 10788 7
2 10789 36
2 10790 5
2 10791 14
2 10792 66
2 10793 1
2 10794 6
2 10795 64
2 10796 5
2 10797 115
2 10798 4
2 10799 1
2 10800 2
2 10801 52
2 10802 50
2 10803 52
2 10804 118
2 10805 5
2 10806 48
2 10808 42
2 10809 6
2 10810 32
2 10811 2
2 10812 3
2 10813 97
2 10814 81
2 10815 76
2 10816 44
2 10817 42
2 10818 3
2 10819 77
2 10820 8
2 10821 2
2 10822 85
2 10823 2
2 10824 95
2 10825 6
2 10826 4
2 10827 5
2 10828 27
2 10829 4
2 10830 39
2 10831 9
2 10832 26
2 10833 1
2 10834 108
2 10835 98
2 10836 17
2 10837 6
2 10838 1113
2 10839 12
2 10840 85
2 10841 2
2 10842 34
2 10843 517
2 10844 82
2 10845 3
2 10846 10
2 10847 4
2 10848 61
2 10849 732
2 10850 6
2 10851 2
2 10852 5
2 10853 123
2 10854 82
2 10855 6
2 10856 16
2 10857 11
2 10858 7
2 10859 7
2 10860 4
2 10862 132
2 10863 112
2 10864 5
2 10865 4
2 10866 81
2 10867 45
2 10868 2
2 10869 133
2 10870 85
2 10871 153
2 10872 5
2 10873 2
2 10874 48
2 10875 8
2 10876 76
2 10877 5
2 10878 4
2 10879 2
2 10880 77
2 10881 50
2 10882 4
2 10883 3
2 10884 7
2 10885 500
2 10886 32
2 10887 6
2 10889 4
2 10890 49
2 10891 7
2 10892 214
2 10893 9
2 10894 5
2 10895 7
2 10896 7
2 10898 89
2 10899 3
2 10900 147
2 10901 5
2 10902 85
2 10903 1
2 10904 4
2 10905 3
2 10906 5
2 10907 103
2 10908 367
2 10909 78
2 10910 2
2 10911 22
2 10912 2
2 10913 121
2 10914 12
2 10915 77
2 10916 52
2 10917 35
2 10918 2
2 10919 6
2 10920 61
2 10921 7
2 10922 8
2 10923 2
2 10924 20
2 10925 5
2 10926 59
2 10927 58
2 10928 39
2 10929 6
2 10930 8
2 10931 2
2 10932 3
2 10933 6
2 10934 93
2 10935 76
2 10936 2
2 10937 23
2 10938 22
2 10939 6
2 10940 3
2 10941 4
2 10942 47
2 10943 3
2 10944 5
2 10945 34
2 10946 30
2 10947 219
2 10948 5
2 10949 1226
2 10950 51
2 10951 887
2 10952 35
2 10953 40
2 10954 78
2 10955 42
2 10956 2
2 10957 520
2 10958 1
2 10959 6
2 10960 51
2 10961 64
2 10962 29
2 10963 48
2 10964 112
2 10966 4
2 10967 2
2 10968 5
2 10969 1
2 10970 5
2 10971 4
2 10972 3
2 10973 118
2 10974 1
2 10975 98
2 10976 5
2 10977 43
2 10978 43
2 10979 2
2 10980 96
2 10981 5
2 10982 49
2 10983 10
2 10984 44
2 10985 10
2 10986 48
2 10987 32
2 10988 3
2 10989 92
2 10990 40
2 10991 5
2 10992 1
2 10993 61
2 10994 41
2 10995 63
2 10996 36
2 10997 33
2 10998 72
2 10999 52
2 11000 7
2 11001 2
2 11002 72
2 11003 20
2 11004 4
2 11005 28
2 11006 118
2 11007 99
2 11008 1
2 11009 66
2 11010 2
2 11011 3
2 11012 8
2 11013 76
2 11014 14
2 11015 39
2 11016 108
2 11017 40
2 11018 56
2 11019 4
2 11020 60
2 11021 56
2 11022 3
2 11023 75
2 11025 101
2 11026 16
2 11027 9
2 11028 74
2 11029 89
2 11030 94
2 11031 26
2 11032 5
2 11033 90
2 11034 478
2 11035 5
2 11036 2
2 11037 1
2 11038 4
2 11039 33
2 11040 2
2 11041 62
2 11042 10
2 11043 69
2 11044 5
2 11045 128
2 11046 45
2 11047 66
2 11048 3
2 11049 97
2 11050 7
2 11051 135
2 11052 4
2 11053 5
2 11054 3
2 11055 3
2 11056 3
2 11057 110
2 11058 2
2 11059 2
2 11060 113
2 11061 4
2 11062 20
2 11064 6
2 11065 5
2 11066 6
2 11067 3
2 11068 39
2 11069 5
2 11070 3
2 11071 61
2 11072 73
2 11073 72
2 11074 1
2 11075 62
2 11076 2
2 11077 3
2 11078 8
2 11080 4
2 11081 46
2 11082 77
2 11083 17
2 11084 55
2 11085 124
2 11086 6
2 11087 117
2 11088 4
2 11089 1
2 11090 39
2 11091 650
2 11092 4
2 11093 5
2 11094 78
2 11095 2
2 11096 23
2 11097 1
2 11098 3
2 11099 2
2 11100 77
2 11101 23
2 11102 2
2 11103 5
2 11104 6
2 11105 40
2 11106 2
2 11107 26
2 11108 35
2 11109 10
2 11110 88
2 11111 45
2 11112 4
2 11113 38
2 11114 161
2 11115 127
2 11116 23
2 11117 15
2 11118 1148
2 11119 1
2 11120 4
2 11121 5
2 11122 4
2 11123 19
2 11124 33
2 11125 4
2 11126 33
2 11127 3
2 11128 4
2 11129 1
2 11130 30
2 11131 72
2 11132 3
2 11133 1
2 11134 5
2 11135 1
2 11136 106
2 11137 5
2 11138 4
2 11139 39
2 11140 1
2 11141 113
2 11142 3
2 11143 4
2 11144 3
2 11145 71
2 11146 60
2 11147 7
2 11148 24
2 11149 6
2 11150 18
2 11151 5
2 11152 61
2 11153 82
2 11154 72
2 11155 27
2 11156 1
2 11157 79
2 11158 5
2 11159 32
2 11160 3
2 11161 1
2 11162 3
2 11163 42
2 11165 65
2 11166 46
2 11167 73
2 11168 2
2 11169 31
2 11170 70
2 11171 5
2 11172 1
2 11173 32
2 11174 35
2 11175 66
2 11176 6
2 11177 2
2 11178 4
2 11179 22
2 11180 5
2 11181 133
2 11182 52
2 11183 34
2 11184 20
2 11185 2
2 11186 71
2 11187 25
2 11188 50
2 11189 4
2 11190 3
2 11191 5
2 11192 1
2 11193 4
2 11194 7
2 11195 60
2 11196 6
2 11197 85
2 11198 29
2 11199 26
2 11200 1
2 11201 2
2 11202 8
2 11203 3
2 11204 14
2 11205 6
2 11206 11
2 11207 54
2 11208 3
2 11209 3
2 11210 5
2 11211 91
2 11212 28
2 11213 1206
2 11214 4
2 11215 56
2 11216 5
2 11217 3
2 11218 2
2 11219 2
2 11220 3
2 11221 55
2 11222 26
2 11223 92
2 11224 40
2 11225 46
2 11226 1
2 11227 2
2 11228 37
2 11229 1
2 11230 5
2 11231 2
2 11232 1
2 11233 50
2 11234 41
2 11235 4
2 11236 2
2 11237 29
2 11238 116
2 11239 8
2 11240 3
2 11241 96
2 11242 1
2 11243 55
2 11244 58
2 11245 227
2 11246 1051
2 11247 3
2 11248 5
2 11249 68
2 11250 24
2 11251 52
2 11252 21
2 11253 1
2 11254 3
2 11255 58
2 11256 4
2 11257 16
2 11258 29
2 11259 122
2 11260 5
2 11261 64
2 11262 10
2 11263 92
2 11264 62
2 11265 1
2 11266 4
2 11267 2
2 11268 4
2 11269 88
2 11270 70
2 11271 8
2 11272 94
2 11273 3
2 11274 5
2 11275 4
2 11276 1
2 11277 55
2 11278 39
2 11279 3
2 11280 10
2 11281 40
2 11282 70
2 11283 6
2 11284 677
2 11285 77
2 11287 3
2 11288 3
2 11289 2
2 11290 4
2 11292 2
2 11293 2
2 11294 836
2 11295 3
2 11296 56
2 11297 12
2 11298 4
2 11299 4
2 11300 4
2 11301 5
2 11302 36
2 11303 8
2 11304 3
2 11305 3
2 11306 12
2 11308 439
2 11309 42
2 11310 70
2 11311 135
2 11312 184
2 11313 1
2 11314 10
2 11315 21
2 11316 913
2 11317 6
2 11318 3
2 11319 5
2 11320 52
2 11321 40
2 11322 5
2 11323 1
2 11324 1
2 11325 54
2 11326 5
2 11327 4
2 11328 5
2 11329 8
2 11330 5
2 11331 46
2 11332 36
2 11333 7
2 11334 100
2 11335 4
2 11336 37
2 11337 46
2 11338 34
2 11339 57
2 11340 4
2 11341 6
2 11342 68
2 11343 113
2 11344 3
2 11345 3
2 11346 35
2 11347 63
2 11348 2
2 11349 5
2 11350 156
2 11351 4
2 11352 41
2 11353 23
2 11354 31
2 11355 63
2 11356 4
2 11357 138
2 11358 21
2 11359 48
2 11360 92
2 11361 906
2 11362 5
2 11363 69
2 11364 2
2 11365 25
2 11366 104
2 11367 2
2 11368 7
2 11369 27
2 11370 16
2 11371 181
2 11372 6
2 11373 5
2 11374 2
2 11375 2
2 11376 2
2 11377 3
2 11378 46
2 11379 4
2 11380 107
2 11381 1101
2 11382 2
2 11383 83
2 11384 65
2 11385 571
2 11386 5
2 11387 5
2 11388 1
2 11389 1
2 11390 2
2 11391 38
2 11392 65
2 11393 49
2 11394 55
2 11395 131
2 11396 20
2 11397 4
2 11398 3
2 11399 96
2 11400 63
2 11401 4
2 11402 35
2 11403 10
2 11404 2
2 11405 72
2 11406 83
2 11407 69
2 11408 45
2 11409 48
2 11410 12
2 11411 78
2 11412 1
2 11413 55
2 11414 65
2 11415 212
2 11416 3
2 11417 3
2 11418 5
2 11419 9
2 11420 2
2 11421 1201
2 11422 100
2 11423 44
2 11424 94
2 11425 18
2 11426 8
2 11427 6
2 11428 66
2 11429 95
2 11430 99
2 11431 2
2 11432 41
2 11433 79
2 11434 13
2 11435 2
2 11436 4
2 11437 3
2 11438 1
2 11439 2
2 11440 76
2 11442 4
2 11444 42
2 11445 3
2 11446 5
2 11447 32
2 11448 4
2 11449 58
2 11450 4
2 11451 5
2 11452 24
2 11453 8
2 11454 2
2 11455 4
2 11456 61
2 11457 79
2 11458 46
2 11459 25
2 11460 66
2 11461 51
2 11462 993
2 11463 214
2 11464 57
2 11465 8
2 11466 9
2 11467 36
2 11468 50
2 11469 5
2 11470 538
2 11471 3
2 11472 4
2 11473 22
2 11474 31
2 11475 15
2 11476 4
2 11477 1
2 11478 213
2 11479 28
2 11480 3
2 11482 41
2 11483 2
2 11484 45
2 11485 95
2 11486 3
2 11487 28
2 11488 100
2 11489 4
2 11490 3
2 11491 38
2 11492 42
2 11493 41
2 11494 4
2 11495 53
2 11496 75
2 11497 77
2 11499 7
2 11500 24
2 11501 20
2 11502 86
2 11503 1
2 11504 3
2 11505 97
2 11506 65
2 11507 7
2 11508 6
2 11509 8
2 11510 59
2 11511 7
2 11512 144
2 11513 5
2 11514 7
2 11515 105
2 11516 5
2 11517 1206
2 11518 80
2 11519 33
2 11520 7
2 11521 3
2 11522 22
2 11523 7
2 11524 42
2 11525 3
2 11526 1
2 11527 4
2 11528 348
2 11529 60
2 11531 4
2 11532 4
2 11533 56
2 11534 47
2 11535 5
2 11536 3
2 11537 6
2 11538 2
2 11539 2
2 11540 39
2 11541 75
2 11542 28
2 11543 112
2 11544 5
2 11545 4
2 11546 6
2 11547 1
2 11548 17
2 11549 13
2 11550 3
2 11551 25
2 11552 59
2 11553 6
2 11554 3
2 11555 24
2 11557 54
2 11558 9
2 11559 10
2 11560 98
2 11561 28
2 11562 2
2 11563 7
2 11564 62
2 11565 5
2 11566 1239
2 11567 74
2 11568 6
2 11569 76
2 11570 3
2 11571 85
2 11572 75
2 11573 2
2 11574 3
2 11575 7
2 11576 4
2 11577 4
2 11578 32
2 11580 8
2 11581 78
2 11582 114
2 11583 1
2 11584 38
2 11585 6
2 11586 3
2 11587 95
2 11588 114
2 11589 62
2 11590 1
2 11591 24
2 11592 3
2 11593 66
2 11594 45
2 11595 73
2 11596 4
2 11597 77
2 11598 55
2 11599 36
2 11600 6
2 11601 3
2 11602 3
2 11603 18
2 11604 3
2 11605 44
2 11606 8
2 11607 2
2 11608 4
2 11609 28
2 11610 5
2 11611 3
2 11612 25
2 11613 6
2 11614 142
2 11615 7
2 11616 797
2 11617 3
2 11618 7
2 11619 62
2 11620 78
2 11621 4
2 11622 33
2 11623 88
2 11624 8
2 11625 4
2 11626 2
2 11627 50
2 11628 4
2 11629 63
2 11630 24
2 11631 31
2 11632 3
2 11633 80
2 11634 1
2 11635 3
2 11636 46
2 11637 38
2 11638 45
2 11639 59
2 11640 59
2 11641 67
2 11642 2
2 11643 46
2 11644 3
2 11645 118
2 11646 21
2 11647 45
2 11648 69
2 11649 4
2 11650 78
2 11651 343
2 11652 18
2 11653 4
2 11654 6
2 11656 12
2 11657 124
2 11658 27
2 11659 5
2 11660 3
2 11661 7
2 11662 3
2 11663 7
2 11664 9
2 11665 9
2 11666 6
2 11668 49
2 11669 119
2 11670 3
2 11671 9
2 11672 117
2 11673 140
2 11674 159
2 11675 832
2 11676 1143
2 11677 3
2 11678 6
2 11679 6
2 11680 3
2 11681 51
2 11682 5
2 11683 5
2 11684 132
2 11685 35
2 11686 40
2 11687 7
2 11688 3
2 11689 37
2 11690 35
2 11691 49
2 11692 66
2 11693 421
2 11694 5
2 11695 35
2 11696 3
2 11697 24
2 11698 38
2 11699 6
2 11700 6
2 11701 85
2 11702 160
2 11703 66
2 11704 2
2 11705 6
2 11706 2
2 11707 28
2 11708 4
2 11709 97
2 11710 4
2 11711 3
2 11712 9
2 11713 15
2 11714 32
2 11715 60
2 11716 97
2 11717 78
2 11719 72
2 11720 6
2 11721 29
2 11722 1
2 11723 2
2 11724 7
2 11725 67
2 11726 66
2 11727 31
2 11728 54
2 11729 5
2 11730 4
2 11731 4
2 11732 5
2 11733 11
2 11734 58
2 11735 3
2 11736 61
2 11737 2
2 11738 77
2 11739 13
2 11740 69
2 11741 3
2 11742 8
2 11743 33
2 11744 4
2 11745 39
2 11746 10
2 11747 17
2 11748 28
2 11749 10
2 11750 4
2 11751 1
2 11752 35
2 11753 1
2 11754 39
2 11755 101
2 11756 55
2 11757 28
2 11758 52
2 11759 1
2 11760 42
2 11761 5
2 11762 5
2 11763 2
2 11764 99
2 11765 67
2 11766 38
2 11767 49
2 11768 10
2 11769 79
2 11770 7
2 11771 2
2 11772 73
2 11773 36
2 11774 56
2 11775 3
2 11776 425
2 11777 111
2 11778 4
2 11779 5
2 11780 3
2 11781 248
2 11782 50
2 11783 5
2 11784 78
2 11785 3
2 11786 5
2 11787 3
2 11788 61
2 11789 61
2 11790 113
2 11791 77
2 11793 3
2 11794 1131
2 11795 79
2 11796 122
2 11797 28
2 11798 81
2 11799 31
2 11800 6
2 11801 6
2 11802 19
2 11803 7
2 11804 66
2 11805 11
2 11807 14
2 11808 76
2 11809 10
2 11810 96
2 11811 60
2 11812 102
2 11813 24
2 11814 29
2 11815 4
2 11816 35
2 11817 46
2 11818 49
2 11819 6
2 11820 849
2 11821 39
2 11822 89
2 11823 122
2 11824 2
2 11825 26
2 11826 3
2 11827 1
2 11828 73
2 11829 69
2 11830 2
2 11831 8
2 11832 91
2 11833 110
2 11834 54
2 11835 563
2 11836 18
2 11837 37
2 11838 69
2 11839 3
2 11840 74
2 11841 3
2 11842 4
2 11843 4
2 11844 95
2 11845 58
2 11846 54
2 11847 6
2 11848 7
2 11849 45
2 11850 41
2 11851 5
2 11852 44
2 11853 6
2 11854 9
2 11855 53
2 11856 5
2 11857 39
2 11858 137
2 11859 2
2 11860 20
2 11861 80
2 11862 172
2 11863 100
2 11864 107
2 11865 93
2 11866 3
2 11867 5
2 11868 13
2 11869 1
2 11870 5
2 11871 4
2 11872 71
2 11873 35
2 11874 42
2 11875 35
2 11876 5
2 11877 51
2 11878 3
2 11879 74
2 11880 65
2 11881 55
2 11882 3
2 11883 9
2 11884 5
2 11885 4
2 11886 26
2 11887 5
2 11888 70
2 11889 7
2 11890 4
2 11891 24
2 11892 22
2 11893 53
2 11894 37
2 11895 6
2 11896 16
2 11897 5
2 11898 6
2 11899 4
2 11900 26
2 11901 5
2 11902 6
2 11903 7
2 11904 6
2 11905 64
2 11906 38
2 11907 7
2 11908 7
2 11909 4
2 11910 71
2 11911 38
2 11912 89
2 11913 59
2 11914 79
2 11915 100
2 11916 21
2 11917 3
2 11918 84
2 11919 798
2 11920 63
2 11921 2
2 11922 6
2 11923 44
2 11924 69
2 11925 61
2 11926 70
2 11927 4
2 11928 28
2 11929 83
2 11930 105
2 11931 4
2 11932 3
2 11933 35
2 11934 38
2 11935 3
2 11936 50
2 11937 2
2 11938 92
2 11939 67
2 11940 3
2 11941 108
2 11942 23
2 11943 60
2 11944 52
2 11945 3
2 11946 4
2 11947 1
2 11948 6
2 11949 2
2 11950 5
2 11951 10
2 11952 74
2 11953 52
2 11954 901
2 11955 4
2 11956 55
2 11957 34
2 11958 76
2 11959 76
2 11960 1
2 11961 12
2 11962 4
2 11963 77
2 11964 24
2 11965 2
2 11966 58
2 11967 1058
2 11968 18
2 11969 47
2 11970 6
2 11971 69
2 11972 74
2 11973 53
2 11974 4
2 11975 15
2 11976 17
2 11977 4
2 11978 1
2 11979 1
2 11980 50
2 11982 86
2 11983 95
2 11984 6
2 11985 289
2 11986 24
2 11987 25
2 11988 41
2 11989 53
2 11991 216
2 11992 21
2 11993 4
2 11994 82
2 11995 48
2 11996 1
2 11998 38
2 11999 7
2 12000 3
2 12001 1
2 12002 1
2 12003 4
2 12004 46
2 12005 73
2 12006 5
2 12007 218
2 12008 83
2 12009 3
2 12010 4
2 12011 128
2 12012 4
2 12013 62
2 12014 63
2 12015 11
2 12016 23
2 12017 29
2 12018 11
2 12019 5
2 12020 92
2 12021 3
2 12022 6
2 12023 6
2 12024 47
2 12025 12
2 12026 3
2 12027 2
2 12028 22
2 12029 76
2 12030 2
2 12031 2
2 12032 45
2 12033 3
2 12034 30
2 12035 2
2 12036 28
2 12037 3
2 12038 3
2 12039 4
2 12040 4
2 12041 48
2 12042 9
2 12044 24
2 12045 17
2 12046 7
2 12047 2
2 12048 53
2 12049 33
2 12050 45
2 12051 1
2 12052 3
2 12053 71
2 12054 5
2 12055 7
2 12056 4
2 12057 86
2 12058 5
2 12059 59
2 12060 949
2 12061 4
2 12062 2
2 12063 3
2 12064 46
2 12065 78
2 12066 4
2 12067 5
2 12068 6
2 12069 1
2 12070 44
2 12071 2
2 12072 28
2 12073 6
2 12074 6
2 12075 76
2 12076 2
2 12077 5
2 12078 4
2 12079 67
2 12080 6
2 12081 88
2 12082 68
2 12083 98
2 12084 4
2 12085 2
2 12086 48
2 12087 5
2 12088 107
2 12089 104
2 12090 112
2 12091 116
2 12092 18
2 12093 8
2 12094 1
2 12095 75
2 12096 102
2 12097 103
2 12098 354
2 12099 22
2 12100 13
2 12101 8
2 12102 49
2 12103 3
2 12104 52
2 12105 44
2 12106 177
2 12107 41
2 12108 66
2 12109 65
2 12110 63
2 12111 2
2 12112 24
2 12113 26
2 12114 24
2 12115 50
2 12116 1
2 12117 7
2 12118 711
2 12119 1
2 12120 2
2 12121 59
2 12122 26
2 12123 21
2 12124 6
2 12125 31
2 12126 9
2 12127 19
2 12128 4
2 12129 27
2 12130 2
2 12131 148
2 12132 4
2 12133 93
2 12134 2
2 12135 98
2 12136 6
2 12137 2
2 12138 57
2 12139 41
2 12140 44
2 12141 47
2 12142 7
2 12143 3
2 12144 58
2 12145 115
2 12146 73
2 12147 14
2 12149 88
2 12150 82
2 12151 132
2 12152 7
2 12153 7
2 12154 1102
2 12155 82
2 12156 203
2 12157 4
2 12158 55
2 12159 3
2 12160 57
2 12161 4
2 12162 24
2 12163 40
2 12164 3
2 12165 14
2 12166 5
2 12167 2
2 12168 64
2 12169 67
2 12170 81
2 12171 3
2 12172 3
2 12173 5
2 12174 103
2 12175 18
2 12176 7
2 12177 4
2 12178 25
2 12179 3
2 12180 33
2 12181 3
2 12182 2
2 12183 78
2 12184 75
2 12185 66
2 12186 44
2 12187 75
2 12188 22
2 12189 169
2 12190 64
2 12191 96
2 12192 1
2 12193 2
2 12194 6
2 12195 40
2 12196 5
2 12197 18
2 12198 1
2 12199 67
2 12200 3
2 12201 53
2 12202 4
2 12203 2
2 12204 51
2 12205 1
2 12206 20
2 12207 19
2 12208 5
2 12209 96
2 12210 1
2 12211 59
2 12212 5
2 12213 20
2 12214 3
2 12215 12
2 12216 43
2 12217 140
2 12218 3
2 12219 1144
2 12220 28
2 12221 10
2 12222 50
2 12223 91
2 12224 3
2 12225 23
2 12226 1
2 12227 7
2 12228 4
2 12229 17
2 12230 1
2 12231 1
2 12232 4
2 12233 116
2 12234 78
2 12235 32
2 12236 16
2 12237 10
2 12238 3
2 12239 58
2 12240 351
2 12241 54
2 12242 2
2 12243 30
2 12244 11
2 12245 3
2 12246 40
2 12247 81
2 12248 5
2 12249 3
2 12250 1
2 12251 105
2 12252 4
2 12253 65
2 12254 43
2 12255 5
2 12256 29
2 12257 4
2 12258 58
2 12259 95
2 12260 5
2 12261 5
2 12262 72
2 12263 2
2 12264 29
2 12265 18
2 12266 1
2 12267 59
2 12268 11
2 12269 8
2 12270 6
2 12271 3
2 12272 67
2 12273 54
2 12274 42
2 12275 4
2 12276 3
2 12277 5
2 12278 78
2 12279 4
2 12280 794
2 12281 40
2 12282 1148
2 12283 3
2 12284 5
2 12285 23
2 12286 51
2 12288 36
2 12290 12
2 12291 18
2 12292 3
2 12293 11
2 12294 22
2 12295 2
2 12296 74
2 12297 37
2 12298 16
2 12299 85
2 12300 94
2 12301 50
2 12302 47
2 12303 69
2 12304 4
2 12305 32
2 12306 72
2 12307 4
2 12308 47
2 12309 424
2 12310 3
2 12311 3
2 12312 6
2 12313 4
2 12314 4
2 12315 44
2 12316 90
2 12317 109
2 12318 61
2 12319 2
2 12320 5
2 12321 8
2 12322 45
2 12323 3
2 12324 52
2 12325 22
2 12326 3
2 12327 3
2 12328 66
2 12329 24
2 12330 34
2 12331 12
2 12332 79
2 12333 23
2 12334 30
2 12335 1
2 12336 3
2 12337 33
2 12338 52
2 12339 7
2 12340 29
2 12341 4
2 12342 16
2 12343 6
2 12344 3
2 12345 94
2 12346 48
2 12347 10
2 12348 5
2 12349 8
2 12350 29
2 12351 52
2 12352 96
2 12353 63
2 12354 63
2 12355 2
2 12356 1
2 12357 17
2 12358 3
2 12359 361
2 12360 1
2 12361 251
2 12362 88
2 12363 5
2 12364 2
2 12365 3
2 12366 15
2 12367 20
2 12368 3
2 12369 21
2 12370 1
2 12371 1
2 12373 2
2 12374 109
2 12375 4
2 12376 25
2 12377 23
2 12378 28
2 12379 4
2 12380 43
2 12381 69
2 12382 1
2 12383 10
2 12384 1
2 12385 34
2 12386 112
2 12387 56
2 12388 6
2 12389 50
2 12390 2
2 12391 66
2 12392 17
2 12393 545
2 12394 1
2 12395 30
2 12396 55
2 12397 41
2 12398 3
2 12399 8
2 12400 9
2 12401 5
2 12402 2
2 12403 1
2 12404 65
2 12405 7
2 12406 496
2 12407 6
2 12408 6
2 12409 115
2 12410 63
2 12411 6
2 12412 984
2 12413 72
2 12414 26
2 12415 48
2 12416 95
2 12417 88
2 12418 36
2 12419 14
2 12420 4
2 12421 8
2 12422 4
2 12423 63
2 12424 79
2 12425 5
2 12426 1
2 12427 3
2 12428 52
2 12429 3
2 12430 47
2 12431 3
2 12432 75
2 12433 747
2 12434 40
2 12435 16
2 12436 2
2 12437 3
2 12438 63
2 12439 23
2 12440 23
2 12441 10
2 12442 217
2 12443 24
2 12444 97
2 12445 19
2 12446 3
2 12447 74
2 12448 5
2 12449 2
2 12450 50
2 12452 2
2 12453 62
2 12454 5
2 12455 14
2 12456 19
2 12457 55
2 12458 17
2 12459 7
2 12460 13
2 12461 1
2 12462 3
2 12463 4
2 12464 74
2 12465 5
2 12466 4
2 12467 3
2 12468 34
2 12469 11
2 12470 4
2 12471 6
2 12472 111
2 12473 40
2 12474 1
2 12475 3
2 12476 23
2 12477 52
2 12478 3
2 12479 52
2 12480 36
2 12481 55
2 12482 8
2 12483 38
2 12484 52
2 12485 4
2 12486 81
2 12487 3
2 12488 4
2 12489 299
2 12490 29
2 12491 79
2 12492 4
2 12493 5
2 12494 95
2 12495 3
2 12496 56
2 12497 29
2 12498 81
2 12499 4
2 12500 76
2 12501 76
2 12502 7
2 12503 67
2 12504 56
2 12505 5
2 12506 9
2 12507 76
2 12508 6
2 12509 32
2 12510 33
2 12511 74
2 12512 43
2 12513 99
2 12514 5
2 12515 22
2 12516 1
2 12517 835
2 12518 31
2 12519 3
2 12520 2
2 12521 3
2 12522 82
2 12523 446
2 12524 3
2 12525 43
2 12526 6
2 12527 819
2 12528 13
2 12529 5
2 12530 1
2 12531 3
2 12532 4
2 12533 2
2 12534 79
2 12535 40
2 12536 22
2 12537 2
2 12538 56
2 12539 1
2 12540 188
2 12541 28
2 12542 2
2 12543 4
2 12544 206
2 12545 21
2 12546 6
2 12547 70
2 12548 50
2 12549 10
2 12550 36
2 12551 52
2 12552 55
2 12553 45
2 12554 4
2 12555 4
2 12556 19
2 12557 110
2 12558 13
2 12559 10
2 12560 23
2 12561 32
2 12562 3
2 12563 1
2 12564 67
2 12566 3
2 12567 3
2 12568 110
2 12569 2
2 12570 343
2 12571 20
2 12572 39
2 12573 2
2 12574 236
2 12575 2
2 12576 4
2 12577 71
2 12578 56
2 12579 58
2 12580 4
2 12581 72
2 12582 106
2 12583 119
2 12584 7
2 12585 10
2 12586 2
2 12587 20
2 12588 3
2 12589 2
2 12590 3
2 12591 5
2 12592 2
2 12593 175
2 12594 5
2 12595 84
2 12596 49
2 12597 47
2 12598 37
2 12599 5
2 12600 2
2 12601 87
2 12602 1
2 12603 4
2 12605 1118
2 12606 4
2 12607 2
2 12608 1
2 12609 51
2 12610 172
2 12611 46
2 12612 2
2 12613 33
2 12614 3
2 12615 5
2 12616 50
2 12617 121
2 12618 47
2 12619 66
2 12620 4
2 12621 48
2 12622 17
2 12623 3
2 12624 27
2 12625 30
2 12626 1
2 12627 4
2 12628 13
2 12629 5
2 12630 754
2 12631 2
2 12632 67
2 12633 2
2 12634 89
2 12635 22
2 12636 3
2 12637 672
2 12638 3
2 12639 6
2 12640 4
2 12641 6
2 12642 68
2 12643 4
2 12645 3
2 12646 151
2 12647 134
2 12648 3
2 12649 86
2 12650 27
2 12651 4
2 12652 470
2 12653 109
2 12654 13
2 12655 367
2 12656 4
2 12657 64
2 12658 83
2 12659 283
2 12660 66
2 12661 48
2 12662 4
2 12663 69
2 12664 9
2 12665 7
2 12666 156
2 12667 6
2 12668 3
2 12669 39
2 12670 36
2 12671 2
2 12672 3
2 12673 70
2 12674 54
2 12675 55
2 12676 64
2 12677 38
2 12678 80
2 12679 42
2 12680 57
2 12681 3
2 12682 2
2 12683 5
2 12684 44
2 12685 1
2 12686 6
2 12687 51
2 12689 2
2 12690 5
2 12691 26
2 12692 47
2 12693 57
2 12694 90
2 12695 6
2 12696 96
2 12697 81
2 12698 4
2 12699 54
2 12700 984
2 12701 4
2 12702 49
2 12703 14
2 12704 23
2 12705 14
2 12706 1
2 12707 30
2 12708 3
2 12709 49
2 12710 2
2 12711 1
2 12712 4
2 12713 5
2 12714 3
2 12715 2
2 12716 129
2 12717 139
2 12718 9
2 12719 3
2 12720 35
2 12721 5
2 12722 16
2 12723 3
2 12724 20
2 12725 6
2 12726 125
2 12727 2
2 12728 16
2 12729 5
2 12730 1055
2 12731 40
2 12732 4
2 12733 2
2 12734 56
2 12735 5
2 12736 6
2 12737 72
2 12738 40
2 12739 124
2 12740 53
2 12741 73
2 12742 6
2 12743 2
2 12744 47
2 12745 5
2 12746 8
2 12747 45
2 12748 118
2 12749 69
2 12750 3
2 12751 12
2 12752 51
2 12753 34
2 12754 2
2 12755 37
2 12756 3
2 12757 91
2 12758 3
2 12759 9
2 12760 64
2 12761 4
2 12762 4
2 12763 108
2 12764 84
2 12765 4
2 12766 3
2 12767 4
2 12768 5
2 12769 4
2 12770 143
2 12771 7
2 12772 42
2 12773 5
2 12774 2
2 12775 6
2 12776 6
2 12777 11
2 12778 2
2 12779 2
2 12780 6
2 12781 3
2 12782 50
2 12783 7
2 12784 49
2 12785 2
2 12786 1
2 12787 37
2 12788 10
2 12789 3
2 12790 25
2 12791 61
2 12792 6
2 12793 102
2 12794 4
2 12795 4
2 12796 67
2 12797 68
2 12798 2
2 12799 30
2 12800 4
2 12801 175
2 12802 24
2 12803 4
2 12804 3
2 12805 4
2 12806 2
2 12807 9
2 12808 40
2 12809 847
2 12810 12
2 12811 84
2 12812 1
2 12813 343
2 12814 5
2 12815 44
2 12816 5
2 12817 4
2 12818 2
2 12819 121
2 12820 70
2 12821 5
2 12822 42
2 12823 5
2 12824 37
2 12825 77
2 12826 1
2 12827 9
2 12828 26
2 12829 134
2 12830 28
2 12831 3
2 12832 4
2 12833 78
2 12834 26
2 12835 6
2 12836 70
2 12837 88
2 12838 1
2 12839 258
2 12840 38
2 12841 922
2 12842 5
2 12843 66
2 12844 7
2 12845 9
2 12846 1224
2 12847 696
2 12848 81
2 12849 60
2 12850 3
2 12851 948
2 12852 22
2 12853 355
2 12854 16
2 12855 1034
2 12856 21
2 12857 29
2 12858 15
2 12859 19
2 12860 6
2 12861 6
2 12862 3
2 12863 5
2 12864 3
2 12865 114
2 12866 91
2 12867 2
2 12868 103
2 12869 4
2 12870 6
2 12871 2
2 12872 118
2 12873 10
2 12874 58
2 12875 6
2 12876 77
2 12877 53
2 12878 3
2 12879 4
2 12880 66
2 12881 20
2 12883 61
2 12884 2
2 12885 2
2 12886 8
2 12887 16
2 12888 2
2 12889 59
2 12890 7
2 12891 630
2 12892 87
2 12893 59
2 12894 2
2 12895 4
2 12896 56
2 12897 11
2 12898 3
2 12899 38
2 12900 43
2 12901 74
2 12902 54
2 12903 10
2 12904 137
2 12905 54
2 12906 16
2 12907 1
2 12908 4
2 12909 68
2 12910 75
2 12911 4
2 12912 478
2 12913 81
2 12914 814
2 12915 4
2 12916 6
2 12917 81
2 12918 4
2 12919 2
2 12920 7
2 12921 102
2 12922 2
2 12923 1
2 12924 6
2 12925 10
2 12926 2
2 12927 133
2 12928 43
2 12929 19
2 12930 121
2 12931 9
2 12932 1
2 12933 4
2 12934 10
2 12935 23
2 12936 9
2 12937 79
2 12938 70
2 12939 5
2 12940 98
2 12941 72
2 12942 82
2 12943 5
2 12944 117
2 12945 48
2 12946 4
2 12947 11
2 12948 6
2 12949 1
2 12950 7
2 12951 57
2 12952 87
2 12953 4
2 12954 10
2 12955 7
2 12956 3
2 12957 7
2 12958 119
2 12959 147
2 12960 89
2 12961 62
2 12962 19
2 12963 114
2 12964 4
2 12965 31
2 12966 60
2 12967 18
2 12968 73
2 12969 4
2 12970 69
2 12971 1
2 12972 42
2 12973 18
2 12974 59
2 12975 2
2 12976 6
2 12977 5
2 12978 2
2 12979 39
2 12980 61
2 12981 45
2 12982 93
2 12983 2
2 12984 2
2 12985 8
2 12986 145
2 12987 4
2 12988 255
2 12989 46
2 12990 6
2 12991 8
2 12992 7
2 12993 88
2 12994 5
2 12995 1
2 12996 986
2 12997 43
2 12998 11
2 12999 909
2 13000 87
2 13001 141
2 13002 69
2 13003 101
2 13004 55
2 13005 56
2 13006 6
2 13007 82
2 13008 54
2 13009 28
2 13010 87
2 13011 55
2 13012 42
2 13013 68
2 13014 111
2 13015 5
2 13016 11
2 13017 88
2 13018 2
2 13019 65
2 13020 205
2 13022 5
2 13023 110
2 13024 94
2 13025 3
2 13026 92
2 13027 39
2 13028 4
2 13029 4
2 13030 64
2 13031 6
2 13032 7
2 13033 36
2 13034 1121
2 13035 67
2 13036 82
2 13037 2
2 13038 117
2 13039 75
2 13040 78
2 13041 79
2 13042 5
2 13043 119
2 13044 18
2 13045 3
2 13046 63
2 13047 1
2 13048 73
2 13049 140
2 13050 58
2 13051 4
2 13052 66
2 13053 4
2 13054 2
2 13055 2
2 13056 2
2 13057 1
2 13058 29
2 13059 34
2 13060 3
2 13061 5
2 13062 76
2 13063 3
2 13064 2
2 13065 17
2 13066 91
2 13067 2
2 13068 59
2 13069 6
2 13070 3
2 13071 160
2 13072 4
2 13073 22
2 13074 60
2 13075 8
2 13076 79
2 13077 56
2 13078 53
2 13079 4
2 13080 2
2 13081 4
2 13082 2
2 13083 4
2 13084 3
2 13085 20
2 13086 4
2 13087 1
2 13088 3
2 13089 3
2 13090 99
2 13091 2
2 13092 24
2 13093 4
2 13094 8
2 13095 31
2 13096 1185
2 13097 7
2 13098 20
2 13099 3
2 13100 37
2 13101 83
2 13102 2
2 13103 6
2 13104 2
2 13105 3
2 13106 6
2 13107 3
2 13108 49
2 13109 50
2 13110 97
2 13111 17
2 13112 4
2 13113 151
2 13114 5
2 13115 3
2 13116 1
2 13117 79
2 13118 56
2 13119 55
2 13120 1
2 13121 6
2 13122 47
2 13123 2
2 13125 1085
2 13126 1
2 13127 5
2 13128 3
2 13129 3
2 13130 274
2 13131 19
2 13132 3
2 13133 2
2 13134 6
2 13135 97
2 13136 43
2 13137 112
2 13138 48
2 13139 4
2 13140 3
2 13141 60
2 13143 3
2 13144 87
2 13145 4
2 13146 64
2 13147 72
2 13148 79
2 13149 5
2 13150 170
2 13151 53
2 13152 1
2 13153 3
2 13154 46
2 13155 44
2 13156 3
2 13157 5
2 13158 56
2 13159 6
2 13160 19
2 13161 39
2 13162 7
2 13163 102
2 13164 51
2 13165 35
2 13166 72
2 13167 38
2 13168 7
2 13169 1
2 13170 27
2 13171 3
2 13172 57
2 13173 32
2 13174 17
2 13175 29
2 13176 95
2 13177 34
2 13178 101
2 13179 82
2 13180 39
2 13181 35
2 13182 26
2 13183 57
2 13184 2
2 13185 1
2 13186 5
2 13187 1096
2 13188 11
2 13189 3
2 13190 4
2 13191 1
2 13192 3
2 13193 63
2 13194 34
2 13195 54
2 13196 3
2 13197 7
2 13198 43
2 13199 6
2 13200 69
2 13201 3
2 13202 60
2 13203 68
2 13204 52
2 13205 3
2 13206 39
2 13207 4
2 13208 48
2 13209 10
2 13210 72
2 13211 2
2 13212 76
2 13213 265
2 13214 90
2 13215 31
2 13216 43
2 13217 5
2 13218 35
2 13219 56
2 13220 47
2 13221 61
2 13222 3
2 13223 34
2 13224 40
2 13225 6
2 13226 91
2 13227 28
2 13228 39
2 13229 58
2 13230 49
2 13231 54
2 13232 1170
2 13233 33
2 13234 6
2 13235 168
2 13236 42
2 13237 154
2 13238 6
2 13239 49
2 13240 4
2 13241 93
2 13242 4
2 13243 5
2 13244 3
2 13245 1273
2 13246 4
2 13247 5
2 13248 2
2 13249 74
2 13250 4
2 13251 5
2 13252 3
2 13253 4
2 13254 3
2 13255 66
2 13256 5
2 13257 4
2 13259 4
2 13260 2
2 13261 1
2 13262 4
2 13263 2
2 13264 55
2 13265 786
2 13266 41
2 13267 20
2 13268 41
2 13269 7
2 13270 61
2 13271 4
2 13272 43
2 13273 4
2 13274 3
2 13275 4
2 13276 6
2 13277 56
2 13278 11
2 13279 2
2 13280 32
2 13281 69
2 13282 605
2 13283 5
2 13284 101
2 13285 7
2 13286 53
2 13287 60
2 13288 5
2 13289 2
2 13290 8
2 13291 34
2 13292 36
2 13293 3
2 13294 4
2 13295 3
2 13296 59
2 13297 9
2 13298 2
2 13299 4
2 13300 27
2 13301 2
2 13302 3
2 13303 9
2 13304 40
2 13305 45
2 13306 3
2 13307 21
2 13308 2
2 13309 83
2 13311 51
2 13312 8
2 13313 2
2 13314 3
2 13315 996
2 13316 2
2 13317 99
2 13318 25
2 13319 2
2 13320 52
2 13321 105
2 13322 4
2 13323 24
2 13324 36
2 13325 36
2 13326 33
2 13328 48
2 13329 231
2 13330 31
2 13331 1
2 13332 1
2 13333 1
2 13334 134
2 13335 25
2 13336 55
2 13337 4
2 13338 4
2 13339 74
2 13340 2
2 13341 3
2 13342 48
2 13343 3
2 13344 115
2 13345 18
2 13346 5
2 13347 167
2 13348 2
2 13349 57
2 13350 7
2 13351 52
2 13352 24
2 13353 72
2 13354 627
2 13355 9
2 13356 5
2 13357 134
2 13358 2
2 13359 1
2 13360 6
2 13361 3
2 13362 631
2 13363 5
2 13364 58
2 13365 3
2 13366 4
2 13367 6
2 13368 20
2 13369 4
2 13370 65
2 13371 45
2 13372 1
2 13373 34
2 13374 36
2 13376 34
2 13377 4
2 13378 5
2 13379 3
2 13380 13
2 13381 20
2 13382 2
2 13383 62
2 13384 8
2 13385 2
2 13386 2
2 13387 67
2 13388 21
2 13389 104
2 13390 514
2 13391 2
2 13392 2
2 13393 21
2 13394 29
2 13395 5
2 13396 61
2 13397 7
2 13398 65
2 13399 2
2 13400 5
2 13401 31
2 13402 69
2 13403 12
2 13404 1
2 13405 22
2 13406 48
2 13407 4
2 13408 5
2 13409 3
2 13410 511
2 13412 1333
2 13413 3
2 13414 49
2 13415 54
2 13416 2
2 13417 982
2 13418 23
2 13419 7
2 13420 60
2 13421 19
2 13422 4
2 13423 2
2 13424 513
2 13425 151
2 13426 53
2 13427 10
2 13428 7
2 13429 112
2 13431 123
2 13432 29
2 13433 6
2 13434 105
2 13435 29
2 13436 3
2 13437 62
2 13438 4
2 13439 3
2 13440 25
2 13441 3
2 13442 8
2 13443 23
2 13444 4
2 13445 3
2 13446 2
2 13447 73
2 13448 24
2 13449 123
2 13450 2
2 13451 3
2 13452 36
2 13453 78
2 13454 285
2 13455 1202
2 13456 4
2 13457 72
2 13458 6
2 13459 52
2 13460 8
2 13461 5
2 13462 178
2 13463 3
2 13464 3
2 13465 4
2 13466 42
2 13467 8
2 13468 19
2 13469 101
2 13470 52
2 13471 40
2 13472 97
2 13473 66
2 13474 66
2 13475 4
2 13476 2
2 13477 76
2 13479 89
2 13480 45
2 13481 80
2 13482 32
2 13483 36
2 13484 63
2 13485 5
2 13487 40
2 13488 2
2 13490 6
2 13491 11
2 13492 53
2 13493 10
2 13494 19
2 13495 15
2 13496 7
2 13497 10
2 13498 41
2 13499 2
2 13500 7
2 13501 55
2 13502 3
2 13503 102
2 13504 945
2 13505 95
2 13507 4
2 13508 5
2 13509 1
2 13510 4
2 13511 77
2 13512 8
2 13513 56
2 13514 1
2 13515 84
2 13516 79
2 13517 31
2 13518 92
2 13519 46
2 13520 126
2 13521 59
2 13522 32
2 13523 52
2 13524 53
2 13525 65
2 13526 55
2 13527 49
2 13528 1
2 13529 65
2 13530 4
2 13531 53
2 13532 133
2 13533 7
2 13534 32
2 13535 3
2 13536 33
2 13537 5
2 13538 2
2 13539 78
2 13540 98
2 13541 19
2 13542 33
2 13543 61
2 13544 16
2 13545 12
2 13546 4
2 13547 7
2 13548 61
2 13549 7
2 13550 37
2 13551 1
2 13552 4
2 13553 74
2 13554 6
2 13555 5
2 13556 6
2 13557 117
2 13558 3
2 13559 25
2 13560 4
2 13561 33
2 13562 77
2 13563 4
2 13564 4
2 13565 3
2 13566 4
2 13567 106
2 13568 52
2 13569 2
2 13570 98
2 13571 99
2 13572 652
2 13573 5
2 13574 76
2 13575 121
2 13576 77
2 13577 1
2 13578 143
2 13579 2
2 13580 5
2 13581 74
2 13582 66
2 13583 43
2 13584 119
2 13585 1249
2 13586 74
2 13587 3
2 13588 38
2 13589 2
2 13590 7
2 13591 5
2 13592 1
2 13593 38
2 13594 41
2 13595 104
2 13596 84
2 13597 6
2 13598 4
2 13599 36
2 13600 45
2 13601 5
2 13602 3
2 13603 3
2 13604 88
2 13605 88
2 13606 4
2 13607 51
2 13608 29
2 13609 8
2 13610 39
2 13611 600
2 13612 72
2 13613 108
2 13614 85
2 13615 55
2 13616 1060
2 13617 5
2 13618 60
2 13619 3
2 13620 30
2 13621 3
2 13622 6
2 13623 2
2 13624 6
2 13625 77
2 13626 3
2 13627 2
2 13628 102
2 13629 2
2 13630 100
2 13632 4
2 13633 5
2 13634 9
2 13635 109
2 13636 88
2 13637 64
2 13638 73
2 13639 25
2 13640 78
2 13641 7
2 13642 4
2 13643 7
2 13644 46
2 13645 40
2 13646 49
2 13647 4
2 13648 106
2 13649 1
2 13650 40
2 13651 4
2 13652 54
2 13653 31
2 13654 40
2 13655 8
2 13656 43
2 13657 6
2 13658 4
2 13659 3
2 13660 701
2 13661 14
2 13662 4
2 13663 4
2 13664 224
2 13665 7
2 13666 136
2 13667 8
2 13668 78
2 13669 2
2 13670 8
2 13671 76
2 13672 5
2 13674 292
2 13675 3
2 13676 58
2 13677 5
2 13678 4
2 13679 1
2 13680 56
2 13681 6
2 13682 3
2 13683 7
2 13684 25
2 13685 36
2 13686 44
2 13687 27
2 13688 30
2 13689 5
2 13690 2
2 13691 102
2 13692 77
2 13693 376
2 13694 1
2 13695 129
2 13696 2
2 13697 134
2 13698 5
2 13699 22
2 13700 3
2 13701 94
2 13702 8
2 13703 28
2 13704 41
2 13705 76
2 13706 71
2 13707 97
2 13708 10
2 13709 69
2 13710 43
2 13711 61
2 13712 3
2 13713 980
2 13714 3
2 13715 2
2 13716 15
2 13717 7
2 13718 25
2 13719 46
2 13720 44
2 13721 1
2 13722 95
2 13723 785
2 13724 26
2 13725 6
2 13726 95
2 13727 3
2 13728 6
2 13729 10
2 13730 3
2 13731 35
2 13732 76
2 13733 47
2 13734 70
2 13735 2
2 13736 5
2 13737 149
2 13738 6
2 13739 415
2 13740 840
2 13741 937
2 13742 125
2 13743 36
2 13744 118
2 13745 1
2 13746 4
2 13747 61
2 13748 30
2 13749 3
2 13750 39
2 13751 27
2 13752 3
2 13753 50
2 13754 50
2 13755 72
2 13756 4
2 13757 56
2 13758 103
2 13759 157
2 13760 72
2 13761 4
2 13762 46
2 13763 6
2 13764 3
2 13765 77
2 13766 404
2 13767 846
2 13768 1163
2 13769 533
2 13770 6
2 13771 3
2 13772 57
2 13773 83
2 13774 3
2 13775 5
2 13776 3
2 13777 3
2 13778 4
2 13779 1
2 13780 15
2 13781 3
2 13782 5
2 13783 31
2 13784 5
2 13785 1
2 13786 3
2 13787 1
2 13788 25
2 13789 7
2 13790 2
2 13791 5
2 13792 41
2 13793 6
2 13794 24
2 13795 5
2 13796 38
2 13797 5
2 13798 42
2 13799 62
2 13800 6
2 13801 4
2 13802 38
2 13803 5
2 13804 2
2 13805 1
2 13806 4
2 13807 2
2 13808 4
2 13809 1
2 13810 17
2 13811 2
2 13812 5
2 13813 65
2 13814 3
2 13815 56
2 13816 37
2 13817 51
2 13818 108
2 13819 38
2 13820 116
2 13821 45
2 13822 50
2 13823 4
2 13824 3
2 13825 5
2 13826 49
2 13827 3
2 13828 7
2 13829 2
2 13830 6
2 13831 3
2 13832 13
2 13833 4
2 13834 6
2 13835 6
2 13836 1
2 13837 2
2 13838 4
2 13839 11
2 13840 24
2 13841 6
2 13842 675
2 13843 27
2 13844 15
2 13845 75
2 13846 20
2 13847 90
2 13848 7
2 13849 52
2 13850 85
2 13851 2
2 13852 3
2 13853 7
2 13854 61
2 13855 3
2 13856 49
2 13857 57
2 13858 99
2 13859 65
2 13860 122
2 13861 1
2 13862 51
2 13863 6
2 13864 3
2 13865 86
2 13866 3
2 13867 96
2 13868 5
2 13869 277
2 13870 48
2 13871 3
2 13872 38
2 13873 44
2 13874 6
2 13875 28
2 13876 52
2 13877 10
2 13878 34
2 13879 141
2 13880 89
2 13881 4
2 13882 41
2 13883 29
2 13884 9
2 13885 8
2 13886 2
2 13887 10
2 13888 6
2 13889 4
2 13890 9
2 13891 2
2 13892 978
2 13893 61
2 13894 4
2 13895 33
2 13896 6
2 13897 50
2 13898 4
2 13899 70
2 13900 23
2 13901 150
2 13903 75
2 13904 43
2 13905 83
2 13906 56
2 13907 6
2 13908 11
2 13909 30
2 13910 6
2 13911 7
2 13912 5
2 13914 41
2 13915 2
2 13916 66
2 13917 2
2 13918 59
2 13919 27
2 13920 4
2 13921 5
2 13922 37
2 13923 6
2 13924 36
2 13925 3
2 13926 35
2 13927 45
2 13928 4
2 13929 3
2 13930 101
2 13931 9
2 13932 53
2 13933 3
2 13934 93
2 13935 25
2 13936 117
2 13937 3
2 13938 63
2 13939 33
2 13940 139
2 13941 27
2 13942 2
2 13943 56
2 13944 3
2 13945 6
2 13946 48
2 13947 1
2 13948 40
2 13949 58
2 13950 46
2 13951 6
2 13952 6
2 13953 12
2 13954 8
2 13955 54
2 13956 72
2 13957 26
2 13958 7
2 13959 147
2 13960 67
2 13961 57
2 13962 49
2 13963 3
2 13964 46
2 13965 5
2 13966 7
2 13967 122
2 13968 75
2 13969 77
2 13970 113
2 13971 59
2 13972 27
2 13973 5
2 13974 2
2 13975 70
2 13976 45
2 13977 6
2 13978 3
2 13979 3
2 13980 8
2 13981 1
2 13982 19
2 13983 24
2 13984 12
2 13985 1
2 13986 2
2 13987 69
2 13988 2
2 13989 30
2 13990 4
2 13991 7
2 13992 77
2 13993 70
2 13994 70
2 13995 86
2 13996 4
2 13997 57
2 13998 4
2 13999 2
2 14000 65
2 14001 3
2 14002 2
2 14003 132
2 14004 23
2 14005 84
2 14006 37
2 14007 64
2 14008 3
2 14009 1251
2 14010 8
2 14011 382
2 14012 54
2 14013 5
2 14014 2
2 14015 28
2 14016 51
2 14017 2
2 14018 80
2 14019 7
2 14020 35
2 14021 56
2 14022 14
2 14023 131
2 14024 4
2 14025 5
2 14026 187
2 14027 8
2 14028 21
2 14029 26
2 14030 1098
2 14031 4
2 14032 73
2 14033 94
2 14034 33
2 14035 53
2 14036 6
2 14037 27
2 14038 6
2 14039 4
2 14040 119
2 14041 2
2 14042 6
2 14043 9
2 14044 3
2 14045 11
2 14047 98
2 14048 34
2 14049 30
2 14050 2
2 14051 7
2 14052 4
2 14053 8
2 14054 956
2 14055 42
2 14056 2
2 14057 38
2 14058 4
2 14059 98
2 14060 1
2 14061 11
2 14062 3
2 14063 58
2 14064 40
2 14065 4
2 14066 65
2 14067 12
2 14068 40
2 14069 26
2 14070 73
2 14071 59
2 14072 77
2 14073 5
2 14074 84
2 14075 4
2 14076 17
2 14077 45
2 14078 6
2 14079 40
2 14080 6
2 14081 53
2 14082 574
2 14083 76
2 14084 50
2 14085 83
2 14086 19
2 14087 115
2 14088 37
2 14089 2
2 14090 92
2 14091 82
2 14092 97
2 14093 4
2 14094 12
2 14095 4
2 14096 7
2 14097 3
2 14098 6
2 14099 5
2 14100 1154
2 14101 54
2 14102 33
2 14103 16
2 14104 3
2 14105 3
2 14106 7
2 14107 121
2 14108 589
2 14109 6
2 14110 120
2 14111 86
2 14112 106
2 14113 57
2 14114 6
2 14115 27
2 14116 20
2 14117 21
2 14118 25
2 14119 3
2 14120 4
2 14121 2
2 14122 53
2 14123 36
2 14124 93
2 14125 514
2 14126 4
2 14127 20
2 14128 114
2 14129 11
2 14130 3
2 14131 1031
2 14132 38
2 14133 6
2 14134 36
2 14135 1192
2 14136 3
2 14137 73
2 14138 6
2 14139 5
2 14140 29
2 14141 31
2 14142 32
2 14143 3
2 14144 10
2 14145 10
2 14146 7
2 14147 2
2 14148 7
2 14149 3
2 14150 85
2 14151 1
2 14152 54
2 14153 16
2 14154 43
2 14155 2
2 14156 11
2 14157 64
2 14158 2
2 14159 66
2 14160 32
2 14161 107
2 14162 4
2 14163 2
2 14164 8
2 14165 24
2 14166 94
2 14167 6
2 14168 6
2 14169 78
2 14170 3
2 14171 3
2 14172 66
2 14173 4
2 14174 41
2 14175 1
2 14176 46
2 14177 99
2 14178 97
2 14179 10
2 14180 2
2 14181 78
2 14182 9
2 14183 5
2 14184 5
2 14185 31
2 14186 9
2 14187 5
2 14188 30
2 14189 33
2 14190 5
2 14191 4
2 14192 100
2 14194 31
2 14195 76
2 14196 2
2 14197 73
2 14198 14
2 14199 2
2 14200 4
2 14201 6
2 14202 65
2 14203 5
2 14204 4
2 14205 26
2 14206 4
2 14207 17
2 14208 8
2 14209 42
2 14211 29
2 14212 20
2 14213 8
2 14214 33
2 14215 42
2 14216 57
2 14217 88
2 14218 1
2 14219 63
2 14220 5
2 14221 2
2 14222 45
2 14223 2
2 14224 23
2 14225 10
2 14226 58
2 14227 2
2 14228 51
2 14229 3
2 14230 76
2 14231 86
2 14232 3
2 14233 2
2 14234 3
2 14235 4
2 14236 3
2 14237 43
2 14238 7
2 14239 335
2 14240 2
2 14241 47
2 14242 23
2 14243 54
2 14244 784
2 14245 7
2 14246 5
2 14247 5
2 14248 21
2 14249 3
2 14250 45
2 14251 1
2 14252 4
2 14253 79
2 14254 94
2 14255 71
2 14256 65
2 14257 31
2 14258 100
2 14259 1137
2 14260 80
2 14261 2
2 14262 10
2 14263 64
2 14264 2
2 14265 29
2 14266 4
2 14268 44
2 14269 81
2 14270 2
2 14271 89
2 14272 48
2 14273 61
2 14274 78
2 14275 86
2 14276 51
2 14277 1221
2 14278 56
2 14279 56
2 14280 47
2 14281 58
2 14282 1
2 14283 6
2 14284 1
2 14285 130
2 14286 85
2 14287 5
2 14288 6
2 14289 48
2 14290 80
2 14291 4
2 14292 755
2 14293 45
2 14294 5
2 14295 8
2 14296 58
2 14297 10
2 14298 2
2 14299 5
2 14300 1
2 14301 63
2 14302 58
2 14303 11
2 14304 5
2 14305 44
2 14306 3
2 14307 5
2 14308 29
2 14309 2
2 14310 142
2 14311 6
2 14312 35
2 14313 6
2 14314 8
2 14315 3
2 14316 6
2 14317 4
2 14318 1
2 14319 6
2 14320 73
2 14321 4
2 14322 97
2 14323 61
2 14324 6
2 14325 96
2 14326 80
2 14327 34
2 14328 73
2 14329 35
2 14330 97
2 14331 1
2 14332 31
2 14333 2
2 14334 83
2 14335 1
2 14337 2
2 14338 3
2 14339 3
2 14340 5
2 14341 30
2 14342 1
2 14343 5
2 14344 44
2 14345 82
2 14346 31
2 14347 1
2 14348 4
2 14349 4
2 14350 1
2 14351 36
2 14352 1
2 14353 61
2 14354 28
2 14355 3
2 14356 3
2 14357 735
2 14358 6
2 14359 38
2 14360 3
2 14361 66
2 14362 3
2 14363 3
2 14364 3
2 14365 34
2 14366 5
2 14367 69
2 14368 1
2 14369 6
2 14370 80
2 14371 246
2 14372 5
2 14373 5
2 14374 3
2 14375 3
2 14376 32
2 14377 5
2 14378 2
2 14379 38
2 14380 7
2 14381 3
2 14382 85
2 14383 43
2 14384 6
2 14385 73
2 14386 5
2 14387 2
2 14388 1
2 14389 96
2 14390 39
2 14391 51
2 14392 68
2 14393 38
2 14394 6
2 14395 28
2 14396 37
2 14397 4
2 14398 4
2 14399 80
2 14400 50
2 14401 33
2 14402 44
2 14403 36
2 14404 6
2 14405 50
2 14406 7
2 14408 7
2 14409 5
2 14410 87
2 14411 22
2 14412 48
2 14413 87
2 14414 3
2 14415 75
2 14416 75
2 14417 2
2 14418 1
2 14419 83
2 14420 15
2 14421 2
2 14422 528
2 14423 7
2 14424 23
2 14425 22
2 14426 2
2 14427 9
2 14428 22
2 14429 29
2 14430 3
2 14431 50
2 14433 28
2 14434 66
2 14435 65
2 14436 2
2 14437 5
2 14438 44
2 14439 2
2 14440 3
2 14441 118
2 14442 91
2 14443 1
2 14444 48
2 14445 5
2 14446 55
2 14447 9
2 14448 522
2 14449 20
2 14450 57
2 14451 37
2 14453 3
2 14454 5
2 14455 3
2 14456 6
2 14457 3
2 14458 38
2 14459 6
2 14460 43
2 14461 12
2 14462 3
2 14463 27
2 14464 2
2 14465 67
2 14466 50
2 14467 31
2 14468 121
2 14469 75
2 14470 61
2 14471 5
2 14472 2
2 14473 7
2 14474 4
2 14475 3
2 14476 80
2 14477 35
2 14478 672
2 14479 918
2 14480 3
2 14481 63
2 14482 52
2 14483 39
2 14484 20
2 14485 2
2 14486 2
2 14487 70
2 14488 12
2 14489 2
2 14490 87
2 14491 5
2 14492 3
2 14493 68
2 14494 41
2 14495 2
2 14496 5
2 14497 4
2 14498 105
2 14499 79
2 14500 41
2 14501 13
2 14502 4
2 14503 60
2 14504 13
2 14505 4
2 14506 5
2 14507 1
2 14508 33
2 14509 80
2 14510 3
2 14511 1231
2 14512 3
2 14513 2
2 14514 101
2 14515 3
2 14516 24
2 14517 2
2 14518 4
2 14519 3
2 14520 58
2 14521 24
2 14522 25
2 14523 5
2 14524 3
2 14525 26
2 14526 58
2 14527 5
2 14528 83
2 14529 141
2 14530 37
2 14531 5
2 14532 2
2 14533 43
2 14534 33
2 14535 2
2 14536 4
2 14537 3
2 14538 13
2 14539 4
2 14540 1100
2 14541 58
2 14542 51
2 14543 8
2 14544 45
2 14545 4
2 14546 44
2 14547 7
2 14548 48
2 14549 44
2 14550 4
2 14551 3
2 14552 45
2 14553 67
2 14554 32
2 14555 79
2 14556 57
2 14557 114
2 14558 2
2 14559 56
2 14560 53
2 14561 7
2 14562 95
2 14563 49
2 14564 2
2 14565 2
2 14566 42
2 14567 99
2 14568 368
2 14569 7
2 14570 3
2 14571 94
2 14572 6
2 14573 607
2 14574 61
2 14575 27
2 14576 6
2 14577 54
2 14578 7
2 14579 25
2 14580 53
2 14581 67
2 14582 24
2 14583 7
2 14584 24
2 14585 4
2 14586 2
2 14587 3
2 14588 1083
2 14589 79
2 14590 1248
2 14591 76
2 14592 1
2 14593 4
2 14594 97
2 14595 621
2 14596 41
2 14597 1
2 14598 142
2 14599 45
2 14600 60
2 14601 52
2 14602 35
2 14603 37
2 14604 48
2 14605 64
2 14606 36
2 14607 4
2 14608 5
2 14609 26
2 14610 1
2 14611 52
2 14612 4
2 14613 4
2 14614 1
2 14615 23
2 14616 2
2 14617 2
2 14618 4
2 14619 84
2 14620 12
2 14621 6
2 14622 2
2 14623 32
2 14624 6
2 14625 2
2 14626 4
2 14627 30
2 14628 45
2 14629 33
2 14630 3
2 14631 58
2 14632 55
2 14633 6
2 14634 53
2 14635 84
2 14636 57
2 14637 40
2 14638 43
2 14639 48
2 14640 2
2 14641 20
2 14642 1
2 14643 47
2 14644 647
2 14645 84
2 14646 72
2 14647 58
2 14648 31
2 14649 63
2 14650 1
2 14651 1
2 14652 5
2 14653 38
2 14654 73
2 14655 1
2 14656 1120
2 14658 4
2 14659 3
2 14660 4
2 14661 1
2 14662 94
2 14663 1
2 14664 67
2 14665 121
2 14666 73
2 14667 6
2 14668 43
2 14669 6
2 14670 100
2 14671 59
2 14672 3
2 14673 3
2 14674 3
2 14675 5
2 14676 12
2 14677 3
2 14678 2
2 14679 12
2 14680 1
2 14681 71
2 14682 2
2 14683 133
2 14684 10
2 14685 49
2 14686 79
2 14687 1
2 14688 5
2 14689 97
2 14690 81
2 14691 1
2 14692 8
2 14693 5
2 14694 5
2 14695 2
2 14696 90
2 14697 7
2 14698 54
2 14699 49
2 14700 10
2 14701 1
2 14702 6
2 14703 46
2 14704 25
2 14705 77
2 14706 56
2 14707 94
2 14708 3
2 14709 2
2 14710 2
2 14711 34
2 14713 63
2 14714 4
2 14716 2
2 14717 68
2 14718 95
2 14719 1
2 14720 64
2 14721 4
2 14722 2
2 14723 1
2 14724 4
2 14725 2
2 14726 79
2 14727 35
2 14728 3
2 14729 5
2 14730 3
2 14731 68
2 14732 5
2 14733 80
2 14734 51
2 14735 79
2 14736 42
2 14737 1
2 14738 4
2 14739 3
2 14740 5
2 14741 65
2 14742 47
2 14743 74
2 14744 26
2 14746 1
2 14747 3
2 14748 2
2 14749 6
2 14750 44
2 14751 1160
2 14752 102
2 14753 3
2 14754 4
2 14755 2
2 14756 1
2 14757 5
2 14758 4
2 14759 1006
2 14760 4
2 14761 68
2 14762 4
2 14763 130
2 14764 52
2 14765 10
2 14766 105
2 14767 34
2 14768 162
2 14769 2
2 14770 5
2 14771 5
2 14772 66
3 1 53
3 2 33
3 3 63
3 4 15
3 5 10
3 6 11
3 7 35
3 8 13
3 9 82
3 10 62
3 11 6
3 12 15
3 13 123
3 14 12
3 15 27
3 16 8
3 17 6
3 18 10
3 19 12
3 20 7
3 21 12
3 22 5
3 23 81
3 24 25
3 25 26
3 26 13
3 27 13
3 28 21
3 29 18
3 30 13
3 31 80
3 32 13
3 33 11
3 34 9
3 35 45
3 36 7
3 37 4
3 38 9
3 39 7
3 40 12
3 41 7
3 42 74
3 43 6
3 44 38
3 45 7
3 46 69
3 47 11
3 48 28
3 49 33
3 50 100
3 51 7
3 52 16
3 53 14
3 54 8
3 55 14
3 56 6
3 57 26
3 58 5
3 59 66
3 60 36
3 61 56
3 62 8
3 63 25
3 64 8
3 65 15
3 66 16
3 67 15
3 68 8
3 69 17
3 70 18
3 71 5
3 72 26
3 73 13
3 74 13
3 75 4
3 76 4
3 77 18
3 78 44
3 79 21
3 80 12
3 81 80
3 82 33
3 83 198
3 84 8
3 85 12
3 86 90
3 87 37
3 88 11
3 89 124
3 90 10
3 91 7
3 92 11
3 93 10
3 94 167
3 95 33
3 96 12
3 97 13
3 98 114
3 99 11
3 100 16
3 101 10
3 102 10
3 103 9
3 104 32
3 105 5
3 106 14
3 107 5
3 108 14
3 109 15
3 110 10
3 111 21
3 112 3
3 113 10
3 114 10
3 115 12
3 116 9
3 117 13
3 118 16
3 119 9
3 120 74
3 121 38
3 122 11
3 123 11
3 124 15
3 125 17
3 126 11
3 127 13
3 128 27
3 129 10
3 130 7
3 131 35
3 132 11
3 133 19
3 134 12
3 135 8
3 136 16
3 137 8
3 138 57
3 139 73
3 140 20
3 141 8
3 142 7
3 143 5
3 144 5
3 145 18
3 146 14
3 147 11
3 148 45
3 149 13
3 150 3
3 151 10
3 152 13
3 153 15
3 154 3
3 155 9
3 156 6
3 157 11
3 158 42
3 159 12
3 160 9
3 161 90
3 162 7
3 163 10
3 164 9
3 165 62
3 166 12
3 167 73
3 168 8
3 169 13
3 170 21
3 171 152
3 172 8
3 173 52
3 174 8
3 175 32
3 176 10
3 177 41
3 178 21
3 179 10
3 180 50
3 181 54
3 182 17
3 183 2
3 184 12
3 185 157
3 186 9
3 187 8
3 188 16
3 189 48
3 190 36
3 191 9
3 192 11
3 193 14
3 194 66
3 195 15
3 196 15
3 197 12
3 198 7
3 199 9
3 200 24
3 201 31
3 202 10
3 203 21
3 204 22
3 205 17
3 206 9
3 207 16
3 208 12
3 209 11
3 210 11
3 211 10
3 212 7
3 213 15
3 214 31
3 215 12
3 216 42
3 217 8
3 218 38
3 219 18
3 220 272
3 221 20
3 222 103
3 223 15
3 224 6
3 225 23
3 226 15
3 227 5
3 228 7
3 229 1241
3 230 33
3 231 65
3 232 85
3 233 4
3 234 100
3 235 11
3 236 12
3 237 20
3 238 7
3 239 48
3 240 23
3 241 109
3 242 10
3 243 50
3 244 11
3 245 12
3 246 5
3 247 10
3 248 298
3 249 10
3 250 7
3 251 9
3 252 13
3 253 13
3 254 17
3 255 13
3 256 1053
3 257 36
3 258 11
3 259 17
3 260 6
3 261 15
3 262 41
3 263 3
3 264 9
3 265 4
3 266 68
3 267 19
3 268 8
3 269 8
3 270 29
3 271 14
3 272 8
3 273 8
3 274 10
3 275 41
3 276 15
3 277 35
3 278 5
3 279 10
3 280 4
3 281 10
3 282 8
3 283 61
3 284 7
3 285 17
3 286 17
3 287 13
3 288 1
3 289 15
3 290 10
3 291 11
3 292 58
3 293 17
3 294 19
3 295 101
3 296 99
3 297 11
3 298 18
3 299 6
3 300 15
3 301 10
3 302 9
3 303 3
3 304 10
3 305 29
3 306 14
3 307 7
3 308 6
3 309 20
3 310 54
3 311 37
3 312 44
3 313 71
3 314 66
3 315 10
3 316 9
3 317 18
3 318 201
3 319 567
3 320 6
3 321 8
3 322 8
3 323 22
3 324 37
3 325 6
3 326 37
3 327 37
3 328 75
3 329 13
3 330 19
3 331 10
3 332 4
3 333 15
3 334 66
3 335 70
3 336 17
3 337 4
3 338 10
3 339 24
3 340 40
3 341 20
3 342 16
3 343 80
3 344 45
3 345 25
3 346 11
3 347 11
3 348 47
3 349 24
3 350 35
3 351 22
3 352 8
3 353 14
3 354 55
3 355 55
3 356 9
3 357 25
3 358 24
3 359 13
3 360 7
3 361 18
3 362 33
3 363 20
3 364 7
3 365 9
3 366 131
3 367 27
3 368 23
3 369 19
3 370 10
3 371 14
3 372 7
3 373 13
3 374 12
3 375 13
3 376 34
3 377 15
3 378 897
3 379 67
3 380 5
3 381 44
3 382 24
3 383 40
3 384 62
3 385 24
3 386 12
3 387 10
3 388 11
3 389 5
3 390 9
3 391 16
3 392 7
3 393 17
3 394 8
3 395 26
3 396 51
3 397 12
3 398 19
3 399 11
3 400 118
3 401 11
3 402 12
3 403 25
3 404 14
3 405 61
3 406 439
3 407 6
3 408 104
3 409 8
3 410 17
3 411 55
3 412 9
3 413 16
3 414 15
3 415 15
3 416 73
3 417 10
3 418 12
3 419 10
3 420 14
3 421 61
3 422 15
3 423 33
3 424 12
3 425 10
3 426 7
3 427 53
3 428 23
3 429 7
3 430 6
3 431 12
3 432 43
3 433 15
3 434 41
3 435 10
3 436 5
3 437 6
3 438 19
3 439 77
3 440 13
3 441 8
3 442 52
3 443 12
3 444 23
3 445 13
3 446 7
3 447 8
3 448 541
3 449 13
3 450 24
3 451 13
3 452 9
3 453 11
3 454 16
3 455 10
3 456 9
3 457 11
3 458 15
3 459 17
3 460 39
3 461 10
3 462 22
3 463 16
3 464 14
3 465 18
3 466 7
3 467 94
3 468 82
3 469 6
3 470 13
3 471 10
3 472 11
3 473 7
3 474 21
3 475 5
3 476 9
3 477 13
3 478 11
3 479 11
3 480 3
3 481 11
3 482 56
3 483 7
3 484 61
3 485 9
3 486 15
3 487 20
3 488 13
3 489 12
3 490 62
3 491 11
3 492 51
3 493 12
3 494 19
3 495 7
3 496 5
3 497 32
3 498 14
3 499 23
3 500 13
3 501 15
3 502 78
3 503 11
3 504 98
3 505 60
3 506 15
3 507 2
3 508 10
3 509 10
3 510 6
3 511 13
3 512 34
3 513 27
3 514 11
3 515 10
3 516 11
3 517 17
3 518 8
3 519 15
3 520 21
3 521 15
3 522 8
3 523 18
3 524 70
3 525 16
3 526 6
3 527 3
3 528 87
3 529 11
3 530 35
3 531 11
3 532 7
3 533 68
3 534 8
3 535 101
3 536 15
3 537 11
3 538 7
3 539 21
3 540 13
3 541 5
3 542 28
3 543 14
3 544 19
3 545 145
3 546 62
3 547 10
3 548 14
3 549 12
3 550 12
3 551 18
3 552 53
3 553 11
3 554 12
3 555 16
3 556 32
3 557 36
3 558 6
3 559 11
3 560 22
3 561 16
3 562 5
3 563 16
3 564 14
3 565 13
3 566 16
3 567 6
3 568 9
3 569 18
3 570 12
3 571 66
3 572 14
3 573 6
3 574 17
3 575 4
3 576 16
3 577 7
3 578 29
3 579 10
3 580 14
3 581 11
3 582 1000
3 583 17
3 584 22
3 585 13
3 586 96
3 587 7
3 588 85
3 589 11
3 590 36
3 591 5
3 592 6
3 593 16
3 594 55
3 595 58
3 596 7
3 597 19
3 598 49
3 599 11
3 600 7
3 601 14
3 602 14
3 603 10
3 604 40
3 605 21
3 606 11
3 607 7
3 608 11
3 609 9
3 610 10
3 611 7
3 612 56
3 613 55
3 614 111
3 615 19
3 616 4
3 617 54
3 618 67
3 619 12
3 620 67
3 621 25
3 622 64
3 623 35
3 624 14
3 625 1
3 626 1
3 627 14
3 628 8
3 629 21
3 630 31
3 631 8
3 632 8
3 633 16
3 634 11
3 635 126
3 636 42
3 637 9
3 638 6
3 639 207
3 640 10
3 641 37
3 642 11
3 643 7
3 644 11
3 645 13
3 646 13
3 647 16
3 648 16
3 649 18
3 650 5
3 651 15
3 652 8
3 653 59
3 654 7
3 655 50
3 656 60
3 657 13
3 658 103
3 659 14
3 660 4
3 661 7
3 662 15
3 663 7
3 664 926
3 665 62
3 666 6
3 667 953
3 668 11
3 669 16
3 670 4
3 671 15
3 672 41
3 673 5
3 674 99
3 675 10
3 676 110
3 677 15
3 678 8
3 679 63
3 680 10
3 681 11
3 682 27
3 683 8
3 684 14
3 685 4
3 686 15
3 687 10
3 688 14
3 689 44
3 690 96
3 691 11
3 692 73
3 693 8
3 694 9
3 695 86
3 696 14
3 697 70
3 698 12
3 699 12
3 700 12
3 701 17
3 702 8
3 703 5
3 704 10
3 705 7
3 706 24
3 707 15
3 708 17
3 709 6
3 710 8
3 711 10
3 712 20
3 713 9
3 714 1139
3 715 56
3 716 16
3 717 9
3 718 17
3 719 18
3 720 8
3 721 57
3 722 8
3 723 135
3 724 29
3 725 9
3 726 23
3 727 12
3 728 40
3 729 9
3 730 66
3 731 101
3 732 8
3 733 110
3 734 13
3 735 13
3 736 8
3 737 95
3 738 15
3 739 59
3 740 6
3 741 19
3 742 7
3 743 31
3 744 43
3 745 20
3 746 37
3 747 2
3 748 21
3 749 8
3 750 7
3 751 10
3 752 10
3 753 45
3 754 31
3 755 11
3 756 23
3 757 5
3 758 3
3 759 20
3 760 14
3 761 17
3 762 20
3 763 6
3 764 14
3 765 13
3 766 18
3 767 13
3 768 5
3 769 12
3 770 13
3 771 23
3 772 8
3 773 14
3 774 6
3 775 16
3 776 21
3 777 16
3 778 12
3 779 64
3 780 11
3 781 16
3 782 15
3 783 50
3 784 9
3 785 48
3 786 5
3 787 10
3 788 15
3 789 82
3 790 36
3 791 11
3 792 15
3 793 81
3 794 155
3 795 39
3 796 9
3 797 71
3 798 76
3 799 6
3 800 93
3 801 6
3 802 16
3 803 62
3 804 99
3 805 35
3 806 22
3 807 23
3 808 11
3 809 13
3 810 15
3 811 25
3 812 16
3 813 10
3 814 56
3 815 41
3 816 108
3 817 20
3 818 109
3 819 23
3 820 22
3 821 17
3 822 20
3 823 68
3 824 22
3 825 12
3 826 297
3 827 1216
3 828 17
3 829 628
3 830 24
3 831 15
3 832 63
3 833 16
3 834 112
3 835 13
3 836 12
3 837 70
3 838 38
3 839 29
3 840 47
3 841 17
3 842 18
3 843 175
3 844 13
3 845 10
3 846 14
3 847 46
3 848 21
3 849 19
3 850 171
3 851 49
3 852 83
3 853 28
3 854 307
3 855 86
3 856 43
3 857 66
3 858 5
3 859 13
3 860 23
3 861 14
3 862 45
3 863 28
3 864 20
3 865 11
3 866 9
3 867 29
3 868 11
3 869 35
3 870 10
3 871 64
3 872 17
3 873 15
3 874 20
3 875 18
3 876 9
3 877 71
3 878 10
3 879 70
3 880 64
3 881 21
3 882 15
3 883 9
3 884 22
3 885 298
3 886 14
3 887 12
3 888 8
3 889 15
3 890 2
3 891 68
3 892 2
3 893 8
3 894 18
3 895 12
3 896 40
3 897 13
3 898 15
3 899 73
3 900 9
3 901 10
3 902 12
3 903 148
3 904 8
3 905 11
3 906 22
3 907 8
3 908 15
3 909 61
3 910 14
3 911 92
3 912 16
3 913 7
3 914 15
3 915 7
3 916 45
3 917 6
3 918 10
3 919 96
3 920 9
3 921 29
3 922 14
3 923 8
3 924 7
3 925 22
3 926 12
3 927 27
3 928 20
3 929 11
3 930 57
3 931 57
3 932 7
3 933 54
3 934 5
3 935 6
3 936 12
3 937 18
3 938 10
3 939 39
3 940 11
3 941 10
3 942 8
3 943 95
3 944 7
3 945 27
3 946 100
3 947 6
3 948 12
3 949 62
3 950 15
3 951 15
3 952 11
3 953 12
3 954 7
3 955 12
3 956 1
3 957 9
3 958 28
3 959 13
3 960 60
3 961 45
3 962 26
3 963 9
3 964 7
3 965 21
3 966 14
3 967 6
3 968 11
3 969 18
3 970 210
3 971 61
3 972 19
3 973 8
3 974 12
3 975 11
3 976 8
3 977 9
3 978 9
3 979 18
3 980 5
3 981 12
3 982 5
3 983 11
3 984 50
3 985 5
3 986 15
3 987 71
3 988 62
3 989 84
3 990 13
3 991 11
3 992 14
3 993 10
3 994 24
3 995 7
3 996 10
3 997 10
3 998 9
3 999 12
3 1000 32
3 1001 77
3 1002 5
3 1003 20
3 1004 15
3 1005 8
3 1006 47
3 1007 16
3 1008 18
3 1009 13
3 1010 5
3 1011 47
3 1012 108
3 1013 5
3 1014 14
3 1015 12
3 1016 15
3 1017 18
3 1018 54
3 1019 10
3 1020 21
3 1021 14
3 1022 11
3 1023 14
3 1024 83
3 1025 25
3 1026 28
3 1027 17
3 1028 63
3 1029 13
3 1030 7
3 1031 15
3 1032 5
3 1033 7
3 1034 6
3 1035 17
3 1036 12
3 1037 10
3 1038 72
3 1039 22
3 1040 11
3 1041 8
3 1042 52
3 1043 14
3 1044 12
3 1045 8
3 1046 12
3 1047 42
3 1048 5
3 1049 75
3 1050 8
3 1051 7
3 1052 13
3 1053 121
3 1054 14
3 1055 13
3 1056 12
3 1057 12
3 1058 52
3 1059 9
3 1060 63
3 1061 17
3 1062 10
3 1063 10
3 1064 19
3 1065 25
3 1066 19
3 1067 52
3 1068 1054
3 1069 13
3 1070 11
3 1071 18
3 1072 61
3 1073 71
3 1074 15
3 1075 9
3 1076 1089
3 1077 23
3 1078 57
3 1079 26
3 1080 9
3 1081 7
3 1082 96
3 1083 7
3 1084 10
3 1085 11
3 1086 11
3 1087 16
3 1088 35
3 1089 12
3 1090 11
3 1091 328
3 1092 64
3 1093 50
3 1094 6
3 1095 42
3 1096 7
3 1097 43
3 1098 6
3 1099 3
3 1100 9
3 1101 8
3 1102 9
3 1103 20
3 1104 10
3 1105 21
3 1106 16
3 1107 13
3 1108 19
3 1109 4
3 1110 18
3 1111 11
3 1112 5
3 1113 109
3 1114 18
3 1115 13
3 1116 14
3 1117 7
3 1118 5
3 1119 46
3 1120 6
3 1121 193
3 1122 4
3 1123 15
3 1124 27
3 1125 14
3 1126 24
3 1127 18
3 1128 1
3 1129 10
3 1130 23
3 1131 13
3 1132 10
3 1133 24
3 1134 7
3 1135 10
3 1136 16
3 1137 5
3 1138 43
3 1139 61
3 1140 21
3 1141 12
3 1142 13
3 1143 14
3 1144 11
3 1145 40
3 1146 11
3 1147 33
3 1148 5
3 1149 10
3 1150 9
3 1151 14
3 1152 40
3 1153 6
3 1154 11
3 1155 7
3 1156 16
3 1157 89
3 1158 57
3 1159 18
3 1160 17
3 1161 16
3 1162 43
3 1163 14
3 1164 24
3 1165 8
3 1166 11
3 1167 14
3 1168 11
3 1169 23
3 1170 12
3 1171 11
3 1172 2
3 1173 16
3 1174 11
3 1175 15
3 1176 12
3 1177 8
3 1178 27
3 1179 53
3 1180 14
3 1181 23
3 1182 27
3 1183 7
3 1184 13
3 1185 47
3 1186 16
3 1187 14
3 1188 16
3 1189 13
3 1190 101
3 1191 10
3 1192 66
3 1193 8
3 1194 13
3 1195 72
3 1196 33
3 1197 12
3 1198 8
3 1199 42
3 1200 16
3 1201 60
3 1202 4
3 1203 15
3 1204 13
3 1205 10
3 1206 20
3 1207 34
3 1208 11
3 1209 16
3 1210 15
3 1211 71
3 1212 17
3 1213 21
3 1214 12
3 1215 12
3 1216 35
3 1217 14
3 1218 9
3 1219 110
3 1220 6
3 1221 29
3 1222 33
3 1223 9
3 1224 45
3 1225 9
3 1226 10
3 1227 16
3 1228 18
3 1229 28
3 1230 44
3 1231 23
3 1232 8
3 1233 14
3 1234 63
3 1235 9
3 1236 5
3 1237 24
3 1238 15
3 1239 30
3 1240 8
3 1241 12
3 1242 36
3 1243 3
3 1244 6
3 1245 11
3 1246 16
3 1247 23
3 1248 6
3 1249 10
3 1250 36
3 1251 7
3 1252 12
3 1253 32
3 1254 15
3 1255 6
3 1256 10
3 1257 5
3 1258 20
3 1259 37
3 1260 12
3 1261 8
3 1262 14
3 1263 92
3 1264 18
3 1265 11
3 1266 16
3 1267 9
3 1268 12
3 1269 57
3 1270 17
3 1271 53
3 1272 40
3 1273 13
3 1274 192
3 1275 10
3 1276 17
3 1277 9
3 1278 78
3 1279 59
3 1280 10
3 1281 15
3 1282 14
3 1283 20
3 1284 6
3 1285 84
3 1286 4
3 1287 16
3 1288 6
3 1289 1036
3 1290 17
3 1291 106
3 1292 12
3 1293 58
3 1294 68
3 1295 6
3 1296 10
3 1297 87
3 1298 5
3 1299 17
3 1300 11
3 1301 61
3 1302 12
3 1303 12
3 1304 11
3 1305 7
3 1306 17
3 1307 14
3 1308 6
3 1309 8
3 1310 10
3 1311 9
3 1312 27
3 1313 16
3 1314 13
3 1315 10
3 1316 5
3 1317 11
3 1318 6
3 1319 14
3 1320 29
3 1321 116
3 1322 968
3 1323 12
3 1324 27
3 1325 7
3 1326 9
3 1327 9
3 1328 25
3 1329 21
3 1330 59
3 1331 6
3 1332 75
3 1333 6
3 1334 27
3 1335 144
3 1336 5
3 1337 15
3 1338 17
3 1339 56
3 1340 10
3 1341 8
3 1342 11
3 1343 11
3 1344 37
3 1345 5
3 1346 14
3 1347 41
3 1348 7
3 1349 28
3 1350 16
3 1351 46
3 1352 47
3 1353 6
3 1354 11
3 1355 64
3 1356 6
3 1357 16
3 1358 6
3 1359 5
3 1360 10
3 1361 15
3 1362 6
3 1363 6
3 1364 5
3 1365 12
3 1366 7
3 1367 19
3 1368 9
3 1369 14
3 1370 20
3 1371 12
3 1372 9
3 1373 19
3 1374 44
3 1375 39
3 1376 33
3 1377 11
3 1378 41
3 1379 6
3 1380 22
3 1381 6
3 1382 9
3 1383 54
3 1384 16
3 1385 42
3 1386 6
3 1387 4
3 1388 13
3 1389 1000
3 1390 5
3 1391 76
3 1392 27
3 1393 71
3 1394 10
3 1395 6
3 1396 35
3 1397 9
3 1398 5
3 1399 13
3 1400 6
3 1401 23
3 1402 8
3 1403 12
3 1404 41
3 1405 7
3 1406 7
3 1407 75
3 1408 16
3 1409 6
3 1410 9
3 1411 7
3 1412 7
3 1413 35
3 1414 860
3 1415 12
3 1416 14
3 1417 15
3 1418 8
3 1419 10
3 1420 84
3 1421 6
3 1422 8
3 1423 15
3 1424 12
3 1425 4
3 1426 11
3 1427 10
3 1428 10
3 1429 42
3 1430 18
3 1431 13
3 1432 13
3 1433 47
3 1434 17
3 1435 48
3 1436 15
3 1437 15
3 1438 22
3 1439 94
3 1440 76
3 1441 13
3 1442 54
3 1443 10
3 1444 20
3 1445 8
3 1446 48
3 1447 45
3 1448 57
3 1449 5
3 1450 71
3 1451 16
3 1452 58
3 1453 16
3 1454 12
3 1455 78
3 1456 44
3 1457 16
3 1458 9
3 1459 37
3 1460 23
3 1461 8
3 1462 14
3 1463 34
3 1464 8
3 1465 7
3 1466 7
3 1467 5
3 1468 100
3 1469 8
3 1470 52
3 1471 64
3 1472 14
3 1473 983
3 1474 58
3 1475 14
3 1476 3
3 1477 7
3 1478 87
3 1479 8
3 1480 78
3 1481 65
3 1482 10
3 1483 11
3 1484 35
3 1485 5
3 1486 9
3 1487 69
3 1488 15
3 1489 9
3 1490 13
3 1491 11
3 1492 124
3 1493 19
3 1494 11
3 1495 8
3 1496 7
3 1497 23
3 1498 17
3 1499 21
3 1500 19
3 1501 8
3 1502 11
3 1503 5
3 1504 20
3 1505 7
3 1506 8
3 1507 34
3 1508 8
3 1509 7
3 1510 11
3 1511 62
3 1512 14
3 1513 232
3 1514 19
3 1515 16
3 1516 7
3 1517 6
3 1518 8
3 1519 9
3 1520 17
3 1521 5
3 1522 7
3 1523 12
3 1524 9
3 1525 7
3 1526 64
3 1527 70
3 1528 39
3 1529 14
3 1530 10
3 1531 14
3 1532 13
3 1533 11
3 1534 8
3 1535 13
3 1536 7
3 1537 55
3 1538 6
3 1539 271
3 1540 89
3 1541 7
3 1542 9
3 1543 16
3 1544 13
3 1545 17
3 1546 35
3 1547 99
3 1548 13
3 1549 30
3 1550 767
3 1551 21
3 1552 17
3 1553 111
3 1554 10
3 1555 15
3 1556 8
3 1557 7
3 1558 17
3 1559 12
3 1560 17
3 1561 6
3 1562 10
3 1563 8
3 1564 5
3 1565 27
3 1566 12
3 1567 9
3 1568 10
3 1569 11
3 1570 7
3 1571 9
3 1572 36
3 1573 65
3 1574 14
3 1575 52
3 1576 14
3 1577 21
3 1578 16
3 1579 41
3 1580 22
3 1581 78
3 1582 20
3 1583 28
3 1584 18
3 1585 11
3 1586 18
3 1587 9
3 1588 84
3 1589 21
3 1590 9
3 1591 6
3 1592 7
3 1593 27
3 1594 18
3 1595 37
3 1596 8
3 1597 7
3 1598 55
3 1599 10
3 1600 5
3 1601 14
3 1602 33
3 1603 33
3 1604 31
3 1605 126
3 1606 59
3 1607 7
3 1608 74
3 1609 53
3 1610 21
3 1611 18
3 1612 6
3 1613 75
3 1614 66
3 1615 14
3 1616 16
3 1617 13
3 1618 16
3 1619 17
3 1620 11
3 1621 11
3 1622 49
3 1623 61
3 1624 10
3 1625 74
3 1626 10
3 1627 16
3 1628 72
3 1629 24
3 1630 9
3 1631 13
3 1632 12
3 1633 3
3 1634 13
3 1635 15
3 1636 43
3 1637 96
3 1638 14
3 1639 64
3 1640 41
3 1641 4
3 1642 15
3 1643 5
3 1644 10
3 1645 4
3 1646 56
3 1647 6
3 1648 9
3 1649 11
3 1650 5
3 1651 15
3 1652 14
3 1653 86
3 1654 8
3 1655 18
3 1656 145
3 1657 16
3 1658 10
3 1659 2
3 1660 4
3 1661 18
3 1662 14
3 1663 10
3 1664 6
3 1665 14
3 1666 92
3 1667 19
3 1668 17
3 1669 10
3 1670 25
3 1671 13
3 1672 52
3 1673 8
3 1674 4
3 1675 8
3 1676 12
3 1677 18
3 1678 100
3 1679 27
3 1680 30
3 1681 8
3 1682 3
3 1683 9
3 1684 11
3 1685 97
3 1686 11
3 1687 11
3 1688 79
3 1689 13
3 1690 10
3 1691 49
3 1692 96
3 1693 15
3 1694 7
3 1695 11
3 1696 24
3 1697 20
3 1698 48
3 1699 16
3 1700 4
3 1701 11
3 1702 20
3 1703 75
3 1704 8
3 1705 19
3 1706 47
3 1707 6
3 1708 24
3 1709 13
3 1710 19
3 1711 57
3 1712 18
3 1713 2
3 1714 7
3 1715 41
3 1716 12
3 1717 14
3 1718 44
3 1719 68
3 1720 22
3 1721 22
3 1722 14
3 1723 10
3 1724 8
3 1725 49
3 1726 14
3 1727 13
3 1728 20
3 1729 9
3 1730 11
3 1731 11
3 1732 40
3 1733 12
3 1734 10
3 1735 12
3 1736 12
3 1737 8
3 1738 10
3 1739 17
3 1740 9
3 1741 11
3 1742 10
3 1743 26
3 1744 6
3 1745 1142
3 1746 4
3 1747 3
3 1748 5
3 1749 66
3 1750 6
3 1751 37
3 1752 12
3 1753 8
3 1754 21
3 1755 10
3 1756 11
3 1757 52
3 1758 10
3 1759 13
3 1760 6
3 1761 4
3 1762 23
3 1763 5
3 1764 17
3 1765 17
3 1766 5
3 1767 23
3 1768 59
3 1769 19
3 1770 41
3 1771 68
3 1772 4
3 1773 8
3 1774 14
3 1775 13
3 1776 36
3 1777 11
3 1778 25
3 1779 48
3 1780 19
3 1781 15
3 1782 69
3 1783 14
3 1784 77
3 1785 4
3 1786 35
3 1787 8
3 1788 18
3 1789 13
3 1790 43
3 1791 6
3 1792 12
3 1793 15
3 1794 13
3 1795 8
3 1796 10
3 1797 14
3 1798 15
3 1799 11
3 1800 8
3 1801 12
3 1802 13
3 1803 16
3 1804 81
3 1805 13
3 1806 6
3 1807 23
3 1808 7
3 1809 34
3 1810 8
3 1811 69
3 1812 17
3 1813 18
3 1814 6
3 1815 6
3 1816 18
3 1817 11
3 1818 14
3 1819 106
3 1820 6
3 1821 5
3 1822 8
3 1823 72
3 1824 46
3 1825 9
3 1826 77
3 1827 64
3 1828 41
3 1829 120
3 1830 21
3 1831 41
3 1832 55
3 1833 64
3 1834 4
3 1835 15
3 1836 9
3 1837 9
3 1838 10
3 1839 11
3 1840 80
3 1841 54
3 1842 13
3 1843 9
3 1844 94
3 1845 19
3 1846 8
3 1847 13
3 1848 12
3 1849 12
3 1851 7
3 1852 21
3 1853 6
3 1854 26
3 1855 53
3 1856 70
3 1857 93
3 1858 9
3 1859 7
3 1860 16
3 1861 8
3 1862 7
3 1863 12
3 1864 13
3 1865 20
3 1866 12
3 1867 65
3 1868 14
3 1869 43
3 1870 23
3 1871 11
3 1872 101
3 1873 10
3 1874 99
3 1875 49
3 1876 363
3 1877 12
3 1878 15
3 1879 70
3 1880 168
3 1881 8
3 1882 7
3 1883 10
3 1884 49
3 1885 21
3 1886 7
3 1887 8
3 1888 92
3 1889 8
3 1890 131
3 1891 5
3 1892 12
3 1893 43
3 1894 13
3 1895 83
3 1896 6
3 1897 11
3 1898 10
3 1899 15
3 1900 81
3 1901 20
3 1902 25
3 1903 92
3 1904 5
3 1905 7
3 1906 10
3 1907 10
3 1908 5
3 1909 11
3 1910 13
3 1911 13
3 1912 25
3 1913 17
3 1914 53
3 1915 26
3 1916 55
3 1917 30
3 1918 15
3 1919 47
3 1920 7
3 1921 55
3 1922 9
3 1923 10
3 1924 6
3 1925 16
3 1926 11
3 1927 17
3 1928 48
3 1929 15
3 1930 13
3 1931 5
3 1932 22
3 1933 17
3 1934 11
3 1935 75
3 1936 13
3 1937 16
3 1938 41
3 1939 10
3 1940 38
3 1941 10
3 1942 15
3 1943 22
3 1944 8
3 1945 16
3 1946 27
3 1947 6
3 1948 17
3 1949 5
3 1950 32
3 1951 106
3 1952 5
3 1953 15
3 1954 68
3 1955 51
3 1956 11
3 1957 8
3 1958 12
3 1959 18
3 1960 13
3 1961 7
3 1962 1127
3 1963 45
3 1964 8
3 1965 9
3 1966 73
3 1967 25
3 1968 10
3 1969 97
3 1970 14
3 1971 902
3 1972 1
3 1973 6
3 1974 6
3 1975 12
3 1976 103
3 1977 64
3 1978 14
3 1979 8
3 1980 175
3 1981 15
3 1982 13
3 1983 17
3 1984 12
3 1985 17
3 1986 5
3 1987 8
3 1988 17
3 1989 18
3 1990 17
3 1991 26
3 1992 21
3 1993 13
3 1994 27
3 1995 93
3 1996 282
3 1997 14
3 1998 77
3 1999 135
3 2000 6
3 2001 8
3 2002 89
3 2003 5
3 2004 15
3 2005 8
3 2006 8
3 2007 12
3 2008 12
3 2009 11
3 2010 69
3 2011 25
3 2012 22
3 2013 33
3 2014 28
3 2015 5
3 2016 11
3 2017 81
3 2018 15
3 2019 124
3 2020 73
3 2021 22
3 2022 9
3 2023 12
3 2024 4
3 2025 74
3 2026 39
3 2027 6
3 2028 2
3 2029 5
3 2030 5
3 2031 2
3 2032 8
3 2033 20
3 2034 7
3 2035 4
3 2036 4
3 2037 4
3 2038 6
3 2039 21
3 2040 16
3 2041 2
3 2042 5
3 2043 4
3 2044 1
3 2045 2
3 2046 11
3 2047 5
3 2048 17
3 2049 91
3 2050 131
3 2051 50
3 2052 8
3 2053 21
3 2054 48
3 2055 17
3 2056 11
3 2057 80
3 2058 15
3 2059 45
3 2060 9
3 2061 13
3 2062 16
3 2063 27
3 2064 18
3 2065 66
3 2066 14
3 2067 11
3 2068 14
3 2069 48
3 2070 9
3 2071 13
3 2072 32
3 2073 11
3 2074 95
3 2075 29
3 2076 12
3 2077 43
3 2078 42
3 2079 8
3 2080 10
3 2081 52
3 2082 6
3 2083 21
3 2084 5
3 2085 52
3 2086 14
3 2087 8
3 2088 50
3 2089 119
3 2090 8
3 2091 11
3 2092 7
3 2093 4
3 2095 37
3 2096 12
3 2097 10
3 2098 3
3 2099 15
3 2100 11
3 2101 509
3 2102 103
3 2103 8
3 2104 81
3 2105 100
3 2106 15
3 2107 184
3 2108 11
3 2109 165
3 2110 1
3 2111 13
3 2112 13
3 2113 10
3 2114 54
3 2115 11
3 2116 7
3 2117 49
3 2118 2
3 2119 21
3 2120 7
3 2121 46
3 2122 66
3 2123 108
3 2124 11
3 2125 11
3 2126 31
3 2127 11
3 2128 14
3 2129 15
3 2130 13
3 2131 9
3 2132 6
3 2133 20
3 2134 13
3 2135 25
3 2136 13
3 2137 5
3 2138 39
3 2139 18
3 2140 12
3 2141 7
3 2142 41
3 2143 22
3 2144 4
3 2145 178
3 2146 24
3 2147 942
3 2148 288
3 2149 57
3 2150 16
3 2151 8
3 2152 11
3 2153 14
3 2154 54
3 2155 7
3 2156 7
3 2157 13
3 2158 18
3 2159 14
3 2160 76
3 2161 11
3 2162 20
3 2163 10
3 2164 12
3 2165 51
3 2166 84
3 2167 21
3 2168 7
3 2169 53
3 2170 5
3 2171 85
3 2172 95
3 2173 6
3 2174 28
3 2175 37
3 2176 23
3 2177 16
3 2178 9
3 2179 11
3 2180 14
3 2181 9
3 2182 11
3 2183 7
3 2184 9
3 2185 14
3 2186 13
3 2187 11
3 2188 19
3 2189 12
3 2190 11
3 2191 35
3 2192 13
3 2193 18
3 2194 6
3 2195 13
3 2196 8
3 2197 21
3 2198 18
3 2199 65
3 2200 37
3 2201 5
3 2202 6
3 2203 37
3 2204 312
3 2205 9
3 2206 13
3 2207 6
3 2208 8
3 2209 17
3 2210 210
3 2211 16
3 2212 61
3 2213 9
3 2214 8
3 2215 16
3 2216 93
3 2217 106
3 2218 27
3 2219 5
3 2220 15
3 2221 16
3 2222 10
3 2223 11
3 2224 13
3 2225 7
3 2226 12
3 2227 7
3 2228 11
3 2229 23
3 2230 9
3 2231 15
3 2232 7
3 2233 57
3 2234 15
3 2235 7
3 2236 16
3 2237 14
3 2238 15
3 2239 22
3 2240 124
3 2241 12
3 2242 16
3 2243 11
3 2244 5
3 2245 74
3 2246 18
3 2247 14
3 2248 7
3 2249 14
3 2250 95
3 2251 12
3 2252 11
3 2253 140
3 2254 111
3 2255 10
3 2256 24
3 2257 92
3 2258 19
3 2259 12
3 2260 8
3 2261 6
3 2262 8
3 2263 14
3 2264 5
3 2265 9
3 2266 8
3 2267 16
3 2268 15
3 2269 12
3 2270 25
3 2271 15
3 2272 78
3 2273 18
3 2274 46
3 2275 26
3 2276 11
3 2277 53
3 2278 12
3 2279 47
3 2280 12
3 2281 70
3 2282 10
3 2283 11
3 2284 30
3 2285 26
3 2286 16
3 2287 120
3 2288 59
3 2289 4
3 2290 5
3 2291 535
3 2292 35
3 2293 32
3 2294 11
3 2295 8
3 2296 24
3 2297 15
3 2298 8
3 2299 5
3 2300 53
3 2301 23
3 2302 9
3 2303 14
3 2304 48
3 2305 16
3 2306 26
3 2307 10
3 2308 7
3 2309 53
3 2310 7
3 2311 6
3 2312 14
3 2313 8
3 2314 5
3 2315 13
3 2316 9
3 2317 8
3 2318 7
3 2319 10
3 2320 143
3 2321 12
3 2322 2
3 2323 14
3 2324 4
3 2325 16
3 2326 69
3 2327 15
3 2328 18
3 2329 16
3 2330 15
3 2331 19
3 2332 8
3 2333 13
3 2334 13
3 2335 12
3 2336 56
3 2337 11
3 2338 9
3 2339 99
3 2340 19
3 2341 6
3 2342 8
3 2343 4
3 2344 4
3 2345 40
3 2346 9
3 2347 7
3 2348 5
3 2349 35
3 2350 16
3 2351 17
3 2352 19
3 2353 8
3 2354 10
3 2355 16
3 2356 3
3 2357 5
3 2358 20
3 2359 20
3 2360 6
3 2361 7
3 2362 15
3 2363 9
3 2364 15
3 2365 5
3 2366 12
3 2367 15
3 2368 4
3 2369 21
3 2370 6
3 2371 12
3 2372 7
3 2373 6
3 2374 11
3 2375 11
3 2376 23
3 2377 83
3 2378 103
3 2379 6
3 2380 5
3 2381 4
3 2382 90
3 2383 7
3 2384 10
3 2385 33
3 2386 41
3 2387 11
3 2388 74
3 2389 5
3 2390 15
3 2391 59
3 2392 5
3 2393 7
3 2394 44
3 2395 52
3 2396 5
3 2397 6
3 2398 22
3 2399 20
3 2400 8
3 2401 7
3 2402 12
3 2403 6
3 2404 37
3 2405 13
3 2406 9
3 2407 12
3 2408 14
3 2409 7
3 2410 11
3 2411 14
3 2412 11
3 2413 12
3 2414 22
3 2415 9
3 2416 209
3 2417 23
3 2418 11
3 2419 48
3 2420 32
3 2421 108
3 2422 11
3 2423 19
3 2424 12
3 2425 14
3 2426 9
3 2427 116
3 2428 10
3 2429 3
3 2430 78
3 2431 10
3 2432 4
3 2433 12
3 2434 25
3 2435 7
3 2436 47
3 2437 70
3 2438 4
3 2439 8
3 2440 37
3 2441 10
3 2442 28
3 2443 8
3 2444 8
3 2445 125
3 2446 22
3 2447 83
3 2448 13
3 2449 16
3 2450 20
3 2451 14
3 2452 159
3 2453 468
3 2454 22
3 2455 8
3 2456 16
3 2457 6
3 2458 6
3 2459 10
3 2460 17
3 2461 14
3 2462 6
3 2463 4
3 2464 10
3 2465 6
3 2466 18
3 2467 252
3 2468 20
3 2469 103
3 2470 7
3 2471 18
3 2472 8
3 2473 7
3 2474 14
3 2475 8
3 2476 9
3 2477 14
3 2478 8
3 2479 13
3 2480 11
3 2481 9
3 2482 47
3 2483 13
3 2484 7
3 2485 4
3 2486 6
3 2487 14
3 2488 101
3 2489 10
3 2490 7
3 2491 9
3 2492 5
3 2493 12
3 2494 8
3 2495 61
3 2496 12
3 2497 8
3 2498 10
3 2499 31
3 2500 38
3 2501 14
3 2502 9
3 2503 7
3 2504 6
3 2505 8
3 2506 4
3 2507 14
3 2508 10
3 2509 15
3 2510 20
3 2511 4
3 2512 16
3 2513 8
3 2514 27
3 2515 10
3 2516 6
3 2517 11
3 2518 34
3 2519 22
3 2520 17
3 2521 44
3 2522 14
3 2523 8
3 2524 7
3 2525 10
3 2526 113
3 2527 25
3 2528 155
3 2529 13
3 2530 10
3 2531 7
3 2532 14
3 2533 8
3 2534 19
3 2535 48
3 2536 8
3 2537 66
3 2538 16
3 2539 3
3 2540 6
3 2541 7
3 2542 46
3 2543 14
3 2544 18
3 2545 17
3 2546 108
3 2547 12
3 2548 5
3 2549 13
3 2550 109
3 2551 9
3 2552 12
3 2553 72
3 2554 54
3 2555 12
3 2556 6
3 2557 26
3 2558 52
3 2559 12
3 2560 11
3 2561 14
3 2562 12
3 2563 39
3 2564 7
3 2566 14
3 2567 80
3 2568 11
3 2569 17
3 2570 65
3 2571 80
3 2572 19
3 2573 18
3 2574 44
3 2575 56
3 2576 22
3 2577 11
3 2578 12
3 2579 54
3 2580 15
3 2581 8
3 2582 78
3 2583 6
3 2584 20
3 2585 221
3 2586 33
3 2587 117
3 2588 20
3 2589 11
3 2590 12
3 2591 83
3 2592 5
3 2593 17
3 2594 9
3 2595 62
3 2596 25
3 2597 10
3 2598 53
3 2599 14
3 2600 10
3 2601 6
3 2602 8
3 2603 74
3 2604 38
3 2605 12
3 2606 10
3 2607 2
3 2608 8
3 2609 83
3 2610 79
3 2611 15
3 2612 7
3 2613 12
3 2614 9
3 2615 18
3 2616 46
3 2617 7
3 2618 9
3 2619 62
3 2620 16
3 2621 44
3 2622 4
3 2623 28
3 2624 11
3 2625 13
3 2626 15
3 2627 6
3 2628 86
3 2629 9
3 2630 23
3 2631 15
3 2632 48
3 2633 15
3 2634 29
3 2635 11
3 2636 18
3 2637 2
3 2638 2
3 2639 5
3 2640 26
3 2641 43
3 2642 32
3 2643 77
3 2644 15
3 2645 18
3 2646 41
3 2647 18
3 2648 282
3 2649 12
3 2650 6
3 2651 56
3 2652 15
3 2653 8
3 2654 9
3 2655 17
3 2656 8
3 2657 3
3 2658 8
3 2659 6
3 2660 11
3 2661 19
3 2662 8
3 2663 15
3 2664 56
3 2665 61
3 2666 3
3 2667 10
3 2668 15
3 2669 4
3 2670 146
3 2671 4
3 2672 15
3 2673 11
3 2674 24
3 2675 40
3 2676 20
3 2677 25
3 2678 21
3 2679 6
3 2680 12
3 2681 6
3 2682 11
3 2683 20
3 2684 18
3 2685 15
3 2686 5
3 2687 94
3 2688 11
3 2689 9
3 2690 18
3 2691 7
3 2692 57
3 2693 37
3 2694 11
3 2695 30
3 2696 15
3 2697 10
3 2698 96
3 2699 12
3 2700 7
3 2701 37
3 2702 11
3 2703 12
3 2704 51
3 2705 3
3 2706 7
3 2707 7
3 2708 6
3 2709 20
3 2710 4
3 2711 11
3 2712 9
3 2713 11
3 2714 12
3 2715 67
3 2716 5
3 2717 5
3 2718 5
3 2719 144
3 2720 83
3 2721 27
3 2722 12
3 2723 50
3 2724 6
3 2725 50
3 2726 68
3 2727 6
3 2728 11
3 2729 9
3 2730 12
3 2731 10
3 2732 47
3 2733 89
3 2734 4
3 2735 8
3 2736 7
3 2737 8
3 2738 13
3 2739 25
3 2740 5
3 2741 4
3 2742 16
3 2743 1
3 2744 10
3 2745 8
3 2746 10
3 2747 27
3 2748 7
3 2749 13
3 2750 15
3 2751 10
3 2752 37
3 2753 15
3 2754 18
3 2755 28
3 2756 66
3 2757 7
3 2758 20
3 2759 12
3 2760 9
3 2761 5
3 2762 10
3 2763 6
3 2764 10
3 2765 15
3 2766 9
3 2767 1
3 2768 76
3 2769 13
3 2770 98
3 2771 11
3 2772 15
3 2773 10
3 2774 11
3 2775 33
3 2776 11
3 2777 22
3 2778 12
3 2779 94
3 2780 13
3 2781 12
3 2782 55
3 2783 10
3 2784 15
3 2785 11
3 2786 22
3 2787 16
3 2788 16
3 2789 9
3 2790 11
3 2791 22
3 2792 7
3 2793 15
3 2794 12
3 2795 83
3 2796 13
3 2797 19
3 2798 10
3 2799 14
3 2800 12
3 2801 13
3 2802 12
3 2803 23
3 2804 6
3 2805 14
3 2806 9
3 2807 175
3 2808 11
3 2809 19
3 2810 8
3 2811 17
3 2812 16
3 2813 80
3 2814 28
3 2815 10
3 2816 3
3 2817 7
3 2818 19
3 2819 68
3 2820 6
3 2821 13
3 2822 15
3 2823 13
3 2824 14
3 2825 7
3 2826 9
3 2827 12
3 2828 15
3 2829 5
3 2830 23
3 2831 15
3 2832 5
3 2833 13
3 2834 17
3 2835 38
3 2836 16
3 2837 30
3 2838 12
3 2839 22
3 2840 102
3 2841 16
3 2842 58
3 2843 9
3 2844 15
3 2845 41
3 2846 12
3 2847 12
3 2848 11
3 2849 10
3 2850 62
3 2851 13
3 2852 49
3 2853 48
3 2854 25
3 2855 7
3 2856 14
3 2857 29
3 2858 78
3 2859 2
3 2860 13
3 2861 11
3 2862 8
3 2863 8
3 2864 12
3 2865 7
3 2866 13
3 2867 23
3 2868 16
3 2869 9
3 2870 12
3 2871 13
3 2872 4
3 2873 118
3 2874 16
3 2875 8
3 2876 7
3 2877 59
3 2878 14
3 2879 42
3 2880 95
3 2881 20
3 2882 16
3 2883 12
3 2884 5
3 2885 64
3 2886 13
3 2887 30
3 2888 13
3 2889 61
3 2890 9
3 2891 129
3 2892 289
3 2893 14
3 2894 26
3 2895 15
3 2896 15
3 2897 48
3 2898 16
3 2899 2
3 2900 11
3 2901 13
3 2902 530
3 2903 6
3 2904 6
3 2905 10
3 2906 6
3 2907 8
3 2908 49
3 2909 8
3 2910 66
3 2911 10
3 2912 16
3 2913 12
3 2914 15
3 2915 7
3 2916 35
3 2917 12
3 2918 14
3 2919 17
3 2920 2
3 2921 8
3 2922 3
3 2923 10
3 2924 71
3 2925 11
3 2926 25
3 2927 19
3 2928 24
3 2929 7
3 2930 12
3 2931 10
3 2932 81
3 2933 11
3 2934 10
3 2935 41
3 2936 92
3 2937 44
3 2938 13
3 2939 11
3 2940 26
3 2941 13
3 2942 79
3 2943 18
3 2944 10
3 2945 14
3 2946 27
3 2947 14
3 2948 15
3 2949 12
3 2950 115
3 2951 949
3 2952 9
3 2953 80
3 2954 4
3 2955 14
3 2956 40
3 2957 10
3 2958 52
3 2959 20
3 2960 17
3 2961 10
3 2962 22
3 2963 15
3 2964 45
3 2965 11
3 2966 11
3 2967 47
3 2968 119
3 2969 14
3 2970 15
3 2971 11
3 2972 11
3 2973 5
3 2974 77
3 2975 9
3 2976 16
3 2977 54
3 2978 78
3 2979 7
3 2980 9
3 2981 75
3 2982 3
3 2983 13
3 2984 17
3 2985 49
3 2986 11
3 2987 40
3 2988 8
3 2989 8
3 2990 79
3 2991 21
3 2992 104
3 2993 12
3 2994 423
3 2995 12
3 2996 11
3 2997 19
3 2998 33
3 2999 9
3 3000 3
3 3001 53
3 3002 11
3 3003 10
3 3004 8
3 3005 15
3 3006 7
3 3007 10
3 3008 5
3 3009 5
3 3010 11
3 3011 13
3 3012 36
3 3013 11
3 3014 4
3 3015 62
3 3016 9
3 3017 55
3 3018 16
3 3019 26
3 3020 7
3 3021 49
3 3022 25
3 3023 13
3 3024 72
3 3025 55
3 3026 7
3 3027 15
3 3028 73
3 3029 53
3 3030 227
3 3031 82
3 3032 20
3 3033 12
3 3034 52
3 3035 20
3 3036 13
3 3037 8
3 3038 50
3 3039 16
3 3040 26
3 3041 16
3 3042 39
3 3043 18
3 3044 5
3 3045 20
3 3046 108
3 3047 21
3 3048 17
3 3049 10
3 3050 2
3 3051 36
3 3052 7
3 3053 7
3 3054 21
3 3055 7
3 3056 13
3 3057 8
3 3058 75
3 3059 12
3 3060 4
3 3061 9
3 3062 11
3 3063 8
3 3064 12
3 3065 8
3 3066 8
3 3067 49
3 3068 40
3 3069 8
3 3070 60
3 3071 10
3 3072 7
3 3073 11
3 3074 18
3 3075 77
3 3076 11
3 3077 6
3 3078 126
3 3079 10
3 3080 12
3 3081 12
3 3082 7
3 3083 11
3 3084 2
3 3085 13
3 3086 9
3 3087 10
3 3088 50
3 3089 10
3 3090 16
3 3091 11
3 3092 2
3 3093 6
3 3094 22
3 3095 118
3 3096 12
3 3097 13
3 3098 12
3 3099 50
3 3100 8
3 3101 176
3 3102 1057
3 3103 6
3 3104 60
3 3105 14
3 3106 12
3 3107 12
3 3108 16
3 3109 5
3 3110 16
3 3111 11
3 3112 11
3 3113 23
3 3114 14
3 3115 18
3 3116 4
3 3117 8
3 3118 10
3 3119 6
3 3120 13
3 3121 21
3 3122 8
3 3123 46
3 3124 7
3 3125 3
3 3126 65
3 3127 11
3 3128 13
3 3129 9
3 3130 1
3 3131 31
3 3132 7
3 3133 70
3 3134 23
3 3135 12
3 3136 11
3 3137 13
3 3138 16
3 3139 51
3 3140 62
3 3141 55
3 3142 14
3 3143 8
3 3144 11
3 3145 18
3 3146 9
3 3147 18
3 3148 4
3 3149 8
3 3150 12
3 3151 3
3 3152 17
3 3153 73
3 3154 12
3 3155 126
3 3156 8
3 3157 12
3 3158 39
3 3159 29
3 3160 21
3 3161 13
3 3162 15
3 3163 9
3 3164 68
3 3165 72
3 3166 11
3 3167 1
3 3168 20
3 3169 9
3 3170 17
3 3171 22
3 3172 4
3 3173 20
3 3174 11
3 3175 9
3 3176 81
3 3177 11
3 3178 25
3 3179 11
3 3180 25
3 3181 11
3 3182 8
3 3183 11
3 3184 11
3 3185 23
3 3186 10
3 3187 22
3 3188 26
3 3189 17
3 3190 47
3 3191 20
3 3192 18
3 3193 63
3 3194 11
3 3195 6
3 3196 7
3 3197 16
3 3198 15
3 3199 7
3 3200 7
3 3201 16
3 3202 11
3 3203 13
3 3204 9
3 3205 7
3 3206 196
3 3207 10
3 3208 5
3 3209 17
3 3210 42
3 3211 30
3 3212 70
3 3213 6
3 3214 23
3 3215 13
3 3216 11
3 3217 5
3 3218 4
3 3219 13
3 3220 9
3 3221 14
3 3222 70
3 3223 103
3 3224 9
3 3225 10
3 3226 74
3 3227 7
3 3228 31
3 3229 12
3 3230 14
3 3231 4
3 3232 4
3 3233 12
3 3234 8
3 3235 18
3 3236 3
3 3237 3
3 3238 5
3 3239 9
3 3240 17
3 3241 12
3 3242 12
3 3243 13
3 3244 11
3 3245 63
3 3246 17
3 3247 9
3 3248 7
3 3249 9
3 3250 3
3 3251 28
3 3252 55
3 3253 55
3 3255 21
3 3256 26
3 3257 11
3 3258 80
3 3259 30
3 3260 15
3 3261 15
3 3262 9
3 3263 14
3 3264 141
3 3265 24
3 3266 9
3 3267 5
3 3268 15
3 3269 41
3 3270 7
3 3271 9
3 3272 6
3 3273 9
3 3274 8
3 3275 1
3 3276 90
3 3277 14
3 3278 11
3 3279 6
3 3280 54
3 3281 16
3 3282 11
3 3283 27
3 3284 12
3 3285 10
3 3286 21
3 3287 6
3 3288 22
3 3289 52
3 3290 41
3 3291 14
3 3292 17
3 3293 826
3 3294 11
3 3295 76
3 3296 4
3 3297 6
3 3298 13
3 3299 6
3 3300 7
3 3301 14
3 3302 3
3 3303 70
3 3304 7
3 3305 61
3 3306 18
3 3307 6
3 3308 6
3 3309 12
3 3310 38
3 3311 12
3 3312 5
3 3313 12
3 3314 166
3 3315 55
3 3316 8
3 3317 8
3 3318 6
3 3319 5
3 3320 85
3 3321 4
3 3322 11
3 3323 13
3 3324 11
3 3325 12
3 3326 31
3 3327 27
3 3328 6
3 3329 19
3 3330 9
3 3331 45
3 3332 64
3 3333 9
3 3334 3
3 3335 13
3 3336 9
3 3337 13
3 3338 2
3 3339 110
3 3340 84
3 3341 10
3 3342 360
3 3343 26
3 3344 63
3 3345 77
3 3346 15
3 3347 29
3 3348 8
3 3349 55
3 3350 9
3 3351 11
3 3352 4
3 3353 89
3 3354 13
3 3355 103
3 3356 9
3 3357 11
3 3358 11
3 3359 16
3 3360 42
3 3361 4
3 3362 12
3 3363 9
3 3364 4
3 3365 11
3 3366 9
3 3367 9
3 3368 42
3 3369 11
3 3370 12
3 3371 11
3 3372 67
3 3373 15
3 3374 19
3 3375 56
3 3376 41
3 3377 5
3 3378 16
3 3379 44
3 3380 9
3 3381 24
3 3382 9
3 3383 7
3 3384 7
3 3385 5
3 3386 54
3 3387 10
3 3388 7
3 3389 10
3 3390 20
3 3391 7
3 3392 4
3 3393 64
3 3394 13
3 3395 86
3 3396 93
3 3397 15
3 3398 1
3 3399 15
3 3400 7
3 3401 52
3 3402 56
3 3403 7
3 3404 1
3 3405 18
3 3406 15
3 3407 62
3 3408 7
3 3409 26
3 3410 13
3 3411 11
3 3412 11
3 3413 1076
3 3414 11
3 3415 9
3 3416 53
3 3417 7
3 3418 43
3 3419 11
3 3420 11
3 3421 4
3 3422 3
3 3423 12
3 3424 80
3 3425 41
3 3426 43
3 3427 11
3 3428 12
3 3429 9
3 3430 12
3 3431 54
3 3432 7
3 3433 33
3 3434 11
3 3435 5
3 3436 69
3 3437 79
3 3438 10
3 3439 9
3 3440 61
3 3441 64
3 3442 36
3 3443 13
3 3444 137
3 3445 5
3 3446 10
3 3447 7
3 3448 13
3 3449 19
3 3450 33
3 3451 31
3 3452 25
3 3453 11
3 3454 14
3 3455 2
3 3456 8
3 3457 7
3 3458 9
3 3459 30
3 3460 17
3 3461 5
3 3462 4
3 3463 8
3 3464 11
3 3465 2
3 3466 12
3 3467 280
3 3468 58
3 3469 9
3 3470 14
3 3471 3
3 3473 2
3 3474 11
3 3475 15
3 3476 12
3 3477 21
3 3478 7
3 3479 17
3 3480 36
3 3481 11
3 3482 13
3 3483 13
3 3484 8
3 3485 77
3 3486 21
3 3487 10
3 3488 6
3 3489 147
3 3490 9
3 3491 10
3 3492 6
3 3493 7
3 3494 7
3 3495 84
3 3496 17
3 3497 5
3 3498 17
3 3499 26
3 3500 12
3 3501 11
3 3502 7
3 3503 2
3 3504 15
3 3505 13
3 3506 14
3 3507 9
3 3508 12
3 3509 10
3 3510 27
3 3511 16
3 3512 11
3 3513 12
3 3514 69
3 3515 10
3 3517 106
3 3518 59
3 3519 10
3 3520 54
3 3521 93
3 3522 11
3 3523 46
3 3524 41
3 3525 51
3 3526 6
3 3527 8
3 3528 5
3 3529 15
3 3530 6
3 3531 5
3 3532 12
3 3533 5
3 3534 6
3 3535 7
3 3536 48
3 3537 38
3 3538 22
3 3539 5
3 3540 22
3 3541 6
3 3542 3
3 3543 68
3 3544 14
3 3545 65
3 3546 10
3 3547 13
3 3548 133
3 3549 8
3 3550 4
3 3551 16
3 3552 127
3 3553 19
3 3554 8
3 3555 142
3 3556 21
3 3557 14
3 3558 26
3 3559 10
3 3560 25
3 3561 46
3 3562 13
3 3563 966
3 3564 14
3 3565 15
3 3566 243
3 3567 9
3 3568 44
3 3569 68
3 3570 80
3 3571 12
3 3572 34
3 3573 11
3 3574 18
3 3575 11
3 3576 12
3 3577 17
3 3578 519
3 3579 63
3 3580 8
3 3581 52
3 3582 88
3 3583 10
3 3584 21
3 3585 48
3 3586 21
3 3587 17
3 3588 95
3 3589 6
3 3590 13
3 3591 3
3 3592 10
3 3593 8
3 3594 12
3 3595 8
3 3596 14
3 3597 5
3 3598 32
3 3599 11
3 3600 17
3 3601 7
3 3602 114
3 3603 11
3 3604 8
3 3605 974
3 3606 108
3 3607 9
3 3608 18
3 3609 11
3 3610 28
3 3611 41
3 3612 22
3 3613 33
3 3614 74
3 3615 17
3 3616 58
3 3617 23
3 3618 6
3 3619 14
3 3620 5
3 3621 7
3 3622 14
3 3623 18
3 3624 13
3 3625 45
3 3626 15
3 3627 79
3 3628 5
3 3629 32
3 3630 14
3 3631 142
3 3632 16
3 3633 51
3 3634 17
3 3635 9
3 3636 6
3 3637 15
3 3638 13
3 3639 21
3 3640 14
3 3641 11
3 3642 16
3 3643 13
3 3644 20
3 3645 4
3 3646 19
3 3647 8
3 3648 6
3 3649 11
3 3650 8
3 3651 79
3 3652 32
3 3653 20
3 3654 8
3 3655 6
3 3656 4
3 3657 6
3 3658 12
3 3659 82
3 3660 64
3 3661 6
3 3662 9
3 3663 165
3 3664 12
3 3665 15
3 3666 7
3 3667 16
3 3668 42
3 3669 79
3 3670 9
3 3671 1049
3 3672 5
3 3673 30
3 3674 6
3 3675 17
3 3676 27
3 3677 8
3 3678 1
3 3679 60
3 3680 11
3 3681 15
3 3682 13
3 3683 10
3 3684 12
3 3685 51
3 3686 12
3 3687 6
3 3688 13
3 3689 8
3 3690 21
3 3691 1281
3 3692 30
3 3693 12
3 3694 9
3 3695 41
3 3696 6
3 3697 11
3 3698 13
3 3699 8
3 3700 9
3 3701 12
3 3702 20
3 3703 31
3 3704 14
3 3705 8
3 3706 7
3 3707 36
3 3708 14
3 3709 18
3 3710 14
3 3711 9
3 3712 28
3 3713 6
3 3714 73
3 3715 16
3 3716 109
3 3717 51
3 3718 14
3 3719 13
3 3720 11
3 3721 27
3 3722 12
3 3723 7
3 3724 11
3 3725 20
3 3726 54
3 3727 31
3 3728 68
3 3729 18
3 3730 49
3 3731 23
3 3732 12
3 3733 21
3 3734 9
3 3735 11
3 3736 6
3 3737 7
3 3738 9
3 3739 16
3 3740 8
3 3741 12
3 3742 56
3 3743 5
3 3744 16
3 3745 83
3 3746 9
3 3747 93
3 3748 8
3 3749 11
3 3750 9
3 3751 35
3 3752 14
3 3753 56
3 3754 12
3 3755 70
3 3756 11
3 3757 59
3 3758 41
3 3759 6
3 3760 55
3 3761 92
3 3762 13
3 3763 13
3 3764 107
3 3765 23
3 3766 15
3 3767 9
3 3768 70
3 3769 13
3 3770 33
3 3771 7
3 3772 61
3 3773 6
3 3774 13
3 3775 15
3 3776 11
3 3777 49
3 3778 10
3 3779 11
3 3780 8
3 3781 8
3 3782 13
3 3783 74
3 3784 9
3 3785 5
3 3786 74
3 3787 13
3 3788 26
3 3789 18
3 3790 15
3 3791 77
3 3792 3
3 3793 11
3 3794 21
3 3795 39
3 3796 8
3 3797 46
3 3798 10
3 3799 18
3 3800 22
3 3801 14
3 3802 18
3 3803 72
3 3804 37
3 3805 51
3 3806 87
3 3807 14
3 3808 9
3 3809 18
3 3810 9
3 3811 69
3 3812 62
3 3813 12
3 3814 7
3 3815 27
3 3816 10
3 3817 13
3 3818 66
3 3819 16
3 3820 75
3 3821 9
3 3822 67
3 3823 5
3 3824 19
3 3825 4
3 3826 14
3 3827 18
3 3828 24
3 3829 83
3 3830 18
3 3831 15
3 3832 60
3 3833 5
3 3834 17
3 3835 58
3 3836 7
3 3837 26
3 3838 34
3 3839 152
3 3840 11
3 3841 6
3 3842 65
3 3843 8
3 3844 22
3 3845 18
3 3846 11
3 3847 5
3 3848 86
3 3849 13
3 3850 107
3 3851 15
3 3852 2
3 3853 75
3 3854 10
3 3855 23
3 3856 10
3 3857 12
3 3858 14
3 3859 9
3 3860 6
3 3861 15
3 3862 16
3 3863 20
3 3864 38
3 3865 11
3 3866 7
3 3867 9
3 3868 92
3 3869 40
3 3870 9
3 3871 15
3 3872 14
3 3873 11
3 3874 16
3 3875 17
3 3876 5
3 3877 74
3 3878 11
3 3879 16
3 3880 11
3 3881 96
3 3882 17
3 3883 71
3 3884 17
3 3885 24
3 3886 15
3 3887 4
3 3888 244
3 3889 7
3 3890 1
3 3891 10
3 3892 7
3 3893 8
3 3894 13
3 3895 11
3 3896 30
3 3897 1046
3 3898 10
3 3899 10
3 3900 9
3 3901 35
3 3902 4
3 3903 9
3 3904 7
3 3905 23
3 3906 20
3 3907 11
3 3908 122
3 3909 9
3 3910 4
3 3911 9
3 3912 16
3 3913 23
3 3914 42
3 3915 7
3 3916 19
3 3917 126
3 3918 16
3 3919 16
3 3920 36
3 3921 12
3 3922 14
3 3923 16
3 3924 43
3 3925 19
3 3926 12
3 3927 12
3 3928 76
3 3929 14
3 3930 5
3 3931 12
3 3932 3
3 3933 32
3 3934 34
3 3935 12
3 3936 7
3 3937 17
3 3938 38
3 3939 19
3 3940 61
3 3941 13
3 3942 69
3 3943 8
3 3944 54
3 3945 13
3 3946 8
3 3947 9
3 3948 12
3 3949 13
3 3950 10
3 3951 4
3 3952 278
3 3953 16
3 3954 1
3 3955 15
3 3956 6
3 3957 23
3 3958 8
3 3959 23
3 3960 14
3 3961 14
3 3962 9
3 3963 1
3 3964 33
3 3965 10
3 3966 25
3 3967 3
3 3968 40
3 3969 4
3 3970 8
3 3971 26
3 3972 6
3 3973 4
3 3974 92
3 3975 27
3 3976 95
3 3977 11
3 3978 52
3 3979 85
3 3980 31
3 3981 116
3 3982 15
3 3983 6
3 3984 13
3 3985 72
3 3986 51
3 3987 16
3 3988 14
3 3989 13
3 3990 14
3 3991 68
3 3992 15
3 3993 13
3 3994 19
3 3995 15
3 3996 15
3 3997 38
3 3998 24
3 3999 9
3 4000 27
3 4001 21
3 4002 27
3 4003 24
3 4004 46
3 4005 3
3 4006 20
3 4007 72
3 4008 8
3 4009 19
3 4010 12
3 4011 46
3 4012 8
3 4013 14
3 4014 84
3 4015 11
3 4016 1268
3 4017 5
3 4018 19
3 4019 9
3 4020 8
3 4021 4
3 4022 45
3 4023 10
3 4024 3
3 4025 4
3 4026 9
3 4027 19
3 4028 14
3 4029 12
3 4030 48
3 4031 8
3 4032 7
3 4033 17
3 4034 13
3 4035 20
3 4036 119
3 4037 9
3 4038 12
3 4039 10
3 4040 15
3 4041 10
3 4042 11
3 4043 15
3 4044 12
3 4045 15
3 4046 14
3 4047 8
3 4048 4
3 4049 13
3 4050 12
3 4051 6
3 4052 134
3 4053 17
3 4054 56
3 4055 41
3 4056 54
3 4057 5
3 4058 37
3 4059 8
3 4060 9
3 4061 64
3 4062 9
3 4063 25
3 4064 9
3 4065 11
3 4066 9
3 4067 80
3 4068 50
3 4069 94
3 4070 19
3 4071 12
3 4072 11
3 4073 6
3 4074 7
3 4075 52
3 4076 68
3 4077 16
3 4078 61
3 4079 10
3 4080 9
3 4081 13
3 4082 6
3 4083 6
3 4084 46
3 4085 112
3 4086 7
3 4087 10
3 4088 6
3 4089 8
3 4090 6
3 4091 15
3 4092 1
3 4093 62
3 4094 9
3 4095 61
3 4096 15
3 4097 440
3 4098 29
3 4099 16
3 4100 42
3 4101 4
3 4102 5
3 4103 18
3 4104 8
3 4105 10
3 4106 34
3 4107 8
3 4108 36
3 4109 11
3 4110 54
3 4111 430
3 4112 16
3 4113 20
3 4114 28
3 4115 8
3 4116 9
3 4117 5
3 4118 9
3 4119 33
3 4120 8
3 4121 12
3 4122 62
3 4123 50
3 4124 17
3 4125 37
3 4126 6
3 4127 28
3 4128 12
3 4129 20
3 4130 18
3 4131 11
3 4132 35
3 4133 31
3 4134 2
3 4135 9
3 4136 4
3 4137 9
3 4138 76
3 4139 33
3 4140 4
3 4141 295
3 4142 75
3 4143 5
3 4144 17
3 4145 11
3 4146 4
3 4147 3
3 4148 13
3 4149 3
3 4150 9
3 4151 6
3 4152 31
3 4153 31
3 4154 5
3 4155 10
3 4156 4
3 4157 27
3 4158 13
3 4159 14
3 4160 5
3 4161 14
3 4162 2
3 4163 18
3 4164 8
3 4165 8
3 4166 18
3 4167 27
3 4168 18
3 4169 11
3 4170 23
3 4171 7
3 4172 6
3 4173 61
3 4174 28
3 4175 9
3 4176 7
3 4177 71
3 4178 12
3 4179 6
3 4180 11
3 4181 31
3 4182 21
3 4183 20
3 4184 6
3 4185 5
3 4186 34
3 4187 29
3 4188 6
3 4189 19
3 4190 10
3 4191 5
3 4192 26
3 4193 5
3 4194 8
3 4195 10
3 4196 12
3 4197 13
3 4198 14
3 4199 22
3 4200 12
3 4201 21
3 4202 10
3 4203 22
3 4204 13
3 4205 19
3 4206 7
3 4207 77
3 4208 10
3 4209 3
3 4210 24
3 4211 16
3 4212 19
3 4213 228
3 4214 75
3 4215 42
3 4216 15
3 4217 15
3 4218 62
3 4219 72
3 4220 7
3 4221 77
3 4222 12
3 4223 22
3 4224 69
3 4225 35
3 4226 4
3 4227 4
3 4228 26
3 4229 9
3 4230 11
3 4231 10
3 4232 5
3 4233 10
3 4234 12
3 4235 2
3 4236 19
3 4237 11
3 4238 10
3 4239 11
3 4240 15
3 4241 49
3 4242 13
3 4243 23
3 4244 98
3 4245 29
3 4246 31
3 4247 15
3 4248 21
3 4249 14
3 4250 44
3 4251 13
3 4252 7
3 4253 19
3 4254 16
3 4255 8
3 4256 8
3 4257 25
3 4258 16
3 4259 62
3 4260 6
3 4261 6
3 4262 129
3 4263 16
3 4264 13
3 4265 9
3 4266 20
3 4267 81
3 4268 25
3 4269 9
3 4270 12
3 4271 16
3 4272 16
3 4273 29
3 4274 10
3 4275 24
3 4276 37
3 4277 12
3 4278 7
3 4279 32
3 4280 5
3 4281 5
3 4282 20
3 4283 12
3 4284 17
3 4285 25
3 4286 11
3 4287 26
3 4288 5
3 4289 5
3 4290 10
3 4291 10
3 4292 15
3 4293 9
3 4294 87
3 4295 12
3 4296 48
3 4297 7
3 4298 13
3 4299 12
3 4300 21
3 4301 36
3 4302 4
3 4303 42
3 4304 13
3 4306 6
3 4307 10
3 4308 11
3 4309 47
3 4310 67
3 4311 10
3 4312 20
3 4313 88
3 4314 23
3 4315 14
3 4316 10
3 4317 14
3 4318 18
3 4319 61
3 4320 13
3 4321 4
3 4322 22
3 4323 14
3 4324 17
3 4325 6
3 4326 71
3 4327 6
3 4328 43
3 4329 11
3 4330 6
3 4331 13
3 4332 2
3 4333 18
3 4334 5
3 4335 29
3 4336 94
3 4337 31
3 4338 34
3 4339 5
3 4340 14
3 4341 15
3 4342 9
3 4343 111
3 4344 55
3 4345 34
3 4346 13
3 4347 15
3 4348 7
3 4349 63
3 4350 9
3 4351 13
3 4352 11
3 4353 18
3 4354 4
3 4355 17
3 4356 69
3 4357 11
3 4358 10
3 4359 12
3 4360 9
3 4361 10
3 4362 4
3 4363 15
3 4364 32
3 4365 10
3 4366 31
3 4367 15
3 4368 10
3 4369 18
3 4370 1144
3 4371 74
3 4372 7
3 4373 10
3 4374 6
3 4375 9
3 4376 13
3 4377 18
3 4378 23
3 4379 7
3 4380 35
3 4381 17
3 4382 4
3 4383 10
3 4384 49
3 4385 6
3 4386 8
3 4387 27
3 4388 19
3 4389 10
3 4390 21
3 4391 8
3 4392 3
3 4393 7
3 4394 17
3 4395 14
3 4396 37
3 4397 11
3 4398 16
3 4399 10
3 4400 19
3 4401 10
3 4402 45
3 4403 54
3 4404 7
3 4405 18
3 4406 18
3 4407 21
3 4408 19
3 4409 940
3 4410 59
3 4411 5
3 4412 11
3 4413 13
3 4414 1026
3 4415 19
3 4416 20
3 4417 3
3 4418 115
3 4419 10
3 4420 35
3 4421 8
3 4422 5
3 4423 13
3 4424 195
3 4425 56
3 4426 72
3 4427 29
3 4428 6
3 4429 4
3 4430 11
3 4431 2
3 4432 3
3 4433 16
3 4434 17
3 4435 3
3 4436 2
3 4437 16
3 4438 7
3 4439 10
3 4440 16
3 4441 11
3 4442 8
3 4443 25
3 4444 5
3 4445 4
3 4446 4
3 4447 8
3 4448 6
3 4449 1
3 4450 58
3 4451 14
3 4452 13
3 4453 5
3 4454 10
3 4455 7
3 4456 9
3 4457 8
3 4458 15
3 4459 11
3 4460 17
3 4461 3
3 4462 22
3 4463 31
3 4464 26
3 4465 94
3 4466 7
3 4467 13
3 4468 38
3 4469 61
3 4470 19
3 4471 24
3 4472 8
3 4473 11
3 4474 15
3 4475 19
3 4476 2
3 4477 25
3 4478 12
3 4479 16
3 4480 18
3 4481 13
3 4482 11
3 4483 10
3 4484 20
3 4485 13
3 4486 18
3 4487 67
3 4488 13
3 4489 6
3 4490 370
3 4491 22
3 4492 13
3 4493 3
3 4494 2
3 4495 52
3 4496 10
3 4497 11
3 4498 9
3 4499 17
3 4500 10
3 4501 19
3 4502 27
3 4503 23
3 4504 59
3 4505 6
3 4506 12
3 4507 11
3 4508 2
3 4509 52
3 4510 81
3 4511 11
3 4512 5
3 4513 48
3 4514 89
3 4515 10
3 4516 55
3 4517 29
3 4518 8
3 4519 10
3 4520 15
3 4521 6
3 4522 13
3 4523 156
3 4524 11
3 4525 12
3 4526 11
3 4527 17
3 4528 6
3 4529 9
3 4530 105
3 4531 6
3 4532 24
3 4533 12
3 4534 17
3 4535 17
3 4536 5
3 4537 7
3 4538 60
3 4539 33
3 4540 6
3 4541 73
3 4542 14
3 4543 25
3 4544 51
3 4545 35
3 4546 6
3 4547 5
3 4548 17
3 4549 1179
3 4550 10
3 4551 14
3 4552 26
3 4553 45
3 4554 3
3 4555 43
3 4556 17
3 4557 6
3 4558 9
3 4559 67
3 4560 59
3 4561 16
3 4562 9
3 4563 9
3 4564 18
3 4565 66
3 4566 30
3 4567 24
3 4568 10
3 4569 8
3 4570 7
3 4572 52
3 4573 20
3 4574 40
3 4575 77
3 4576 14
3 4577 12
3 4578 16
3 4579 17
3 4580 925
3 4581 10
3 4582 11
3 4583 23
3 4584 6
3 4585 13
3 4586 15
3 4587 10
3 4588 12
3 4589 11
3 4590 5
3 4591 30
3 4592 10
3 4593 39
3 4594 10
3 4595 5
3 4596 10
3 4597 19
3 4598 79
3 4599 12
3 4600 7
3 4601 32
3 4602 8
3 4603 4
3 4604 26
3 4605 13
3 4606 33
3 4607 7
3 4608 40
3 4609 40
3 4610 113
3 4611 5
3 4612 33
3 4613 5
3 4614 16
3 4615 7
3 4616 11
3 4617 16
3 4618 4
3 4619 2
3 4620 12
3 4621 13
3 4622 8
3 4623 34
3 4624 46
3 4625 17
3 4626 12
3 4627 5
3 4628 10
3 4629 7
3 4630 20
3 4631 5
3 4632 18
3 4633 12
3 4634 42
3 4635 46
3 4636 15
3 4637 11
3 4638 19
3 4639 14
3 4640 85
3 4641 47
3 4642 15
3 4643 34
3 4644 92
3 4645 578
3 4646 9
3 4647 74
3 4648 26
3 4649 15
3 4650 16
3 4651 46
3 4652 9
3 4653 14
3 4654 12
3 4655 5
3 4656 38
3 4657 9
3 4658 12
3 4659 7
3 4660 6
3 4661 6
3 4662 7
3 4663 10
3 4664 62
3 4665 67
3 4666 11
3 4667 12
3 4668 47
3 4669 15
3 4670 7
3 4671 6
3 4672 9
3 4673 15
3 4674 8
3 4675 112
3 4676 8
3 4677 6
3 4678 460
3 4679 10
3 4680 12
3 4681 16
3 4682 202
3 4683 6
3 4684 10
3 4685 13
3 4686 21
3 4687 11
3 4688 18
3 4689 9
3 4690 4
3 4691 8
3 4692 42
3 4693 11
3 4694 15
3 4695 69
3 4696 15
3 4697 14
3 4698 13
3 4699 11
3 4700 8
3 4701 9
3 4702 191
3 4703 27
3 4704 53
3 4705 6
3 4706 10
3 4707 6
3 4708 22
3 4709 8
3 4710 9
3 4711 6
3 4712 6
3 4713 37
3 4714 12
3 4715 18
3 4716 6
3 4717 11
3 4718 231
3 4719 13
3 4720 111
3 4721 11
3 4722 6
3 4723 8
3 4724 8
3 4725 4
3 4726 9
3 4727 19
3 4728 11
3 4729 16
3 4730 11
3 4731 18
3 4732 7
3 4733 9
3 4734 15
3 4735 19
3 4736 13
3 4737 79
3 4738 18
3 4739 74
3 4740 37
3 4741 10
3 4742 13
3 4743 48
3 4744 9
3 4745 12
3 4746 6
3 4747 9
3 4748 36
3 4749 8
3 4750 15
3 4751 15
3 4752 6
3 4753 10
3 4754 299
3 4755 39
3 4756 10
3 4757 6
3 4758 7
3 4759 22
3 4760 18
3 4761 5
3 4762 18
3 4763 12
3 4764 55
3 4765 10
3 4766 1075
3 4767 9
3 4768 14
3 4769 11
3 4770 14
3 4771 73
3 4772 6
3 4773 102
3 4774 63
3 4775 7
3 4776 78
3 4777 20
3 4778 10
3 4779 7
3 4780 23
3 4781 9
3 4782 37
3 4783 6
3 4784 14
3 4785 10
3 4786 4
3 4787 69
3 4788 85
3 4789 4
3 4790 10
3 4791 9
3 4792 12
3 4793 18
3 4794 11
3 4795 10
3 4796 9
3 4797 16
3 4798 22
3 4799 11
3 4800 17
3 4801 14
3 4802 9
3 4803 60
3 4804 95
3 4805 114
3 4806 3
3 4807 74
3 4808 25
3 4809 9
3 4810 21
3 4811 10
3 4812 7
3 4813 21
3 4814 18
3 4815 9
3 4816 8
3 4817 13
3 4818 21
3 4819 19
3 4820 16
3 4821 10
3 4822 60
3 4823 12
3 4824 20
3 4825 8
3 4826 69
3 4827 10
3 4828 35
3 4829 8
3 4830 16
3 4831 15
3 4832 25
3 4833 42
3 4834 13
3 4835 5
3 4836 64
3 4837 9
3 4838 12
3 4839 12
3 4840 3
3 4841 79
3 4842 54
3 4843 4
3 4844 10
3 4845 10
3 4846 16
3 4847 7
3 4848 159
3 4849 8
3 4850 13
3 4851 6
3 4852 13
3 4853 74
3 4854 12
3 4855 14
3 4856 10
3 4857 9
3 4858 11
3 4859 4
3 4860 7
3 4861 46
3 4862 6
3 4863 31
3 4864 5
3 4865 9
3 4866 9
3 4867 9
3 4868 66
3 4869 6
3 4870 12
3 4871 9
3 4872 23
3 4873 69
3 4874 6
3 4875 8
3 4876 9
3 4877 10
3 4878 9
3 4879 48
3 4880 83
3 4881 10
3 4882 15
3 4883 3
3 4884 12
3 4885 28
3 4886 17
3 4887 4
3 4888 33
3 4889 11
3 4890 215
3 4891 48
3 4892 137
3 4893 68
3 4894 257
3 4895 14
3 4896 75
3 4897 102
3 4898 13
3 4899 13
3 4900 55
3 4901 73
3 4902 65
3 4903 14
3 4904 7
3 4905 6
3 4906 96
3 4907 69
3 4908 9
3 4909 7
3 4910 14
3 4911 6
3 4912 25
3 4913 137
3 4914 7
3 4915 5
3 4916 6
3 4917 11
3 4918 15
3 4919 12
3 4920 112
3 4921 13
3 4922 64
3 4923 9
3 4924 16
3 4925 15
3 4926 2
3 4927 11
3 4928 18
3 4929 23
3 4930 26
3 4931 891
3 4932 8
3 4933 6
3 4934 16
3 4935 9
3 4936 9
3 4937 25
3 4938 6
3 4939 71
3 4940 16
3 4941 16
3 4942 16
3 4943 7
3 4944 67
3 4945 7
3 4946 7
3 4947 11
3 4948 13
3 4949 11
3 4950 30
3 4951 4
3 4952 2
3 4953 10
3 4954 16
3 4955 8
3 4956 6
3 4957 8
3 4958 59
3 4959 27
3 4960 50
3 4961 8
3 4962 47
3 4963 7
3 4964 34
3 4965 9
3 4966 76
3 4967 11
3 4968 18
3 4969 12
3 4970 14
3 4971 21
3 4972 102
3 4973 36
3 4974 3
3 4975 12
3 4976 72
3 4977 8
3 4978 14
3 4979 21
3 4980 13
3 4981 46
3 4982 23
3 4983 9
3 4984 3
3 4985 49
3 4986 8
3 4987 11
3 4988 28
3 4989 14
3 4990 14
3 4991 6
3 4992 10
3 4993 1236
3 4994 38
3 4995 6
3 4996 16
3 4997 8
3 4998 3
3 4999 30
3 5000 62
3 5001 12
3 5002 12
3 5003 11
3 5004 15
3 5005 8
3 5006 119
3 5007 7
3 5008 8
3 5009 7
3 5010 1
3 5011 8
3 5012 11
3 5013 17
3 5014 19
3 5015 11
3 5016 67
3 5017 6
3 5018 24
3 5019 17
3 5020 51
3 5021 11
3 5022 5
3 5023 49
3 5024 159
3 5025 14
3 5026 11
3 5027 5
3 5028 27
3 5029 10
3 5030 10
3 5031 7
3 5032 5
3 5033 44
3 5034 6
3 5035 6
3 5036 14
3 5037 41
3 5038 8
3 5039 17
3 5040 8
3 5041 7
3 5042 4
3 5043 13
3 5044 3
3 5045 6
3 5046 9
3 5047 39
3 5048 13
3 5049 6
3 5050 3
3 5051 27
3 5052 34
3 5053 14
3 5054 39
3 5055 9
3 5056 25
3 5057 11
3 5058 117
3 5059 10
3 5060 4
3 5061 3
3 5062 20
3 5063 18
3 5064 14
3 5065 9
3 5066 74
3 5067 13
3 5068 9
3 5069 13
3 5070 4
3 5071 405
3 5072 17
3 5073 48
3 5074 22
3 5075 28
3 5076 79
3 5077 41
3 5078 6
3 5079 23
3 5080 7
3 5081 8
3 5082 3
3 5083 20
3 5084 7
3 5085 17
3 5086 33
3 5087 14
3 5088 14
3 5089 20
3 5090 2
3 5091 3
3 5092 10
3 5093 14
3 5094 43
3 5095 14
3 5096 16
3 5097 46
3 5098 13
3 5099 8
3 5100 47
3 5101 14
3 5102 20
3 5103 10
3 5104 13
3 5105 20
3 5106 79
3 5107 9
3 5108 6
3 5109 17
3 5110 66
3 5111 12
3 5112 23
3 5113 37
3 5114 22
3 5115 10
3 5116 32
3 5117 104
3 5118 62
3 5119 19
3 5120 18
3 5121 7
3 5122 16
3 5123 15
3 5124 78
3 5125 13
3 5126 5
3 5127 19
3 5128 16
3 5129 14
3 5130 34
3 5131 49
3 5132 4
3 5133 6
3 5134 33
3 5135 67
3 5136 13
3 5137 1
3 5138 17
3 5139 4
3 5140 12
3 5141 12
3 5142 24
3 5143 10
3 5144 8
3 5145 11
3 5146 56
3 5147 13
3 5148 8
3 5149 19
3 5150 5
3 5151 46
3 5152 12
3 5153 22
3 5154 8
3 5155 12
3 5156 13
3 5157 30
3 5158 11
3 5159 3
3 5160 13
3 5161 11
3 5162 8
3 5163 4
3 5164 7
3 5165 21
3 5166 11
3 5167 6
3 5168 21
3 5169 27
3 5170 11
3 5171 215
3 5172 7
3 5173 91
3 5174 7
3 5175 4
3 5176 11
3 5177 16
3 5178 2
3 5179 21
3 5180 11
3 5181 10
3 5182 25
3 5183 11
3 5184 13
3 5185 25
3 5186 58
3 5187 15
3 5188 10
3 5189 11
3 5190 55
3 5191 13
3 5192 7
3 5193 9
3 5194 7
3 5195 114
3 5196 8
3 5197 11
3 5198 9
3 5199 129
3 5200 7
3 5201 15
3 5202 12
3 5203 16
3 5204 7
3 5205 76
3 5206 12
3 5207 70
3 5208 6
3 5209 5
3 5210 9
3 5211 91
3 5212 14
3 5213 12
3 5214 6
3 5215 46
3 5216 66
3 5217 29
3 5218 5
3 5219 141
3 5220 23
3 5221 13
3 5222 12
3 5223 66
3 5224 5
3 5225 5
3 5226 10
3 5227 9
3 5228 5
3 5229 9
3 5230 8
3 5231 630
3 5232 12
3 5233 6
3 5234 20
3 5235 68
3 5236 10
3 5237 43
3 5238 58
3 5239 79
3 5240 19
3 5241 7
3 5242 39
3 5243 60
3 5244 4
3 5245 9
3 5246 5
3 5247 17
3 5248 5
3 5249 4
3 5250 5
3 5251 5
3 5252 44
3 5253 11
3 5254 20
3 5255 6
3 5256 53
3 5257 30
3 5258 17
3 5259 51
3 5260 20
3 5261 48
3 5262 8
3 5263 7
3 5264 78
3 5265 12
3 5266 15
3 5267 13
3 5268 72
3 5269 2
3 5270 25
3 5271 9
3 5272 33
3 5273 5
3 5274 1
3 5275 2
3 5276 12
3 5277 15
3 5278 10
3 5279 48
3 5280 16
3 5281 8
3 5282 9
3 5283 57
3 5284 53
3 5285 6
3 5286 11
3 5287 3
3 5288 43
3 5289 4
3 5290 19
3 5291 68
3 5292 11
3 5293 5
3 5294 6
3 5295 23
3 5296 17
3 5297 10
3 5298 11
3 5299 64
3 5300 35
3 5301 4
3 5302 8
3 5303 10
3 5304 12
3 5305 14
3 5306 9
3 5307 29
3 5308 137
3 5309 6
3 5310 19
3 5311 15
3 5312 9
3 5313 54
3 5314 12
3 5315 5
3 5316 6
3 5317 9
3 5318 72
3 5319 94
3 5320 18
3 5321 9
3 5322 76
3 5323 13
3 5324 36
3 5325 5
3 5326 52
3 5327 83
3 5328 111
3 5329 6
3 5330 101
3 5331 7
3 5332 14
3 5333 5
3 5334 18
3 5335 18
3 5336 46
3 5337 22
3 5338 48
3 5339 17
3 5340 8
3 5341 9
3 5342 10
3 5343 12
3 5344 13
3 5345 8
3 5346 9
3 5347 17
3 5348 38
3 5349 19
3 5350 13
3 5351 10
3 5352 19
3 5353 11
3 5354 5
3 5355 57
3 5356 9
3 5357 28
3 5358 15
3 5359 89
3 5360 92
3 5361 5
3 5362 17
3 5363 4
3 5364 6
3 5365 70
3 5366 39
3 5367 2
3 5368 17
3 5369 38
3 5370 7
3 5371 9
3 5372 10
3 5373 25
3 5374 11
3 5375 37
3 5376 14
3 5377 71
3 5378 9
3 5379 11
3 5380 15
3 5381 7
3 5382 61
3 5383 23
3 5384 33
3 5385 8
3 5386 23
3 5387 12
3 5388 15
3 5389 10
3 5390 34
3 5391 46
3 5392 2
3 5393 10
3 5394 16
3 5395 64
3 5396 10
3 5397 40
3 5398 31
3 5399 9
3 5400 15
3 5401 15
3 5402 7
3 5403 7
3 5404 19
3 5405 10
3 5406 67
3 5407 14
3 5408 11
3 5409 17
3 5410 4
3 5411 11
3 5412 13
3 5413 6
3 5414 7
3 5415 11
3 5416 9
3 5417 16
3 5418 7
3 5419 5
3 5420 13
3 5421 40
3 5422 13
3 5423 14
3 5424 8
3 5425 28
3 5426 15
3 5427 9
3 5428 33
3 5429 10
3 5430 81
3 5431 11
3 5432 38
3 5433 11
3 5434 36
3 5435 11
3 5436 24
3 5437 59
3 5438 22
3 5439 88
3 5440 17
3 5441 114
3 5442 7
3 5443 10
3 5444 14
3 5445 12
3 5446 8
3 5447 10
3 5448 59
3 5449 4
3 5450 1
3 5451 840
3 5452 28
3 5453 6
3 5454 51
3 5455 6
3 5456 37
3 5457 21
3 5458 14
3 5459 10
3 5460 8
3 5461 48
3 5462 29
3 5463 81
3 5464 80
3 5465 4
3 5466 9
3 5467 5
3 5468 2
3 5469 12
3 5470 19
3 5471 9
3 5472 48
3 5473 3
3 5474 9
3 5475 9
3 5476 29
3 5477 202
3 5478 8
3 5479 6
3 5480 10
3 5481 4
3 5483 5
3 5484 18
3 5485 3
3 5486 6
3 5487 14
3 5488 16
3 5489 13
3 5490 17
3 5491 20
3 5492 16
3 5493 10
3 5494 14
3 5495 60
3 5496 89
3 5497 66
3 5498 5
3 5499 10
3 5500 13
3 5501 34
3 5502 13
3 5503 19
3 5504 10
3 5505 7
3 5506 21
3 5507 52
3 5508 9
3 5509 3
3 5510 24
3 5511 5
3 5512 6
3 5513 18
3 5514 6
3 5515 10
3 5516 9
3 5517 18
3 5518 43
3 5519 9
3 5520 9
3 5521 15
3 5522 14
3 5523 216
3 5524 6
3 5525 887
3 5526 14
3 5527 38
3 5528 21
3 5529 3
3 5530 10
3 5531 21
3 5532 9
3 5533 12
3 5534 3
3 5535 59
3 5536 17
3 5537 6
3 5538 6
3 5539 4
3 5540 3
3 5541 19
3 5542 5
3 5543 13
3 5544 11
3 5545 59
3 5546 7
3 5547 11
3 5548 10
3 5549 2
3 5550 39
3 5551 104
3 5552 16
3 5553 12
3 5554 45
3 5555 12
3 5556 7
3 5557 19
3 5558 29
3 5559 59
3 5560 6
3 5561 5
3 5562 7
3 5563 6
3 5564 40
3 5565 77
3 5566 8
3 5567 8
3 5568 31
3 5569 4
3 5570 17
3 5571 11
3 5572 3
3 5573 7
3 5574 15
3 5575 31
3 5576 68
3 5577 12
3 5578 11
3 5579 5
3 5580 32
3 5581 21
3 5582 8
3 5583 10
3 5584 12
3 5585 6
3 5586 7
3 5587 5
3 5588 10
3 5589 7
3 5590 5
3 5591 34
3 5592 7
3 5593 17
3 5594 21
3 5595 8
3 5596 9
3 5597 8
3 5598 15
3 5599 5
3 5600 16
3 5601 4
3 5602 7
3 5603 89
3 5604 672
3 5605 6
3 5606 6
3 5607 21
3 5608 10
3 5609 15
3 5610 25
3 5611 8
3 5612 83
3 5613 61
3 5614 37
3 5615 6
3 5616 3
3 5617 10
3 5618 5
3 5619 7
3 5620 4
3 5621 13
3 5622 11
3 5623 17
3 5624 10
3 5625 7
3 5626 1
3 5627 9
3 5628 53
3 5629 122
3 5630 6
3 5631 6
3 5632 12
3 5633 10
3 5634 4
3 5635 152
3 5636 13
3 5637 13
3 5638 4
3 5639 1101
3 5640 21
3 5641 25
3 5642 8
3 5643 8
3 5644 77
3 5645 87
3 5646 6
3 5647 2
3 5648 2
3 5649 12
3 5650 27
3 5651 114
3 5652 33
3 5653 15
3 5654 69
3 5655 4
3 5656 4
3 5657 12
3 5658 9
3 5659 25
3 5660 20
3 5661 4
3 5662 13
3 5663 6
3 5664 15
3 5665 22
3 5666 11
3 5667 1
3 5668 25
3 5669 6
3 5670 30
3 5671 6
3 5672 4
3 5673 14
3 5674 6
3 5675 6
3 5676 5
3 5677 66
3 5678 6
3 5679 13
3 5680 26
3 5681 7
3 5682 96
3 5683 6
3 5684 46
3 5685 46
3 5686 11
3 5687 13
3 5688 6
3 5689 11
3 5690 5
3 5691 12
3 5692 11
3 5693 14
3 5694 45
3 5695 19
3 5696 10
3 5697 7
3 5698 5
3 5699 35
3 5700 3
3 5701 18
3 5702 119
3 5703 3
3 5704 62
3 5706 9
3 5707 10
3 5708 26
3 5709 9
3 5710 4
3 5711 18
3 5712 6
3 5713 3
3 5714 60
3 5715 6
3 5716 3
3 5717 4
3 5718 29
3 5719 4
3 5720 9
3 5721 57
3 5722 6
3 5723 3
3 5725 11
3 5726 7
3 5727 19
3 5728 7
3 5729 47
3 5731 23
3 5732 82
3 5733 8
3 5734 7
3 5735 73
3 5736 8
3 5737 11
3 5738 19
3 5739 5
3 5740 7
3 5741 118
3 5742 44
3 5743 30
3 5744 10
3 5745 21
3 5746 18
3 5747 13
3 5748 55
3 5749 15
3 5750 14
3 5751 6
3 5752 6
3 5753 5
3 5754 10
3 5755 11
3 5756 8
3 5757 10
3 5758 11
3 5759 10
3 5760 5
3 5761 7
3 5762 11
3 5763 13
3 5764 28
3 5765 13
3 5766 13
3 5767 15
3 5768 93
3 5769 25
3 5770 32
3 5771 15
3 5772 12
3 5773 9
3 5774 33
3 5775 47
3 5776 9
3 5777 10
3 5778 13
3 5779 57
3 5780 43
3 5781 13
3 5782 1
3 5783 51
3 5784 70
3 5785 10
3 5786 16
3 5787 12
3 5788 11
3 5789 7
3 5790 24
3 5791 18
3 5792 4
3 5793 7
3 5794 8
3 5795 51
3 5796 39
3 5797 17
3 5798 6
3 5799 30
3 5800 9
3 5801 214
3 5802 7
3 5803 7
3 5804 8
3 5805 3
3 5806 10
3 5807 5
3 5808 12
3 5809 6
3 5810 8
3 5811 11
3 5812 10
3 5813 23
3 5814 8
3 5815 21
3 5816 11
3 5817 7
3 5818 7
3 5819 53
3 5820 5
3 5821 79
3 5822 40
3 5823 12
3 5824 9
3 5825 49
3 5826 22
3 5827 8
3 5828 10
3 5829 82
3 5830 5
3 5831 8
3 5832 5
3 5833 3
3 5834 11
3 5835 19
3 5836 4
3 5837 76
3 5838 10
3 5839 15
3 5840 8
3 5841 169
3 5842 68
3 5843 69
3 5844 13
3 5845 10
3 5846 15
3 5847 18
3 5848 6
3 5849 16
3 5850 18
3 5851 12
3 5852 12
3 5853 15
3 5854 14
3 5855 2
3 5856 15
3 5857 11
3 5858 12
3 5859 53
3 5860 3
3 5861 18
3 5862 4
3 5863 29
3 5864 8
3 5865 29
3 5866 8
3 5867 99
3 5868 8
3 5869 13
3 5870 9
3 5871 15
3 5872 138
3 5873 10
3 5874 9
3 5875 120
3 5876 12
3 5877 5
3 5878 23
3 5879 5
3 5880 29
3 5881 9
3 5882 13
3 5883 6
3 5884 6
3 5885 2
3 5886 12
3 5887 17
3 5888 1
3 5889 29
3 5890 3
3 5891 8
3 5892 16
3 5893 7
3 5894 9
3 5895 7
3 5896 54
3 5897 2
3 5898 16
3 5899 11
3 5900 15
3 5901 16
3 5902 186
3 5903 12
3 5904 24
3 5905 158
3 5906 12
3 5907 13
3 5908 21
3 5909 8
3 5910 12
3 5911 13
3 5912 161
3 5913 12
3 5914 9
3 5915 8
3 5916 39
3 5917 35
3 5918 14
3 5919 5
3 5920 17
3 5921 5
3 5922 10
3 5923 6
3 5924 6
3 5925 7
3 5926 115
3 5927 26
3 5928 8
3 5929 87
3 5930 57
3 5931 36
3 5932 4
3 5933 8
3 5934 5
3 5935 7
3 5936 13
3 5937 12
3 5938 14
3 5939 14
3 5940 17
3 5941 11
3 5942 22
3 5943 83
3 5944 11
3 5945 6
3 5946 14
3 5947 18
3 5948 16
3 5949 6
3 5950 2
3 5951 11
3 5952 65
3 5953 40
3 5954 25
3 5955 95
3 5956 10
3 5957 9
3 5958 8
3 5959 12
3 5960 47
3 5961 14
3 5962 4
3 5963 41
3 5964 13
3 5965 26
3 5966 10
3 5967 6
3 5968 12
3 5969 75
3 5970 7
3 5971 58
3 5972 11
3 5973 5
3 5974 16
3 5975 39
3 5976 9
3 5977 46
3 5978 6
3 5979 10
3 5980 30
3 5981 11
3 5982 56
3 5983 15
3 5984 50
3 5985 135
3 5986 13
3 5987 8
3 5988 39
3 5989 29
3 5990 9
3 5991 9
3 5992 20
3 5993 5
3 5994 45
3 5995 15
3 5996 14
3 5997 56
3 5998 38
3 5999 9
3 6000 7
3 6001 5
3 6002 58
3 6003 5
3 6004 504
3 6005 36
3 6006 33
3 6007 12
3 6008 3
3 6009 9
3 6010 10
3 6011 5
3 6012 6
3 6013 61
3 6014 11
3 6015 20
3 6016 24
3 6017 11
3 6018 24
3 6019 211
3 6020 39
3 6021 16
3 6022 11
3 6023 15
3 6024 19
3 6025 20
3 6026 10
3 6027 11
3 6028 9
3 6029 17
3 6030 9
3 6031 20
3 6032 10
3 6033 63
3 6034 20
3 6035 6
3 6036 12
3 6037 3
3 6038 99
3 6039 14
3 6040 19
3 6041 1
3 6042 9
3 6043 17
3 6044 8
3 6045 42
3 6046 5
3 6047 5
3 6048 11
3 6049 9
3 6050 13
3 6051 8
3 6052 10
3 6053 2
3 6054 12
3 6055 14
3 6056 7
3 6057 8
3 6058 12
3 6059 13
3 6060 49
3 6061 8
3 6062 57
3 6063 8
3 6064 37
3 6065 15
3 6066 5
3 6067 7
3 6068 114
3 6069 8
3 6070 7
3 6071 9
3 6072 8
3 6073 864
3 6074 10
3 6075 12
3 6076 12
3 6077 80
3 6078 10
3 6079 17
3 6080 6
3 6081 11
3 6082 7
3 6083 13
3 6084 8
3 6085 5
3 6086 10
3 6087 8
3 6088 36
3 6089 28
3 6090 6
3 6091 4
3 6092 22
3 6093 9
3 6094 6
3 6095 13
3 6096 9
3 6097 204
3 6098 12
3 6099 43
3 6100 15
3 6101 6
3 6102 13
3 6103 10
3 6104 2
3 6105 16
3 6106 7
3 6107 35
3 6108 13
3 6109 12
3 6110 14
3 6111 9
3 6112 12
3 6113 22
3 6114 14
3 6115 10
3 6116 26
3 6117 104
3 6118 9
3 6119 167
3 6120 14
3 6121 22
3 6122 64
3 6123 77
3 6124 17
3 6125 6
3 6126 8
3 6127 6
3 6128 122
3 6129 62
3 6130 15
3 6131 12
3 6132 11
3 6133 19
3 6134 5
3 6135 25
3 6136 8
3 6137 41
3 6138 13
3 6139 18
3 6140 6
3 6141 17
3 6142 61
3 6143 64
3 6144 4
3 6145 15
3 6146 24
3 6147 10
3 6148 9
3 6149 53
3 6150 79
3 6151 9
3 6152 16
3 6153 51
3 6154 10
3 6155 7
3 6156 59
3 6157 15
3 6158 7
3 6159 11
3 6160 22
3 6161 13
3 6162 27
3 6163 10
3 6164 16
3 6165 10
3 6166 55
3 6167 11
3 6168 10
3 6169 36
3 6170 15
3 6171 53
3 6172 6
3 6173 8
3 6174 69
3 6175 11
3 6176 11
3 6177 35
3 6178 14
3 6179 18
3 6180 14
3 6181 20
3 6182 17
3 6183 24
3 6184 84
3 6185 7
3 6186 18
3 6187 16
3 6188 15
3 6189 61
3 6190 19
3 6191 10
3 6192 8
3 6193 6
3 6194 60
3 6195 22
3 6196 37
3 6197 25
3 6198 44
3 6199 16
3 6200 43
3 6201 45
3 6202 18
3 6203 78
3 6204 9
3 6205 112
3 6206 10
3 6207 11
3 6208 2
3 6209 10
3 6210 42
3 6211 32
3 6212 11
3 6213 15
3 6214 80
3 6215 88
3 6216 9
3 6217 6
3 6218 56
3 6219 14
3 6220 182
3 6221 8
3 6222 31
3 6223 6
3 6224 13
3 6225 10
3 6226 13
3 6227 14
3 6228 3
3 6229 15
3 6230 8
3 6231 4
3 6232 7
3 6233 9
3 6234 65
3 6235 6
3 6236 13
3 6237 14
3 6238 49
3 6239 9
3 6240 18
3 6241 17
3 6242 11
3 6243 13
3 6244 23
3 6245 42
3 6246 88
3 6247 8
3 6248 8
3 6249 67
3 6250 3
3 6251 11
3 6252 9
3 6253 17
3 6254 32
3 6255 72
3 6257 12
3 6258 16
3 6259 19
3 6260 55
3 6261 11
3 6262 1030
3 6263 93
3 6264 11
3 6265 3
3 6266 15
3 6267 11
3 6268 9
3 6269 6
3 6270 61
3 6271 27
3 6272 4
3 6273 18
3 6274 12
3 6275 5
3 6276 36
3 6277 26
3 6278 8
3 6279 11
3 6280 46
3 6281 8
3 6282 11
3 6283 10
3 6284 4
3 6285 15
3 6286 9
3 6287 27
3 6288 72
3 6289 32
3 6290 3
3 6291 13
3 6292 59
3 6293 11
3 6294 8
3 6295 16
3 6296 34
3 6297 185
3 6298 13
3 6299 6
3 6300 67
3 6301 6
3 6302 10
3 6303 14
3 6304 14
3 6305 29
3 6306 21
3 6307 8
3 6308 15
3 6309 9
3 6310 68
3 6311 21
3 6312 9
3 6313 11
3 6314 10
3 6315 51
3 6316 21
3 6317 4
3 6318 11
3 6319 53
3 6320 7
3 6321 4
3 6322 13
3 6323 11
3 6324 10
3 6325 10
3 6326 5
3 6327 11
3 6328 13
3 6329 83
3 6330 13
3 6331 43
3 6332 18
3 6333 9
3 6334 96
3 6335 14
3 6336 49
3 6337 8
3 6338 18
3 6339 13
3 6340 8
3 6341 58
3 6342 17
3 6343 47
3 6344 7
3 6345 13
3 6346 11
3 6347 8
3 6348 7
3 6349 2
3 6350 13
3 6351 21
3 6352 24
3 6353 11
3 6354 25
3 6355 8
3 6356 8
3 6357 37
3 6358 12
3 6359 3
3 6360 23
3 6361 33
3 6362 9
3 6363 13
3 6364 5
3 6365 51
3 6366 6
3 6368 71
3 6369 95
3 6370 11
3 6371 8
3 6372 4
3 6373 13
3 6374 17
3 6375 15
3 6376 6
3 6377 9
3 6378 5
3 6379 15
3 6381 5
3 6382 6
3 6383 66
3 6384 209
3 6385 5
3 6386 11
3 6387 90
3 6388 4
3 6389 1
3 6390 15
3 6391 9
3 6392 144
3 6393 15
3 6394 4
3 6395 6
3 6396 21
3 6397 11
3 6398 11
3 6399 6
3 6400 10
3 6401 12
3 6402 8
3 6403 19
3 6404 11
3 6405 21
3 6406 29
3 6407 5
3 6408 5
3 6409 10
3 6410 4
3 6411 12
3 6412 7
3 6413 7
3 6414 13
3 6415 38
3 6416 4
3 6417 72
3 6418 59
3 6419 11
3 6420 5
3 6421 42
3 6422 18
3 6423 19
3 6424 20
3 6425 31
3 6426 29
3 6427 7
3 6428 15
3 6429 6
3 6430 5
3 6431 4
3 6432 80
3 6433 15
3 6434 6
3 6435 15
3 6436 8
3 6437 16
3 6438 31
3 6439 21
3 6440 29
3 6441 15
3 6442 59
3 6443 3
3 6444 30
3 6445 2
3 6446 6
3 6447 16
3 6448 8
3 6449 4
3 6450 11
3 6451 7
3 6452 6
3 6453 17
3 6454 5
3 6455 60
3 6456 46
3 6457 7
3 6458 41
3 6459 6
3 6460 4
3 6461 14
3 6462 6
3 6463 15
3 6464 9
3 6465 15
3 6466 7
3 6467 10
3 6468 58
3 6469 11
3 6470 15
3 6471 10
3 6472 101
3 6473 13
3 6474 17
3 6475 7
3 6476 27
3 6477 14
3 6478 49
3 6479 26
3 6480 3
3 6481 30
3 6482 41
3 6483 11
3 6484 30
3 6485 68
3 6486 8
3 6487 8
3 6488 8
3 6489 67
3 6490 14
3 6491 43
3 6492 17
3 6493 24
3 6494 28
3 6495 6
3 6496 135
3 6497 3
3 6498 12
3 6499 16
3 6500 65
3 6501 16
3 6502 11
3 6503 188
3 6504 3
3 6505 9
3 6506 12
3 6507 19
3 6508 7
3 6509 10
3 6510 5
3 6511 9
3 6512 10
3 6513 7
3 6514 12
3 6515 17
3 6516 7
3 6517 11
3 6518 13
3 6519 9
3 6520 8
3 6521 9
3 6522 3
3 6523 19
3 6524 56
3 6525 13
3 6526 13
3 6527 12
3 6528 6
3 6529 6
3 6530 177
3 6531 13
3 6532 6
3 6533 9
3 6534 11
3 6535 31
3 6536 10
3 6537 14
3 6538 16
3 6539 34
3 6540 114
3 6541 17
3 6542 13
3 6543 14
3 6544 3
3 6545 13
3 6546 11
3 6547 25
3 6548 47
3 6549 9
3 6550 16
3 6551 11
3 6552 29
3 6553 7
3 6554 4
3 6555 76
3 6556 9
3 6557 8
3 6558 11
3 6559 80
3 6560 11
3 6561 8
3 6562 6
3 6563 37
3 6564 4
3 6565 9
3 6566 10
3 6567 4
3 6568 11
3 6569 10
3 6570 68
3 6571 13
3 6572 9
3 6573 19
3 6574 43
3 6575 14
3 6576 6
3 6577 741
3 6578 9
3 6579 24
3 6580 6
3 6581 39
3 6582 9
3 6583 11
3 6584 12
3 6585 5
3 6586 9
3 6587 12
3 6588 70
3 6589 5
3 6590 13
3 6591 16
3 6592 7
3 6593 4
3 6594 11
3 6595 112
3 6596 89
3 6597 9
3 6598 9
3 6599 68
3 6600 11
3 6601 5
3 6602 23
3 6603 14
3 6604 66
3 6605 11
3 6606 28
3 6607 123
3 6608 12
3 6609 17
3 6610 10
3 6611 15
3 6612 3
3 6613 12
3 6614 11
3 6615 4
3 6616 15
3 6617 8
3 6618 16
3 6619 8
3 6620 5
3 6621 10
3 6622 15
3 6623 21
3 6624 6
3 6625 78
3 6626 12
3 6627 35
3 6628 29
3 6629 7
3 6630 62
3 6631 10
3 6632 6
3 6633 94
3 6634 5
3 6635 12
3 6636 7
3 6637 4
3 6638 7
3 6639 17
3 6640 8
3 6641 18
3 6642 40
3 6643 40
3 6645 16
3 6646 12
3 6647 39
3 6648 13
3 6649 8
3 6650 19
3 6651 12
3 6652 9
3 6653 7
3 6654 7
3 6655 60
3 6656 7
3 6657 6
3 6658 54
3 6659 2
3 6660 9
3 6661 5
3 6662 31
3 6663 11
3 6664 10
3 6665 14
3 6666 16
3 6667 13
3 6668 11
3 6669 5
3 6670 74
3 6671 8
3 6672 6
3 6673 11
3 6674 6
3 6675 34
3 6676 82
3 6677 4
3 6678 15
3 6679 12
3 6680 50
3 6681 13
3 6682 18
3 6683 3
3 6684 14
3 6685 31
3 6686 21
3 6687 44
3 6688 18
3 6689 13
3 6690 28
3 6691 5
3 6692 283
3 6693 25
3 6694 37
3 6695 85
3 6696 32
3 6697 8
3 6698 78
3 6699 7
3 6700 12
3 6701 13
3 6702 8
3 6703 10
3 6704 6
3 6705 120
3 6706 6
3 6707 15
3 6708 5
3 6709 9
3 6710 9
3 6711 9
3 6712 11
3 6713 7
3 6714 3
3 6715 6
3 6716 9
3 6717 6
3 6718 9
3 6719 5
3 6720 11
3 6721 7
3 6722 5
3 6723 37
3 6724 918
3 6725 9
3 6726 58
3 6727 11
3 6728 17
3 6729 16
3 6730 9
3 6731 33
3 6732 19
3 6733 11
3 6734 30
3 6735 18
3 6736 14
3 6737 9
3 6738 12
3 6739 32
3 6740 12
3 6741 13
3 6742 12
3 6743 6
3 6744 2
3 6745 5
3 6746 8
3 6747 9
3 6748 23
3 6749 16
3 6750 7
3 6751 17
3 6752 2
3 6753 106
3 6754 6
3 6755 8
3 6756 12
3 6757 6
3 6758 5
3 6759 12
3 6760 56
3 6761 17
3 6762 6
3 6763 13
3 6764 10
3 6765 7
3 6766 11
3 6767 32
3 6768 12
3 6769 70
3 6770 9
3 6771 117
3 6772 12
3 6773 12
3 6774 50
3 6775 15
3 6776 5
3 6777 13
3 6778 6
3 6779 6
3 6780 7
3 6781 11
3 6782 17
3 6783 43
3 6784 37
3 6785 10
3 6786 65
3 6787 4
3 6788 10
3 6789 4
3 6790 9
3 6791 21
3 6792 11
3 6793 22
3 6794 19
3 6795 41
3 6796 6
3 6797 29
3 6798 2
3 6799 4
3 6800 9
3 6801 10
3 6802 8
3 6803 153
3 6804 50
3 6805 11
3 6806 10
3 6807 4
3 6808 62
3 6809 37
3 6810 1
3 6811 43
3 6812 16
3 6813 22
3 6814 12
3 6815 35
3 6816 13
3 6817 9
3 6818 78
3 6819 11
3 6820 5
3 6821 12
3 6822 14
3 6823 31
3 6824 7
3 6825 8
3 6826 7
3 6827 11
3 6828 16
3 6829 11
3 6830 13
3 6831 7
3 6832 25
3 6833 11
3 6834 8
3 6835 141
3 6836 5
3 6837 22
3 6838 6
3 6839 7
3 6840 16
3 6841 30
3 6842 6
3 6843 4
3 6844 52
3 6845 10
3 6846 12
3 6847 7
3 6848 6
3 6849 51
3 6850 6
3 6851 13
3 6852 16
3 6853 9
3 6854 16
3 6855 10
3 6856 33
3 6857 13
3 6858 8
3 6859 88
3 6860 11
3 6861 5
3 6862 1280
3 6863 6
3 6864 33
3 6865 45
3 6866 4
3 6867 10
3 6868 9
3 6869 11
3 6870 19
3 6871 3
3 6872 9
3 6873 11
3 6874 35
3 6875 18
3 6876 11
3 6877 13
3 6878 15
3 6879 15
3 6880 6
3 6881 65
3 6882 10
3 6883 13
3 6884 33
3 6885 15
3 6886 11
3 6887 17
3 6888 102
3 6889 47
3 6890 18
3 6891 14
3 6892 6
3 6893 14
3 6894 10
3 6895 12
3 6896 8
3 6897 17
3 6898 11
3 6899 71
3 6900 12
3 6901 18
3 6902 21
3 6903 52
3 6904 58
3 6905 8
3 6906 10
3 6907 32
3 6908 58
3 6909 33
3 6910 7
3 6911 45
3 6912 7
3 6913 22
3 6914 15
3 6915 36
3 6916 34
3 6917 32
3 6918 8
3 6919 14
3 6920 11
3 6921 9
3 6922 116
3 6923 5
3 6924 8
3 6925 8
3 6926 12
3 6927 107
3 6928 14
3 6929 22
3 6930 15
3 6931 11
3 6932 8
3 6933 10
3 6934 66
3 6935 14
3 6936 51
3 6937 6
3 6938 6
3 6939 39
3 6940 14
3 6941 16
3 6942 1222
3 6943 5
3 6944 72
3 6945 5
3 6946 135
3 6947 12
3 6948 34
3 6949 102
3 6950 9
3 6951 6
3 6952 1101
3 6953 29
3 6954 86
3 6955 10
3 6956 24
3 6957 74
3 6958 11
3 6959 10
3 6960 11
3 6961 10
3 6962 104
3 6963 21
3 6964 68
3 6965 48
3 6966 10
3 6967 6
3 6968 18
3 6969 15
3 6970 40
3 6971 11
3 6972 30
3 6973 97
3 6974 153
3 6975 24
3 6976 15
3 6977 73
3 6978 82
3 6979 13
3 6980 44
3 6981 57
3 6982 7
3 6983 66
3 6984 88
3 6985 3
3 6986 18
3 6987 11
3 6988 17
3 6989 37
3 6990 16
3 6991 12
3 6992 15
3 6993 18
3 6994 24
3 6995 8
3 6996 39
3 6997 80
3 6998 12
3 6999 10
3 7000 71
3 7001 76
3 7002 5
3 7003 15
3 7004 46
3 7005 9
3 7006 11
3 7007 17
3 7008 13
3 7009 16
3 7010 16
3 7011 11
3 7012 13
3 7013 9
3 7014 4
3 7015 46
3 7016 9
3 7017 61
3 7018 15
3 7019 65
3 7020 51
3 7021 5
3 7022 27
3 7023 24
3 7024 16
3 7025 47
3 7026 17
3 7027 15
3 7028 15
3 7029 19
3 7030 34
3 7031 17
3 7032 37
3 7033 70
3 7034 58
3 7035 11
3 7036 8
3 7037 15
3 7038 34
3 7039 3
3 7040 18
3 7041 12
3 7042 71
3 7043 30
3 7044 44
3 7045 31
3 7046 18
3 7047 105
3 7048 7
3 7049 10
3 7050 7
3 7051 72
3 7052 27
3 7053 36
3 7054 12
3 7055 43
3 7056 9
3 7057 8
3 7058 9
3 7059 14
3 7060 8
3 7061 60
3 7062 12
3 7063 4
3 7064 16
3 7065 13
3 7066 11
3 7067 58
3 7068 6
3 7069 23
3 7070 29
3 7071 48
3 7072 89
3 7073 60
3 7074 19
3 7075 11
3 7076 2
3 7077 92
3 7078 59
3 7079 143
3 7080 3
3 7081 6
3 7082 73
3 7083 17
3 7084 67
3 7085 114
3 7086 12
3 7087 6
3 7088 14
3 7089 6
3 7090 17
3 7091 9
3 7092 14
3 7093 11
3 7094 42
3 7095 53
3 7096 16
3 7097 36
3 7098 63
3 7099 19
3 7100 4
3 7101 14
3 7102 69
3 7103 88
3 7104 10
3 7105 82
3 7106 18
3 7107 5
3 7108 14
3 7109 13
3 7110 112
3 7111 14
3 7112 24
3 7113 19
3 7114 16
3 7115 38
3 7116 8
3 7117 12
3 7118 64
3 7119 21
3 7120 11
3 7121 85
3 7122 6
3 7123 20
3 7124 14
3 7125 12
3 7126 11
3 7127 12
3 7128 9
3 7129 4
3 7130 8
3 7131 15
3 7132 12
3 7133 9
3 7134 67
3 7135 4
3 7136 19
3 7137 11
3 7138 12
3 7139 121
3 7140 52
3 7141 10
3 7142 41
3 7143 12
3 7144 5
3 7145 16
3 7146 13
3 7147 128
3 7148 8
3 7149 10
3 7150 9
3 7151 7
3 7152 10
3 7153 41
3 7154 8
3 7155 63
3 7156 4
3 7157 36
3 7158 42
3 7159 58
3 7160 17
3 7161 13
3 7162 7
3 7163 58
3 7164 16
3 7165 5
3 7166 11
3 7167 24
3 7168 8
3 7169 33
3 7170 11
3 7171 12
3 7172 209
3 7173 5
3 7174 84
3 7175 63
3 7176 10
3 7177 10
3 7178 118
3 7179 8
3 7180 39
3 7181 16
3 7182 13
3 7183 12
3 7184 13
3 7185 70
3 7186 13
3 7187 9
3 7188 270
3 7189 10
3 7190 8
3 7191 8
3 7192 17
3 7193 22
3 7194 11
3 7195 12
3 7196 6
3 7197 14
3 7198 37
3 7199 22
3 7200 48
3 7201 11
3 7202 15
3 7203 19
3 7204 3
3 7205 14
3 7206 14
3 7207 10
3 7208 11
3 7209 12
3 7210 21
3 7211 8
3 7212 10
3 7213 22
3 7214 13
3 7215 40
3 7216 6
3 7217 101
3 7218 17
3 7219 16
3 7220 53
3 7221 14
3 7222 42
3 7223 20
3 7224 19
3 7225 9
3 7226 8
3 7227 43
3 7228 9
3 7229 8
3 7230 11
3 7231 13
3 7232 8
3 7233 78
3 7234 7
3 7235 10
3 7236 1161
3 7237 16
3 7238 13
3 7239 7
3 7240 11
3 7241 59
3 7242 64
3 7243 4
3 7244 10
3 7245 223
3 7246 14
3 7247 10
3 7248 16
3 7249 21
3 7250 13
3 7251 10
3 7252 11
3 7253 65
3 7254 421
3 7255 14
3 7256 21
3 7257 9
3 7258 7
3 7259 4
3 7260 32
3 7261 40
3 7262 9
3 7263 4
3 7264 7
3 7265 76
3 7266 19
3 7267 2
3 7268 24
3 7269 14
3 7270 12
3 7271 40
3 7272 6
3 7273 8
3 7274 42
3 7275 9
3 7276 32
3 7277 17
3 7278 15
3 7279 20
3 7280 48
3 7281 6
3 7282 26
3 7283 4
3 7284 99
3 7285 15
3 7286 6
3 7287 13
3 7288 10
3 7289 70
3 7290 75
3 7291 8
3 7292 18
3 7293 66
3 7294 5
3 7295 15
3 7296 19
3 7297 6
3 7298 95
3 7299 5
3 7300 53
3 7301 12
3 7302 45
3 7303 10
3 7304 55
3 7305 11
3 7306 8
3 7307 18
3 7308 16
3 7309 45
3 7310 16
3 7311 83
3 7312 10
3 7313 15
3 7314 7
3 7315 19
3 7316 23
3 7317 13
3 7318 11
3 7319 83
3 7320 45
3 7321 52
3 7322 5
3 7323 18
3 7324 41
3 7325 72
3 7326 89
3 7327 23
3 7328 21
3 7329 13
3 7330 3
3 7331 79
3 7332 12
3 7333 1172
3 7334 11
3 7335 20
3 7336 8
3 7337 10
3 7338 6
3 7339 5
3 7340 14
3 7341 102
3 7342 12
3 7343 13
3 7344 32
3 7345 44
3 7346 70
3 7347 8
3 7348 5
3 7349 931
3 7350 73
3 7351 67
3 7352 24
3 7353 111
3 7354 21
3 7355 9
3 7356 13
3 7357 12
3 7358 82
3 7359 6
3 7360 10
3 7361 10
3 7362 71
3 7363 15
3 7364 15
3 7365 39
3 7366 16
3 7367 206
3 7368 17
3 7369 7
3 7370 19
3 7371 47
3 7372 117
3 7373 13
3 7374 7
3 7375 19
3 7376 22
3 7377 10
3 7378 8
3 7379 11
3 7380 10
3 7381 33
3 7382 76
3 7383 11
3 7384 26
3 7385 32
3 7386 5
3 7387 6
3 7388 69
3 7389 12
3 7390 20
3 7391 96
3 7392 10
3 7393 16
3 7394 10
3 7395 24
3 7396 9
3 7397 11
3 7398 18
3 7399 37
3 7400 18
3 7401 43
3 7402 24
3 7403 100
3 7404 4
3 7405 254
3 7406 38
3 7407 149
3 7408 12
3 7409 10
3 7410 8
3 7411 32
3 7412 5
3 7413 13
3 7414 17
3 7415 232
3 7416 4
3 7417 18
3 7418 18
3 7419 7
3 7420 8
3 7421 38
3 7422 53
3 7423 12
3 7424 18
3 7425 11
3 7426 13
3 7427 19
3 7428 12
3 7429 43
3 7430 51
3 7431 21
3 7432 32
3 7433 5
3 7434 13
3 7435 8
3 7436 11
3 7437 6
3 7438 93
3 7439 55
3 7440 19
3 7441 5
3 7442 251
3 7443 7
3 7444 12
3 7445 14
3 7446 29
3 7447 25
3 7448 13
3 7449 16
3 7450 2
3 7451 14
3 7452 9
3 7453 5
3 7454 5
3 7455 13
3 7456 13
3 7457 7
3 7458 6
3 7459 9
3 7460 11
3 7461 19
3 7462 5
3 7463 57
3 7464 9
3 7465 22
3 7466 20
3 7467 9
3 7468 67
3 7469 919
3 7470 8
3 7471 10
3 7472 14
3 7473 10
3 7474 9
3 7475 60
3 7476 15
3 7477 56
3 7478 10
3 7479 7
3 7480 48
3 7481 19
3 7482 14
3 7483 60
3 7484 59
3 7485 67
3 7486 38
3 7487 90
3 7488 18
3 7489 19
3 7490 20
3 7491 4
3 7492 19
3 7493 68
3 7494 80
3 7495 10
3 7496 9
3 7497 3
3 7498 9
3 7499 14
3 7500 67
3 7501 11
3 7502 9
3 7503 69
3 7504 15
3 7505 40
3 7506 27
3 7507 4
3 7508 7
3 7509 4
3 7510 26
3 7511 10
3 7512 6
3 7513 14
3 7514 876
3 7515 16
3 7516 82
3 7517 49
3 7518 18
3 7519 58
3 7520 13
3 7521 85
3 7522 4
3 7523 31
3 7524 24
3 7525 67
3 7526 25
3 7527 7
3 7528 1186
3 7529 45
3 7530 13
3 7531 19
3 7532 4
3 7533 11
3 7534 11
3 7535 13
3 7536 6
3 7537 24
3 7538 11
3 7539 4
3 7540 8
3 7541 3
3 7542 5
3 7543 4
3 7544 9
3 7545 129
3 7546 9
3 7547 4
3 7548 12
3 7549 7
3 7550 7
3 7551 12
3 7552 1022
3 7553 22
3 7554 6
3 7555 10
3 7556 7
3 7557 14
3 7558 19
3 7559 13
3 7560 57
3 7561 28
3 7562 3
3 7563 8
3 7564 73
3 7565 45
3 7566 12
3 7567 13
3 7568 12
3 7569 16
3 7570 18
3 7571 13
3 7572 53
3 7573 108
3 7574 9
3 7575 9
3 7576 89
3 7577 15
3 7578 9
3 7579 7
3 7580 2
3 7581 35
3 7582 3
3 7583 8
3 7584 61
3 7585 5
3 7586 16
3 7587 21
3 7588 25
3 7589 13
3 7590 1
3 7591 14
3 7592 79
3 7593 13
3 7594 16
3 7595 3
3 7596 7
3 7597 6
3 7598 25
3 7599 37
3 7600 8
3 7601 15
3 7602 26
3 7603 15
3 7604 7
3 7605 11
3 7606 6
3 7607 7
3 7608 12
3 7609 13
3 7610 10
3 7611 11
3 7612 16
3 7613 10
3 7614 70
3 7615 12
3 7616 9
3 7617 9
3 7618 84
3 7619 81
3 7620 11
3 7621 6
3 7622 5
3 7623 11
3 7624 8
3 7625 12
3 7626 23
3 7627 16
3 7628 4
3 7629 6
3 7630 9
3 7631 11
3 7632 19
3 7633 9
3 7634 113
3 7635 82
3 7636 8
3 7637 56
3 7638 31
3 7639 13
3 7640 13
3 7641 13
3 7642 20
3 7643 56
3 7644 18
3 7645 12
3 7646 6
3 7647 14
3 7648 6
3 7649 17
3 7650 6
3 7651 15
3 7652 7
3 7653 17
3 7654 71
3 7655 5
3 7656 21
3 7657 11
3 7658 12
3 7659 36
3 7660 11
3 7661 15
3 7662 14
3 7663 16
3 7664 14
3 7665 9
3 7666 6
3 7667 7
3 7668 14
3 7669 21
3 7670 29
3 7671 18
3 7672 29
3 7673 6
3 7674 78
3 7675 63
3 7676 279
3 7677 6
3 7678 10
3 7679 7
3 7680 22
3 7681 35
3 7682 36
3 7683 3
3 7684 50
3 7685 9
3 7686 11
3 7687 11
3 7688 9
3 7689 16
3 7690 14
3 7691 140
3 7692 25
3 7693 32
3 7694 8
3 7695 17
3 7696 12
3 7697 37
3 7698 15
3 7699 23
3 7700 8
3 7701 5
3 7702 70
3 7703 27
3 7704 11
3 7705 18
3 7706 17
3 7707 4
3 7708 4
3 7709 27
3 7710 7
3 7711 11
3 7712 19
3 7713 7
3 7714 8
3 7715 7
3 7716 9
3 7717 11
3 7718 161
3 7719 8
3 7720 22
3 7721 33
3 7722 14
3 7723 19
3 7724 35
3 7725 7
3 7726 275
3 7727 215
3 7728 24
3 7729 13
3 7730 9
3 7731 6
3 7732 3
3 7733 9
3 7734 34
3 7735 15
3 7736 11
3 7737 16
3 7738 12
3 7739 9
3 7740 14
3 7741 15
3 7742 7
3 7743 15
3 7744 4
3 7745 13
3 7746 9
3 7747 49
3 7748 9
3 7749 7
3 7750 22
3 7751 9
3 7752 56
3 7753 12
3 7754 9
3 7755 57
3 7756 21
3 7757 13
3 7758 13
3 7759 12
3 7760 16
3 7761 6
3 7762 12
3 7763 16
3 7764 15
3 7765 16
3 7766 14
3 7767 14
3 7768 13
3 7769 10
3 7770 9
3 7771 43
3 7772 20
3 7773 13
3 7774 86
3 7775 10
3 7776 5
3 7777 16
3 7778 72
3 7779 9
3 7780 17
3 7781 22
3 7782 17
3 7783 71
3 7784 4
3 7785 18
3 7786 13
3 7787 17
3 7788 5
3 7789 13
3 7790 14
3 7791 24
3 7792 71
3 7793 9
3 7794 19
3 7795 2
3 7796 106
3 7797 27
3 7798 8
3 7799 21
3 7800 21
3 7801 11
3 7802 8
3 7803 3
3 7804 70
3 7805 14
3 7806 11
3 7807 12
3 7808 27
3 7809 8
3 7810 904
3 7811 11
3 7812 5
3 7813 6
3 7814 26
3 7815 70
3 7816 51
3 7817 79
3 7818 12
3 7819 63
3 7820 7
3 7821 13
3 7822 31
3 7823 11
3 7824 44
3 7825 10
3 7826 14
3 7827 1226
3 7828 23
3 7829 8
3 7830 4
3 7831 5
3 7832 5
3 7833 18
3 7834 10
3 7835 8
3 7836 8
3 7837 81
3 7838 25
3 7839 9
3 7840 12
3 7841 14
3 7842 21
3 7843 9
3 7844 12
3 7845 10
3 7846 61
3 7847 60
3 7848 12
3 7849 71
3 7850 540
3 7851 72
3 7852 2
3 7853 63
3 7854 5
3 7855 101
3 7856 7
3 7857 91
3 7858 20
3 7859 52
3 7860 21
3 7861 56
3 7862 33
3 7863 13
3 7864 11
3 7865 7
3 7866 93
3 7867 14
3 7868 11
3 7869 7
3 7870 15
3 7871 3
3 7872 1
3 7873 8
3 7874 19
3 7875 11
3 7876 14
3 7877 14
3 7878 50
3 7879 12
3 7880 112
3 7881 7
3 7882 14
3 7883 96
3 7884 6
3 7885 7
3 7886 14
3 7887 7
3 7888 4
3 7889 10
3 7890 16
3 7891 9
3 7892 5
3 7893 9
3 7894 46
3 7895 8
3 7896 8
3 7897 8
3 7898 78
3 7899 7
3 7900 11
3 7901 15
3 7902 9
3 7903 5
3 7904 13
3 7905 24
3 7906 7
3 7907 7
3 7908 16
3 7909 31
3 7910 6
3 7911 11
3 7912 75
3 7913 9
3 7914 9
3 7915 4
3 7916 7
3 7917 15
3 7918 28
3 7919 8
3 7920 13
3 7921 19
3 7922 12
3 7923 5
3 7924 4
3 7925 6
3 7926 16
3 7927 6
3 7928 8
3 7929 11
3 7930 82
3 7931 12
3 7932 20
3 7934 13
3 7935 9
3 7936 21
3 7937 43
3 7938 33
3 7939 19
3 7940 10
3 7941 10
3 7942 17
3 7943 12
3 7944 11
3 7945 14
3 7946 5
3 7947 8
3 7948 17
3 7949 111
3 7950 84
3 7951 50
3 7952 8
3 7953 13
3 7954 4
3 7955 8
3 7956 12
3 7957 6
3 7958 21
3 7959 81
3 7960 18
3 7961 5
3 7962 73
3 7963 7
3 7964 13
3 7965 3
3 7966 52
3 7967 15
3 7968 9
3 7969 4
3 7970 30
3 7971 14
3 7972 22
3 7973 41
3 7974 19
3 7975 80
3 7976 13
3 7977 11
3 7978 93
3 7979 9
3 7980 50
3 7981 27
3 7982 17
3 7983 73
3 7984 3
3 7985 9
3 7986 7
3 7987 10
3 7988 19
3 7989 1016
3 7990 8
3 7991 62
3 7992 19
3 7993 113
3 7994 13
3 7995 36
3 7996 7
3 7997 101
3 7998 16
3 7999 60
3 8000 69
3 8001 12
3 8002 939
3 8003 1018
3 8004 22
3 8005 61
3 8006 5
3 8007 7
3 8008 21
3 8009 4
3 8010 5
3 8011 7
3 8012 10
3 8013 6
3 8014 12
3 8015 14
3 8016 78
3 8017 7
3 8018 18
3 8019 8
3 8020 20
3 8021 14
3 8022 53
3 8023 20
3 8024 59
3 8025 9
3 8026 14
3 8027 562
3 8028 15
3 8029 28
3 8030 39
3 8031 20
3 8032 9
3 8033 19
3 8034 20
3 8035 11
3 8036 11
3 8037 54
3 8038 26
3 8039 8
3 8040 9
3 8041 11
3 8042 21
3 8043 103
3 8044 8
3 8045 1070
3 8046 82
3 8047 11
3 8048 32
3 8049 15
3 8050 83
3 8051 5
3 8052 9
3 8053 15
3 8054 14
3 8055 9
3 8056 7
3 8057 17
3 8058 9
3 8059 11
3 8060 10
3 8061 71
3 8062 30
3 8063 11
3 8064 70
3 8065 9
3 8066 40
3 8067 14
3 8068 9
3 8069 17
3 8070 7
3 8071 8
3 8072 1226
3 8073 20
3 8074 8
3 8075 12
3 8076 9
3 8077 68
3 8078 16
3 8079 5
3 8080 18
3 8081 7
3 8082 44
3 8083 10
3 8084 6
3 8085 10
3 8086 8
3 8087 3
3 8088 10
3 8089 20
3 8090 7
3 8091 12
3 8092 14
3 8093 27
3 8094 15
3 8095 62
3 8096 16
3 8097 45
3 8098 14
3 8099 69
3 8100 7
3 8101 46
3 8102 13
3 8103 2
3 8104 19
3 8105 7
3 8106 9
3 8107 68
3 8108 13
3 8109 9
3 8110 17
3 8111 66
3 8112 16
3 8113 11
3 8114 4
3 8115 20
3 8116 8
3 8117 8
3 8118 12
3 8119 6
3 8120 99
3 8121 5
3 8122 11
3 8123 9
3 8124 22
3 8125 18
3 8126 25
3 8127 10
3 8128 24
3 8129 3
3 8130 10
3 8131 7
3 8132 9
3 8133 13
3 8134 14
3 8135 17
3 8136 14
3 8137 83
3 8138 12
3 8139 11
3 8140 3
3 8141 15
3 8142 68
3 8143 2
3 8144 4
3 8145 76
3 8146 20
3 8147 12
3 8148 7
3 8149 18
3 8150 14
3 8151 5
3 8152 44
3 8153 3
3 8154 7
3 8155 43
3 8156 6
3 8157 10
3 8158 4
3 8159 10
3 8160 8
3 8161 13
3 8162 62
3 8163 16
3 8164 6
3 8165 116
3 8166 21
3 8167 10
3 8168 6
3 8169 11
3 8170 7
3 8171 18
3 8172 21
3 8173 91
3 8174 5
3 8175 5
3 8176 11
3 8177 18
3 8178 13
3 8179 6
3 8180 12
3 8181 49
3 8182 11
3 8183 6
3 8184 113
3 8185 4
3 8186 59
3 8187 97
3 8188 167
3 8189 17
3 8190 71
3 8191 16
3 8192 8
3 8193 14
3 8194 31
3 8195 16
3 8196 23
3 8197 5
3 8198 43
3 8199 9
3 8200 17
3 8201 7
3 8202 5
3 8203 10
3 8204 11
3 8205 5
3 8206 9
3 8207 7
3 8208 44
3 8209 1
3 8210 9
3 8211 7
3 8212 10
3 8213 66
3 8214 71
3 8215 6
3 8216 8
3 8217 7
3 8218 59
3 8219 57
3 8220 22
3 8221 61
3 8222 53
3 8223 18
3 8224 50
3 8225 8
3 8226 13
3 8227 25
3 8228 44
3 8229 67
3 8230 3
3 8231 151
3 8232 62
3 8233 84
3 8234 9
3 8235 43
3 8236 215
3 8237 9
3 8238 76
3 8239 27
3 8240 11
3 8241 45
3 8242 11
3 8243 56
3 8244 6
3 8245 9
3 8246 18
3 8247 68
3 8248 9
3 8249 4
3 8250 17
3 8251 66
3 8252 6
3 8253 68
3 8254 17
3 8255 9
3 8256 16
3 8257 13
3 8258 50
3 8259 16
3 8260 13
3 8261 14
3 8262 10
3 8263 66
3 8264 20
3 8265 33
3 8266 15
3 8267 8
3 8268 18
3 8269 28
3 8270 15
3 8271 69
3 8272 9
3 8273 9
3 8274 7
3 8275 91
3 8276 34
3 8277 11
3 8278 5
3 8279 9
3 8280 7
3 8281 14
3 8282 11
3 8283 19
3 8284 6
3 8285 13
3 8286 11
3 8287 9
3 8288 13
3 8289 14
3 8290 69
3 8291 9
3 8292 119
3 8293 10
3 8294 12
3 8295 10
3 8296 5
3 8297 8
3 8298 18
3 8299 11
3 8300 5
3 8301 15
3 8302 3
3 8303 75
3 8304 8
3 8305 14
3 8306 31
3 8307 9
3 8308 9
3 8309 66
3 8310 27
3 8311 11
3 8312 11
3 8313 74
3 8314 57
3 8315 13
3 8316 24
3 8317 10
3 8318 17
3 8319 4
3 8320 11
3 8321 10
3 8322 11
3 8323 5
3 8324 3
3 8325 15
3 8326 14
3 8327 8
3 8328 31
3 8329 8
3 8330 18
3 8331 9
3 8332 41
3 8333 17
3 8334 32
3 8335 6
3 8336 42
3 8337 9
3 8338 77
3 8339 12
3 8340 2
3 8341 5
3 8342 13
3 8343 4
3 8345 14
3 8346 27
3 8347 9
3 8348 5
3 8349 16
3 8350 5
3 8351 131
3 8352 11
3 8353 91
3 8354 7
3 8355 5
3 8356 6
3 8357 7
3 8358 18
3 8359 45
3 8360 14
3 8361 59
3 8362 4
3 8363 18
3 8364 3
3 8365 22
3 8366 15
3 8367 49
3 8368 14
3 8369 11
3 8370 78
3 8371 28
3 8372 10
3 8373 12
3 8374 63
3 8375 18
3 8376 11
3 8377 55
3 8378 19
3 8379 18
3 8380 8
3 8381 18
3 8382 23
3 8383 19
3 8384 6
3 8385 90
3 8386 43
3 8387 12
3 8388 12
3 8389 9
3 8390 10
3 8391 5
3 8392 7
3 8393 8
3 8394 48
3 8395 10
3 8396 4
3 8397 14
3 8398 27
3 8399 15
3 8400 6
3 8401 13
3 8402 24
3 8403 65
3 8404 7
3 8405 49
3 8406 62
3 8407 51
3 8408 80
3 8409 8
3 8410 8
3 8411 6
3 8412 10
3 8413 13
3 8414 17
3 8415 5
3 8416 10
3 8417 9
3 8418 113
3 8419 24
3 8420 13
3 8421 12
3 8422 35
3 8423 12
3 8424 6
3 8425 56
3 8426 19
3 8427 8
3 8428 12
3 8429 48
3 8430 10
3 8431 10
3 8432 8
3 8433 10
3 8434 9
3 8435 11
3 8436 9
3 8437 6
3 8438 44
3 8439 14
3 8440 2
3 8441 14
3 8442 8
3 8443 10
3 8444 12
3 8445 6
3 8446 10
3 8447 34
3 8448 10
3 8449 13
3 8450 4
3 8451 6
3 8452 30
3 8453 25
3 8454 29
3 8455 34
3 8456 10
3 8457 82
3 8458 66
3 8459 8
3 8460 5
3 8461 12
3 8462 27
3 8463 60
3 8464 1114
3 8465 11
3 8466 46
3 8467 14
3 8468 10
3 8469 4
3 8470 14
3 8471 10
3 8472 26
3 8473 14
3 8474 13
3 8475 6
3 8476 11
3 8477 11
3 8478 9
3 8479 7
3 8480 3
3 8481 9
3 8482 2
3 8483 40
3 8484 9
3 8485 40
3 8486 9
3 8487 14
3 8488 10
3 8489 74
3 8490 26
3 8491 11
3 8492 4
3 8493 6
3 8494 17
3 8495 16
3 8496 11
3 8497 4
3 8498 6
3 8499 104
3 8500 8
3 8501 11
3 8502 55
3 8503 19
3 8504 10
3 8505 11
3 8506 6
3 8507 71
3 8508 11
3 8509 8
3 8510 13
3 8511 9
3 8512 10
3 8513 18
3 8514 14
3 8515 9
3 8516 7
3 8517 12
3 8518 34
3 8519 8
3 8520 22
3 8521 5
3 8522 8
3 8523 68
3 8524 20
3 8525 6
3 8526 104
3 8527 62
3 8528 15
3 8529 10
3 8530 13
3 8531 59
3 8532 5
3 8533 13
3 8534 52
3 8535 20
3 8536 6
3 8537 932
3 8538 11
3 8539 7
3 8540 14
3 8541 85
3 8542 14
3 8543 5
3 8544 27
3 8545 61
3 8546 6
3 8547 3
3 8548 5
3 8549 7
3 8550 13
3 8551 15
3 8552 41
3 8553 8
3 8554 36
3 8555 18
3 8556 8
3 8557 13
3 8558 5
3 8559 3
3 8560 26
3 8561 13
3 8562 4
3 8563 16
3 8564 17
3 8565 35
3 8566 11
3 8567 11
3 8568 6
3 8569 11
3 8570 73
3 8571 10
3 8572 4
3 8573 64
3 8574 2
3 8575 8
3 8576 6
3 8577 45
3 8578 5
3 8579 11
3 8580 4
3 8581 25
3 8582 74
3 8583 11
3 8584 13
3 8585 4
3 8586 41
3 8587 18
3 8588 45
3 8589 8
3 8590 60
3 8591 49
3 8592 18
3 8593 9
3 8594 65
3 8595 29
3 8596 10
3 8597 8
3 8598 21
3 8599 9
3 8600 15
3 8601 17
3 8602 6
3 8603 72
3 8604 12
3 8605 17
3 8606 12
3 8607 98
3 8608 70
3 8609 17
3 8610 17
3 8611 15
3 8612 5
3 8613 8
3 8614 15
3 8615 10
3 8616 5
3 8617 54
3 8618 25
3 8619 12
3 8620 36
3 8621 49
3 8622 5
3 8623 10
3 8624 5
3 8625 67
3 8626 5
3 8627 15
3 8628 3
3 8629 9
3 8630 13
3 8631 6
3 8632 5
3 8633 3
3 8634 18
3 8635 12
3 8636 39
3 8637 11
3 8638 13
3 8639 9
3 8640 5
3 8641 33
3 8642 5
3 8643 6
3 8644 493
3 8645 8
3 8646 8
3 8647 15
3 8648 8
3 8649 44
3 8650 9
3 8651 50
3 8652 135
3 8653 11
3 8654 58
3 8655 45
3 8656 7
3 8657 9
3 8658 4
3 8659 6
3 8660 60
3 8661 17
3 8662 7
3 8663 4
3 8664 14
3 8665 9
3 8666 5
3 8667 4
3 8668 4
3 8669 3
3 8670 8
3 8671 12
3 8672 12
3 8673 11
3 8674 60
3 8675 10
3 8676 10
3 8677 6
3 8678 12
3 8679 19
3 8680 15
3 8681 45
3 8682 18
3 8683 79
3 8684 9
3 8685 6
3 8686 12
3 8687 191
3 8688 29
3 8689 13
3 8690 6
3 8691 34
3 8692 19
3 8693 8
3 8694 75
3 8695 52
3 8696 10
3 8697 72
3 8698 42
3 8699 27
3 8700 17
3 8701 50
3 8702 59
3 8703 13
3 8704 35
3 8705 8
3 8706 27
3 8707 29
3 8708 10
3 8709 28
3 8710 9
3 8711 31
3 8712 68
3 8713 6
3 8714 61
3 8715 10
3 8716 31
3 8717 52
3 8718 122
3 8719 9
3 8720 9
3 8721 7
3 8722 12
3 8723 17
3 8724 6
3 8725 97
3 8726 103
3 8727 11
3 8728 16
3 8729 36
3 8730 88
3 8731 57
3 8732 19
3 8733 12
3 8734 59
3 8735 11
3 8736 42
3 8737 32
3 8738 13
3 8739 13
3 8740 5
3 8741 14
3 8742 21
3 8743 7
3 8744 65
3 8745 6
3 8746 55
3 8747 4
3 8748 36
3 8749 10
3 8750 10
3 8751 14
3 8752 53
3 8753 5
3 8754 7
3 8755 20
3 8756 13
3 8757 5
3 8758 7
3 8759 8
3 8760 25
3 8761 39
3 8762 43
3 8763 15
3 8764 94
3 8765 14
3 8766 7
3 8767 10
3 8768 1141
3 8769 396
3 8770 11
3 8771 7
3 8772 12
3 8773 10
3 8774 14
3 8775 11
3 8776 5
3 8777 12
3 8778 13
3 8779 11
3 8780 13
3 8781 6
3 8782 18
3 8783 4
3 8784 45
3 8785 6
3 8786 12
3 8787 4
3 8788 9
3 8789 5
3 8790 17
3 8791 11
3 8792 29
3 8793 61
3 8794 11
3 8795 7
3 8796 29
3 8797 8
3 8798 4
3 8799 15
3 8800 1009
3 8801 13
3 8802 45
3 8803 7
3 8804 8
3 8805 23
3 8806 16
3 8807 9
3 8808 9
3 8809 35
3 8810 38
3 8811 13
3 8812 12
3 8813 14
3 8814 3
3 8815 10
3 8816 7
3 8817 24
3 8818 8
3 8819 12
3 8820 211
3 8821 4
3 8822 36
3 8823 42
3 8824 5
3 8825 71
3 8826 11
3 8827 7
3 8828 77
3 8829 33
3 8830 10
3 8831 63
3 8832 75
3 8833 12
3 8834 6
3 8835 12
3 8836 12
3 8837 8
3 8838 3
3 8839 19
3 8840 18
3 8841 4
3 8842 15
3 8843 18
3 8844 32
3 8845 11
3 8846 14
3 8847 5
3 8848 10
3 8849 84
3 8850 7
3 8851 163
3 8852 38
3 8853 3
3 8854 64
3 8855 77
3 8856 16
3 8857 788
3 8858 29
3 8859 85
3 8860 16
3 8861 19
3 8862 9
3 8863 10
3 8864 17
3 8865 13
3 8866 6
3 8867 9
3 8868 7
3 8869 9
3 8870 56
3 8871 7
3 8872 11
3 8873 5
3 8874 19
3 8875 9
3 8876 27
3 8877 26
3 8878 15
3 8879 9
3 8880 10
3 8881 19
3 8882 8
3 8883 8
3 8884 11
3 8885 5
3 8886 10
3 8887 29
3 8888 9
3 8889 12
3 8890 6
3 8891 31
3 8892 14
3 8893 5
3 8894 13
3 8895 9
3 8896 7
3 8897 100
3 8898 5
3 8899 65
3 8900 4
3 8901 10
3 8902 28
3 8903 8
3 8904 6
3 8905 6
3 8906 6
3 8907 14
3 8908 95
3 8909 15
3 8910 12
3 8911 9
3 8912 10
3 8913 8
3 8914 8
3 8915 10
3 8916 49
3 8917 52
3 8918 45
3 8919 5
3 8920 57
3 8921 12
3 8922 57
3 8923 24
3 8924 21
3 8925 18
3 8926 92
3 8927 22
3 8928 8
3 8929 19
3 8930 44
3 8931 14
3 8932 8
3 8933 59
3 8934 9
3 8935 3
3 8936 166
3 8937 10
3 8938 36
3 8939 53
3 8940 9
3 8941 121
3 8942 12
3 8943 5
3 8944 5
3 8945 10
3 8946 22
3 8947 191
3 8948 10
3 8949 9
3 8950 7
3 8951 79
3 8952 15
3 8953 9
3 8954 8
3 8955 9
3 8956 16
3 8957 18
3 8958 8
3 8959 15
3 8960 39
3 8961 6
3 8962 18
3 8963 34
3 8964 9
3 8965 21
3 8966 6
3 8967 40
3 8968 6
3 8969 38
3 8970 9
3 8971 23
3 8972 7
3 8973 6
3 8974 16
3 8975 7
3 8976 52
3 8977 41
3 8978 13
3 8979 12
3 8980 24
3 8981 101
3 8982 74
3 8983 3
3 8984 11
3 8985 9
3 8986 9
3 8987 35
3 8988 4
3 8989 28
3 8990 49
3 8991 53
3 8992 10
3 8993 22
3 8994 38
3 8995 5
3 8996 7
3 8997 22
3 8998 47
3 8999 8
3 9000 153
3 9001 16
3 9002 7
3 9003 10
3 9004 3
3 9005 927
3 9006 12
3 9007 31
3 9008 53
3 9009 5
3 9010 44
3 9011 5
3 9012 9
3 9013 10
3 9014 35
3 9015 14
3 9016 5
3 9017 34
3 9018 45
3 9019 10
3 9020 17
3 9021 59
3 9022 6
3 9023 6
3 9024 10
3 9025 15
3 9026 16
3 9027 10
3 9028 4
3 9029 10
3 9030 9
3 9031 4
3 9032 7
3 9033 5
3 9034 6
3 9035 13
3 9036 8
3 9037 13
3 9038 2
3 9039 3
3 9040 10
3 9041 44
3 9042 12
3 9043 8
3 9044 74
3 9045 60
3 9046 9
3 9047 6
3 9048 12
3 9049 25
3 9050 13
3 9051 6
3 9052 7
3 9053 119
3 9054 12
3 9055 8
3 9056 75
3 9057 20
3 9058 5
3 9059 325
3 9060 8
3 9061 10
3 9062 85
3 9063 89
3 9064 21
3 9065 14
3 9066 9
3 9067 78
3 9068 16
3 9069 2
3 9070 22
3 9071 12
3 9072 20
3 9073 11
3 9074 8
3 9075 13
3 9076 7
3 9077 7
3 9078 8
3 9079 16
3 9080 10
3 9081 10
3 9082 1
3 9083 38
3 9084 15
3 9085 83
3 9086 15
3 9087 7
3 9088 20
3 9089 6
3 9090 4
3 9091 582
3 9092 7
3 9093 58
3 9094 66
3 9095 11
3 9096 8
3 9097 6
3 9098 15
3 9099 12
3 9100 13
3 9101 138
3 9102 6
3 9103 24
3 9104 5
3 9105 4
3 9106 67
3 9107 12
3 9108 8
3 9109 21
3 9110 14
3 9111 7
3 9112 75
3 9113 5
3 9115 16
3 9116 12
3 9117 4
3 9118 3
3 9119 2
3 9120 69
3 9121 12
3 9122 8
3 9123 6
3 9124 58
3 9125 9
3 9126 16
3 9127 89
3 9128 1
3 9129 3
3 9130 8
3 9131 75
3 9132 7
3 9133 5
3 9134 293
3 9135 11
3 9136 8
3 9137 10
3 9138 14
3 9139 14
3 9140 6
3 9141 10
3 9142 6
3 9143 47
3 9144 21
3 9145 10
3 9146 22
3 9147 16
3 9148 72
3 9149 1
3 9150 6
3 9151 8
3 9152 18
3 9153 10
3 9154 5
3 9155 122
3 9156 15
3 9157 12
3 9158 5
3 9159 31
3 9160 5
3 9161 12
3 9162 4
3 9163 47
3 9164 14
3 9165 41
3 9166 56
3 9167 7
3 9168 3
3 9169 88
3 9170 6
3 9171 3
3 9172 39
3 9173 6
3 9174 14
3 9175 3
3 9176 55
3 9177 29
3 9178 42
3 9179 157
3 9180 9
3 9181 7
3 9182 5
3 9183 10
3 9184 11
3 9185 62
3 9186 13
3 9187 3
3 9188 17
3 9189 3
3 9190 4
3 9191 12
3 9192 29
3 9193 6
3 9194 75
3 9195 14
3 9196 78
3 9197 10
3 9198 61
3 9199 19
3 9200 5
3 9201 7
3 9202 8
3 9203 15
3 9204 7
3 9205 106
3 9206 42
3 9207 7
3 9208 9
3 9209 11
3 9210 7
3 9211 64
3 9212 916
3 9213 60
3 9214 14
3 9215 16
3 9216 5
3 9217 17
3 9218 6
3 9219 52
3 9220 7
3 9221 28
3 9222 13
3 9223 9
3 9224 15
3 9225 7
3 9226 5
3 9227 93
3 9228 24
3 9229 6
3 9230 9
3 9231 27
3 9232 12
3 9233 26
3 9234 8
3 9235 33
3 9236 7
3 9237 32
3 9238 13
3 9239 7
3 9240 4
3 9241 8
3 9242 6
3 9243 8
3 9244 26
3 9245 63
3 9246 1
3 9248 6
3 9249 8
3 9250 15
3 9251 12
3 9252 14
3 9253 146
3 9254 5
3 9255 18
3 9256 17
3 9257 8
3 9258 9
3 9259 5
3 9260 66
3 9261 15
3 9262 19
3 9263 15
3 9264 13
3 9265 16
3 9266 10
3 9267 19
3 9268 158
3 9269 24
3 9270 8
3 9271 4
3 9272 9
3 9273 6
3 9274 18
3 9275 4
3 9276 10
3 9277 48
3 9278 49
3 9279 19
3 9280 10
3 9281 6
3 9282 24
3 9283 11
3 9284 12
3 9285 7
3 9286 27
3 9287 13
3 9289 10
3 9290 100
3 9291 56
3 9292 26
3 9293 22
3 9294 78
3 9295 2
3 9296 9
3 9297 15
3 9298 83
3 9299 27
3 9300 16
3 9301 41
3 9302 12
3 9303 76
3 9304 21
3 9305 20
3 9306 24
3 9307 6
3 9308 25
3 9309 60
3 9310 40
3 9311 9
3 9312 14
3 9313 13
3 9314 15
3 9315 54
3 9316 7
3 9317 56
3 9318 4
3 9319 12
3 9320 13
3 9321 20
3 9322 10
3 9323 53
3 9324 43
3 9325 28
3 9326 12
3 9327 20
3 9328 65
3 9329 12
3 9330 9
3 9331 14
3 9332 870
3 9333 11
3 9334 6
3 9335 12
3 9336 8
3 9337 26
3 9338 87
3 9339 7
3 9340 60
3 9341 7
3 9342 64
3 9343 31
3 9344 3
3 9345 8
3 9346 12
3 9347 43
3 9348 86
3 9349 37
3 9350 15
3 9351 12
3 9352 14
3 9353 4
3 9354 7
3 9355 64
3 9356 12
3 9357 9
3 9358 12
3 9359 12
3 9360 47
3 9361 34
3 9362 15
3 9363 3
3 9364 8
3 9365 27
3 9366 8
3 9367 83
3 9368 49
3 9369 38
3 9370 3
3 9371 6
3 9372 61
3 9373 51
3 9374 17
3 9375 47
3 9376 11
3 9377 48
3 9378 22
3 9379 8
3 9380 11
3 9381 10
3 9382 163
3 9383 16
3 9384 19
3 9385 7
3 9386 9
3 9387 677
3 9388 22
3 9389 39
3 9390 36
3 9391 14
3 9392 8
3 9393 12
3 9394 17
3 9395 22
3 9396 11
3 9397 7
3 9398 18
3 9399 16
3 9400 93
3 9401 10
3 9402 4
3 9403 22
3 9404 13
3 9405 11
3 9406 12
3 9407 4
3 9408 40
3 9409 4
3 9410 8
3 9411 99
3 9412 103
3 9413 8
3 9414 6
3 9415 28
3 9416 1043
3 9417 8
3 9418 9
3 9419 7
3 9420 6
3 9421 10
3 9422 54
3 9423 15
3 9424 7
3 9425 4
3 9426 52
3 9427 12
3 9428 28
3 9429 15
3 9430 12
3 9431 40
3 9432 11
3 9433 15
3 9434 16
3 9435 78
3 9436 9
3 9437 10
3 9438 12
3 9439 70
3 9440 12
3 9441 51
3 9442 65
3 9443 147
3 9444 10
3 9445 23
3 9446 8
3 9447 19
3 9448 47
3 9449 8
3 9450 9
3 9451 24
3 9452 39
3 9453 15
3 9454 97
3 9455 8
3 9456 18
3 9457 14
3 9458 4
3 9459 13
3 9460 9
3 9461 68
3 9462 6
3 9463 92
3 9464 3
3 9465 70
3 9466 8
3 9467 815
3 9468 8
3 9469 21
3 9470 4
3 9471 5
3 9472 9
3 9473 6
3 9474 12
3 9475 10
3 9476 157
3 9477 3
3 9478 13
3 9479 18
3 9480 20
3 9481 42
3 9482 9
3 9483 11
3 9484 94
3 9485 30
3 9486 5
3 9487 13
3 9488 71
3 9489 58
3 9490 15
3 9491 73
3 9492 122
3 9493 87
3 9494 10
3 9495 82
3 9496 18
3 9497 42
3 9498 20
3 9499 107
3 9500 4
3 9501 9
3 9502 9
3 9503 16
3 9504 13
3 9505 8
3 9506 8
3 9507 14
3 9508 43
3 9509 14
3 9510 64
3 9511 64
3 9512 59
3 9513 14
3 9514 10
3 9515 26
3 9516 35
3 9517 10
3 9518 7
3 9519 39
3 9520 9
3 9521 6
3 9522 8
3 9523 34
3 9524 10
3 9525 77
3 9526 9
3 9527 35
3 9528 14
3 9529 6
3 9530 7
3 9531 132
3 9532 47
3 9533 16
3 9534 10
3 9535 57
3 9536 64
3 9537 1073
3 9538 11
3 9539 11
3 9540 15
3 9541 8
3 9542 75
3 9543 81
3 9544 12
3 9545 53
3 9546 15
3 9547 11
3 9548 19
3 9549 35
3 9550 74
3 9551 43
3 9552 9
3 9553 75
3 9554 22
3 9555 8
3 9556 7
3 9557 30
3 9558 9
3 9559 10
3 9560 37
3 9561 25
3 9562 35
3 9563 12
3 9564 14
3 9565 19
3 9566 34
3 9567 19
3 9568 11
3 9569 9
3 9570 12
3 9571 8
3 9572 12
3 9573 18
3 9574 12
3 9575 9
3 9576 7
3 9577 11
3 9578 8
3 9579 13
3 9580 20
3 9581 4
3 9582 88
3 9583 10
3 9584 10
3 9585 14
3 9586 40
3 9587 12
3 9588 5
3 9589 9
3 9590 10
3 9591 105
3 9592 14
3 9593 46
3 9594 13
3 9595 22
3 9596 14
3 9597 19
3 9598 6
3 9599 6
3 9600 16
3 9601 9
3 9602 6
3 9603 10
3 9604 224
3 9605 73
3 9606 48
3 9607 16
3 9608 19
3 9609 8
3 9610 6
3 9611 43
3 9612 9
3 9613 20
3 9614 16
3 9615 14
3 9616 15
3 9617 10
3 9618 107
3 9619 20
3 9620 4
3 9621 13
3 9622 11
3 9623 6
3 9624 6
3 9625 8
3 9626 8
3 9627 30
3 9628 5
3 9629 17
3 9630 3
3 9631 15
3 9632 13
3 9633 15
3 9634 54
3 9635 8
3 9636 4
3 9637 7
3 9638 56
3 9639 20
3 9640 13
3 9641 11
3 9642 5
3 9643 14
3 9644 3
3 9645 14
3 9646 4
3 9647 39
3 9648 67
3 9649 9
3 9650 124
3 9651 15
3 9652 8
3 9653 49
3 9654 10
3 9655 9
3 9656 73
3 9657 5
3 9658 10
3 9659 10
3 9660 9
3 9661 71
3 9662 114
3 9663 15
3 9664 12
3 9665 54
3 9666 11
3 9667 19
3 9668 15
3 9669 8
3 9670 59
3 9672 9
3 9673 8
3 9674 7
3 9675 12
3 9676 17
3 9677 14
3 9678 63
3 9679 18
3 9680 12
3 9681 10
3 9682 15
3 9683 1190
3 9684 10
3 9685 16
3 9686 18
3 9687 19
3 9688 16
3 9689 45
3 9690 61
3 9691 23
3 9692 53
3 9693 31
3 9694 14
3 9695 8
3 9696 16
3 9697 10
3 9698 8
3 9699 7
3 9700 66
3 9701 12
3 9702 10
3 9703 6
3 9704 2
3 9705 11
3 9706 64
3 9707 6
3 9708 81
3 9709 9
3 9710 20
3 9711 10
3 9712 45
3 9713 59
3 9714 10
3 9715 21
3 9716 28
3 9717 10
3 9718 13
3 9719 65
3 9720 14
3 9721 3
3 9722 17
3 9723 7
3 9724 8
3 9725 12
3 9726 44
3 9727 16
3 9728 18
3 9729 72
3 9730 9
3 9731 61
3 9732 9
3 9733 12
3 9734 65
3 9735 19
3 9736 68
3 9737 7
3 9738 95
3 9739 59
3 9740 12
3 9741 10
3 9742 7
3 9743 57
3 9744 14
3 9745 12
3 9746 18
3 9747 9
3 9748 16
3 9749 43
3 9750 11
3 9751 12
3 9752 3
3 9753 7
3 9754 16
3 9755 18
3 9756 9
3 9757 14
3 9758 13
3 9759 50
3 9760 20
3 9761 23
3 9762 24
3 9763 23
3 9764 20
3 9765 39
3 9766 52
3 9767 75
3 9768 51
3 9769 13
3 9770 4
3 9771 67
3 9772 6
3 9773 7
3 9774 59
3 9775 13
3 9776 10
3 9777 49
3 9778 6
3 9779 12
3 9780 20
3 9781 52
3 9782 112
3 9783 5
3 9784 3
3 9785 13
3 9786 12
3 9787 22
3 9788 2
3 9789 10
3 9790 12
3 9791 50
3 9792 8
3 9793 67
3 9794 20
3 9795 34
3 9796 14
3 9797 20
3 9798 8
3 9799 31
3 9800 10
3 9801 10
3 9802 22
3 9803 16
3 9804 13
3 9805 11
3 9806 77
3 9807 14
3 9808 5
3 9809 7
3 9810 13
3 9811 14
3 9812 18
3 9813 12
3 9814 53
3 9815 76
3 9816 8
3 9817 20
3 9818 16
3 9819 16
3 9820 6
3 9821 30
3 9822 8
3 9823 51
3 9824 5
3 9825 46
3 9826 17
3 9827 5
3 9828 4
3 9829 105
3 9830 14
3 9831 31
3 9832 6
3 9833 6
3 9834 88
3 9835 40
3 9836 8
3 9837 18
3 9838 49
3 9839 8
3 9840 15
3 9841 16
3 9842 29
3 9843 7
3 9844 11
3 9845 25
3 9846 49
3 9847 131
3 9848 16
3 9849 43
3 9850 12
3 9851 18
3 9852 18
3 9853 4
3 9854 64
3 9855 31
3 9856 46
3 9857 7
3 9858 50
3 9859 62
3 9860 6
3 9861 8
3 9862 17
3 9863 5
3 9864 29
3 9865 14
3 9866 6
3 9867 31
3 9868 37
3 9869 89
3 9870 13
3 9871 37
3 9872 8
3 9873 13
3 9874 99
3 9875 15
3 9876 5
3 9877 9
3 9878 19
3 9879 6
3 9880 9
3 9881 33
3 9882 27
3 9883 16
3 9884 10
3 9885 10
3 9886 9
3 9887 16
3 9888 10
3 9889 9
3 9890 19
3 9891 11
3 9892 197
3 9893 32
3 9894 15
3 9895 18
3 9896 7
3 9897 5
3 9898 9
3 9899 9
3 9900 6
3 9901 18
3 9902 7
3 9903 39
3 9904 11
3 9905 16
3 9906 18
3 9907 12
3 9908 58
3 9909 9
3 9910 34
3 9911 8
3 9912 7
3 9913 13
3 9914 13
3 9915 18
3 9916 2
3 9917 12
3 9918 46
3 9919 41
3 9920 58
3 9921 10
3 9922 10
3 9923 13
3 9924 102
3 9925 11
3 9926 7
3 9927 16
3 9928 63
3 9929 9
3 9930 11
3 9931 64
3 9932 11
3 9933 14
3 9934 14
3 9935 16
3 9936 9
3 9937 27
3 9938 28
3 9939 14
3 9940 9
3 9941 8
3 9942 14
3 9943 41
3 9944 30
3 9945 36
3 9946 7
3 9947 83
3 9948 7
3 9949 4
3 9950 11
3 9951 48
3 9952 8
3 9953 20
3 9954 13
3 9955 9
3 9956 9
3 9957 140
3 9958 7
3 9959 14
3 9960 8
3 9961 8
3 9962 14
3 9963 15
3 9964 11
3 9965 8
3 9966 63
3 9967 61
3 9968 13
3 9969 9
3 9970 14
3 9971 16
3 9972 15
3 9973 25
3 9974 7
3 9975 12
3 9976 11
3 9977 7
3 9978 11
3 9979 5
3 9980 39
3 9981 11
3 9982 75
3 9983 11
3 9984 18
3 9985 8
3 9986 8
3 9987 63
3 9988 52
3 9989 10
3 9990 15
3 9991 90
3 9992 10
3 9993 40
3 9994 8
3 9995 11
3 9996 8
3 9997 4
3 9998 30
3 9999 6
3 10000 68
3 10001 90
3 10002 75
3 10003 207
3 10004 12
3 10005 4
3 10006 6
3 10007 18
3 10008 8
3 10009 19
3 10010 8
3 10011 9
3 10012 9
3 10013 4
3 10014 38
3 10015 8
3 10016 21
3 10017 8
3 10018 66
3 10019 83
3 10020 6
3 10021 10
3 10022 7
3 10023 11
3 10024 49
3 10025 90
3 10026 11
3 10027 84
3 10028 11
3 10029 13
3 10030 14
3 10031 17
3 10032 50
3 10033 6
3 10034 16
3 10035 79
3 10036 10
3 10037 11
3 10038 11
3 10039 63
3 10040 7
3 10041 16
3 10042 9
3 10043 12
3 10044 14
3 10045 5
3 10046 14
3 10047 27
3 10048 18
3 10049 14
3 10050 9
3 10051 35
3 10052 7
3 10053 21
3 10054 9
3 10055 5
3 10056 23
3 10057 16
3 10058 15
3 10059 12
3 10060 12
3 10061 23
3 10062 14
3 10063 4
3 10064 15
3 10065 7
3 10066 217
3 10067 5
3 10068 7
3 10069 7
3 10070 15
3 10071 22
3 10072 55
3 10073 16
3 10074 27
3 10075 39
3 10076 14
3 10077 2
3 10078 31
3 10079 16
3 10080 32
3 10081 12
3 10082 121
3 10083 17
3 10084 9
3 10085 8
3 10086 37
3 10087 96
3 10088 6
3 10089 3
3 10090 10
3 10091 10
3 10092 6
3 10093 9
3 10094 5
3 10095 11
3 10096 19
3 10097 6
3 10098 18
3 10099 6
3 10100 4
3 10101 8
3 10102 7
3 10103 10
3 10104 126
3 10105 95
3 10106 12
3 10107 14
3 10108 15
3 10109 161
3 10110 8
3 10111 5
3 10112 11
3 10113 61
3 10114 7
3 10115 66
3 10116 9
3 10117 23
3 10118 16
3 10119 13
3 10120 15
3 10121 138
3 10122 7
3 10123 6
3 10124 11
3 10125 13
3 10126 8
3 10127 14
3 10128 58
3 10129 11
3 10130 12
3 10131 20
3 10132 9
3 10133 5
3 10134 12
3 10135 20
3 10136 7
3 10137 43
3 10138 17
3 10139 148
3 10140 12
3 10141 22
3 10142 14
3 10143 10
3 10144 68
3 10145 12
3 10146 68
3 10147 64
3 10148 6
3 10149 7
3 10150 8
3 10151 10
3 10152 5
3 10153 11
3 10154 11
3 10155 14
3 10156 15
3 10157 14
3 10158 7
3 10159 10
3 10160 5
3 10161 8
3 10162 9
3 10163 6
3 10164 7
3 10165 9
3 10166 15
3 10167 52
3 10168 5
3 10169 36
3 10170 4
3 10171 7
3 10172 8
3 10173 21
3 10174 37
3 10175 319
3 10176 93
3 10177 17
3 10178 11
3 10179 13
3 10180 40
3 10181 8
3 10182 10
3 10183 10
3 10184 3
3 10185 87
3 10186 84
3 10187 91
3 10188 48
3 10189 51
3 10190 11
3 10191 7
3 10192 20
3 10193 81
3 10194 6
3 10195 7
3 10196 15
3 10197 9
3 10198 44
3 10199 10
3 10200 17
3 10201 7
3 10202 11
3 10203 9
3 10204 20
3 10205 8
3 10206 46
3 10207 9
3 10208 5
3 10209 40
3 10210 4
3 10211 12
3 10212 4
3 10213 70
3 10214 19
3 10215 10
3 10216 135
3 10217 64
3 10218 11
3 10219 13
3 10220 6
3 10221 16
3 10222 12
3 10223 10
3 10224 7
3 10225 36
3 10226 17
3 10227 44
3 10228 12
3 10229 37
3 10230 59
3 10231 6
3 10232 23
3 10233 9
3 10234 7
3 10235 8
3 10236 17
3 10237 64
3 10238 7
3 10239 12
3 10240 8
3 10241 28
3 10242 35
3 10243 5
3 10244 7
3 10245 6
3 10246 74
3 10247 24
3 10248 7
3 10249 16
3 10250 10
3 10251 9
3 10252 13
3 10253 15
3 10254 42
3 10255 60
3 10256 15
3 10257 5
3 10258 12
3 10259 10
3 10260 11
3 10261 13
3 10262 12
3 10263 9
3 10264 65
3 10265 58
3 10266 7
3 10267 124
3 10268 19
3 10269 12
3 10270 12
3 10271 27
3 10272 9
3 10273 66
3 10274 22
3 10275 21
3 10276 6
3 10277 18
3 10278 8
3 10279 12
3 10280 14
3 10281 128
3 10282 10
3 10283 25
3 10284 7
3 10285 16
3 10286 16
3 10287 16
3 10288 12
3 10289 26
3 10290 37
3 10291 12
3 10292 42
3 10293 82
3 10294 8
3 10295 16
3 10296 7
3 10297 20
3 10298 15
3 10299 108
3 10300 3
3 10301 21
3 10302 41
3 10303 7
3 10304 7
3 10305 11
3 10306 35
3 10307 50
3 10308 33
3 10309 7
3 10310 15
3 10311 15
3 10312 10
3 10313 5
3 10314 8
3 10315 7
3 10316 12
3 10317 9
3 10318 11
3 10319 9
3 10320 7
3 10321 9
3 10322 7
3 10323 58
3 10324 51
3 10325 4
3 10326 12
3 10327 9
3 10328 8
3 10329 9
3 10330 9
3 10331 11
3 10332 9
3 10333 99
3 10334 69
3 10335 10
3 10336 23
3 10337 12
3 10338 15
3 10339 1186
3 10340 24
3 10341 59
3 10342 15
3 10343 12
3 10344 11
3 10345 10
3 10346 53
3 10347 40
3 10348 12
3 10349 8
3 10350 5
3 10352 8
3 10353 60
3 10354 24
3 10355 8
3 10356 17
3 10357 11
3 10358 45
3 10359 11
3 10360 38
3 10361 16
3 10362 13
3 10363 102
3 10364 9
3 10365 2
3 10366 12
3 10367 8
3 10368 17
3 10369 5
3 10370 98
3 10371 27
3 10372 126
3 10373 10
3 10374 12
3 10375 5
3 10376 10
3 10377 62
3 10378 3
3 10379 11
3 10380 10
3 10381 22
3 10382 129
3 10383 8
3 10384 12
3 10385 2
3 10386 11
3 10387 14
3 10388 10
3 10389 21
3 10390 12
3 10391 30
3 10392 31
3 10393 10
3 10394 180
3 10395 7
3 10396 6
3 10397 34
3 10398 8
3 10399 27
3 10400 19
3 10401 4
3 10402 4
3 10403 52
3 10404 12
3 10405 8
3 10406 15
3 10407 11
3 10408 51
3 10409 28
3 10410 6
3 10411 6
3 10412 8
3 10413 6
3 10414 11
3 10415 6
3 10416 12
3 10417 45
3 10418 11
3 10419 12
3 10420 23
3 10421 6
3 10422 97
3 10423 17
3 10424 1127
3 10425 7
3 10426 17
3 10427 3
3 10428 23
3 10429 13
3 10430 19
3 10431 55
3 10432 14
3 10433 94
3 10434 23
3 10435 12
3 10436 7
3 10437 58
3 10438 6
3 10439 8
3 10440 912
3 10441 8
3 10442 39
3 10443 25
3 10444 16
3 10445 17
3 10446 73
3 10447 10
3 10448 45
3 10449 11
3 10450 6
3 10451 49
3 10452 14
3 10453 33
3 10454 6
3 10455 11
3 10456 10
3 10457 11
3 10458 3
3 10459 91
3 10460 41
3 10461 15
3 10462 1195
3 10463 17
3 10464 9
3 10465 15
3 10466 55
3 10467 125
3 10468 120
3 10469 22
3 10470 19
3 10471 49
3 10472 132
3 10473 14
3 10474 10
3 10475 107
3 10476 35
3 10477 13
3 10478 7
3 10479 33
3 10480 6
3 10481 24
3 10482 71
3 10483 12
3 10484 10
3 10485 126
3 10486 18
3 10487 12
3 10488 14
3 10489 12
3 10490 19
3 10491 11
3 10492 15
3 10493 7
3 10494 71
3 10495 20
3 10496 5
3 10497 12
3 10498 90
3 10499 14
3 10500 42
3 10501 65
3 10502 28
3 10503 13
3 10504 39
3 10505 8
3 10506 62
3 10507 15
3 10508 14
3 10509 22
3 10510 10
3 10511 7
3 10512 9
3 10513 22
3 10514 16
3 10515 44
3 10516 18
3 10517 50
3 10518 21
3 10519 11
3 10520 103
3 10521 13
3 10522 23
3 10523 7
3 10524 12
3 10525 181
3 10526 6
3 10527 1183
3 10528 11
3 10529 86
3 10530 9
3 10531 8
3 10532 4
3 10533 149
3 10534 11
3 10535 9
3 10536 8
3 10537 23
3 10538 29
3 10539 16
3 10540 11
3 10541 11
3 10542 11
3 10543 11
3 10544 7
3 10545 7
3 10546 8
3 10547 6
3 10548 39
3 10549 8
3 10550 14
3 10551 9
3 10552 9
3 10553 10
3 10554 10
3 10555 61
3 10556 17
3 10557 4
3 10558 8
3 10559 88
3 10560 30
3 10561 18
3 10562 22
3 10563 35
3 10564 7
3 10565 13
3 10566 7
3 10567 16
3 10568 11
3 10569 42
3 10570 8
3 10571 5
3 10572 47
3 10573 8
3 10574 8
3 10575 8
3 10576 18
3 10577 15
3 10578 26
3 10579 7
3 10580 6
3 10581 13
3 10582 6
3 10583 65
3 10584 10
3 10585 25
3 10586 3
3 10587 50
3 10588 11
3 10589 29
3 10590 10
3 10591 57
3 10592 8
3 10593 9
3 10594 7
3 10595 54
3 10596 35
3 10597 9
3 10598 58
3 10599 28
3 10600 10
3 10601 20
3 10602 102
3 10603 15
3 10604 12
3 10605 15
3 10606 12
3 10607 25
3 10608 9
3 10609 12
3 10610 12
3 10611 78
3 10612 3
3 10613 15
3 10614 15
3 10615 10
3 10616 9
3 10617 14
3 10618 7
3 10619 22
3 10620 8
3 10621 39
3 10622 8
3 10623 13
3 10624 63
3 10625 11
3 10626 8
3 10627 108
3 10628 4
3 10629 11
3 10630 37
3 10631 27
3 10632 6
3 10633 14
3 10634 10
3 10635 4
3 10636 369
3 10637 4
3 10638 11
3 10639 30
3 10640 101
3 10641 77
3 10642 6
3 10643 15
3 10644 6
3 10645 6
3 10646 9
3 10647 11
3 10648 8
3 10649 31
3 10650 7
3 10651 11
3 10652 98
3 10653 18
3 10654 55
3 10655 13
3 10656 14
3 10657 15
3 10658 22
3 10659 15
3 10660 14
3 10661 12
3 10662 15
3 10663 14
3 10664 13
3 10665 13
3 10666 10
3 10667 26
3 10668 11
3 10669 15
3 10670 13
3 10671 51
3 10672 18
3 10673 21
3 10674 81
3 10675 8
3 10676 37
3 10677 6
3 10678 20
3 10679 62
3 10680 18
3 10681 36
3 10682 77
3 10683 4
3 10684 62
3 10685 80
3 10686 15
3 10687 5
3 10688 41
3 10689 15
3 10690 57
3 10691 10
3 10692 11
3 10693 13
3 10694 16
3 10695 3
3 10696 4
3 10697 23
3 10698 14
3 10699 15
3 10700 9
3 10701 72
3 10702 12
3 10703 11
3 10704 8
3 10705 11
3 10706 11
3 10707 34
3 10708 75
3 10709 17
3 10710 7
3 10711 7
3 10712 12
3 10713 10
3 10714 20
3 10715 17
3 10716 26
3 10717 6
3 10718 77
3 10719 21
3 10720 39
3 10721 7
3 10722 10
3 10723 14
3 10724 11
3 10725 13
3 10726 10
3 10727 59
3 10728 14
3 10729 11
3 10730 12
3 10731 34
3 10732 18
3 10733 16
3 10734 6
3 10735 10
3 10736 43
3 10737 6
3 10738 15
3 10739 8
3 10740 20
3 10741 17
3 10742 12
3 10743 7
3 10744 8
3 10745 10
3 10746 15
3 10747 13
3 10748 89
3 10749 5
3 10750 10
3 10751 8
3 10752 15
3 10753 5
3 10754 10
3 10755 15
3 10756 18
3 10757 8
3 10758 12
3 10759 19
3 10760 9
3 10761 7
3 10762 1
3 10763 305
3 10764 11
3 10765 22
3 10766 39
3 10767 75
3 10768 17
3 10769 14
3 10770 10
3 10771 34
3 10772 13
3 10773 231
3 10774 8
3 10775 8
3 10776 8
3 10777 7
3 10778 11
3 10779 10
3 10780 20
3 10781 51
3 10782 15
3 10783 17
3 10784 174
3 10785 24
3 10786 12
3 10787 10
3 10788 15
3 10789 10
3 10790 13
3 10791 35
3 10792 25
3 10793 3
3 10794 69
3 10795 15
3 10796 70
3 10797 15
3 10798 13
3 10799 4
3 10800 7
3 10801 12
3 10802 11
3 10803 18
3 10804 14
3 10805 16
3 10806 8
3 10807 164
3 10808 72
3 10809 17
3 10810 64
3 10811 47
3 10812 94
3 10813 15
3 10814 11
3 10815 70
3 10816 5
3 10817 5
3 10818 7
3 10819 17
3 10820 52
3 10821 7
3 10822 10
3 10823 27
3 10824 16
3 10825 23
3 10826 11
3 10827 62
3 10828 1214
3 10829 131
3 10830 67
3 10831 16
3 10832 7
3 10833 10
3 10834 14
3 10835 21
3 10836 256
3 10837 38
3 10838 78
3 10839 14
3 10840 10
3 10841 6
3 10842 17
3 10843 51
3 10844 15
3 10845 14
3 10846 8
3 10847 29
3 10848 3
3 10849 74
3 10850 46
3 10851 4
3 10852 33
3 10853 11
3 10854 16
3 10855 12
3 10856 35
3 10857 28
3 10858 6
3 10859 62
3 10860 11
3 10861 27
3 10862 29
3 10863 16
3 10864 7
3 10865 13
3 10866 28
3 10867 7
3 10868 6
3 10869 20
3 10870 11
3 10871 4
3 10872 79
3 10873 46
3 10874 10
3 10875 7
3 10876 15
3 10877 13
3 10878 66
3 10879 9
3 10880 11
3 10881 17
3 10882 6
3 10883 22
3 10884 12
3 10885 14
3 10886 45
3 10887 14
3 10888 9
3 10889 4
3 10890 20
3 10891 13
3 10892 26
3 10893 353
3 10894 10
3 10895 198
3 10896 9
3 10897 18
3 10898 22
3 10899 9
3 10900 16
3 10901 9
3 10902 10
3 10903 8
3 10904 9
3 10905 14
3 10906 128
3 10907 16
3 10908 49
3 10909 6
3 10910 63
3 10911 25
3 10912 11
3 10913 24
3 10914 11
3 10915 10
3 10916 15
3 10917 3
3 10918 26
3 10919 12
3 10920 6
3 10921 138
3 10922 16
3 10923 46
3 10924 60
3 10925 77
3 10926 9
3 10927 11
3 10928 9
3 10929 41
3 10930 13
3 10931 46
3 10932 61
3 10933 12
3 10934 17
3 10935 24
3 10936 83
3 10937 109
3 10938 11
3 10939 14
3 10940 8
3 10941 99
3 10942 10
3 10943 9
3 10944 122
3 10945 10
3 10946 10
3 10947 20
3 10948 10
3 10949 83
3 10950 11
3 10951 51
3 10952 16
3 10953 4
3 10954 6
3 10955 7
3 10956 60
3 10957 58
3 10958 40
3 10959 8
3 10960 17
3 10961 10
3 10962 9
3 10963 82
3 10964 10
3 10965 3
3 10966 40
3 10967 108
3 10968 10
3 10969 15
3 10970 53
3 10971 105
3 10972 14
3 10973 19
3 10974 33
3 10975 17
3 10976 6
3 10977 7
3 10978 3
3 10979 75
3 10980 11
3 10981 14
3 10982 91
3 10983 13
3 10984 14
3 10985 14
3 10986 5
3 10987 58
3 10988 10
3 10989 6
3 10990 10
3 10991 164
3 10992 72
3 10993 14
3 10994 28
3 10995 23
3 10996 9
3 10997 12
3 10998 14
3 10999 18
3 11000 35
3 11001 51
3 11002 9
3 11003 7
3 11004 202
3 11005 12
3 11006 9
3 11007 22
3 11008 35
3 11009 9
3 11010 19
3 11011 86
3 11012 10
3 11013 12
3 11014 23
3 11015 66
3 11016 17
3 11017 74
3 11018 9
3 11019 8
3 11020 8
3 11021 8
3 11022 8
3 11023 8
3 11024 33
3 11025 8
3 11026 36
3 11027 12
3 11028 103
3 11029 6
3 11030 24
3 11031 39
3 11032 26
3 11033 12
3 11034 86
3 11035 9
3 11036 13
3 11037 41
3 11038 9
3 11039 63
3 11040 8
3 11041 11
3 11042 42
3 11043 10
3 11044 8
3 11045 9
3 11046 7
3 11047 17
3 11048 12
3 11049 14
3 11050 71
3 11051 17
3 11052 78
3 11053 20
3 11054 17
3 11055 15
3 11056 41
3 11057 12
3 11058 13
3 11059 16
3 11060 6
3 11061 78
3 11062 9
3 11063 60
3 11064 13
3 11065 7
3 11066 14
3 11067 62
3 11068 3
3 11069 91
3 11070 31
3 11071 17
3 11072 7
3 11073 8
3 11074 48
3 11075 14
3 11076 90
3 11077 11
3 11078 8
3 11079 2
3 11080 8
3 11081 9
3 11082 8
3 11083 9
3 11084 13
3 11085 16
3 11086 13
3 11087 58
3 11088 37
3 11089 7
3 11090 104
3 11091 59
3 11092 46
3 11093 7
3 11094 14
3 11095 14
3 11096 8
3 11097 39
3 11098 13
3 11099 11
3 11100 17
3 11101 14
3 11102 24
3 11103 7
3 11104 7
3 11105 3
3 11106 9
3 11107 888
3 11108 6
3 11109 11
3 11110 7
3 11111 1
3 11112 64
3 11113 31
3 11114 28
3 11115 16
3 11116 78
3 11117 73
3 11118 51
3 11119 9
3 11120 8
3 11121 19
3 11122 6
3 11123 10
3 11124 9
3 11125 13
3 11126 7
3 11127 6
3 11128 9
3 11129 9
3 11130 8
3 11131 9
3 11132 42
3 11133 10
3 11134 10
3 11135 5
3 11136 22
3 11137 56
3 11138 15
3 11139 7
3 11140 5
3 11141 22
3 11142 49
3 11143 9
3 11144 13
3 11145 12
3 11146 9
3 11147 23
3 11148 5
3 11149 85
3 11150 7
3 11151 67
3 11152 10
3 11153 11
3 11154 11
3 11155 73
3 11156 7
3 11157 9
3 11158 28
3 11159 98
3 11160 14
3 11161 22
3 11162 22
3 11163 122
3 11164 5
3 11165 1
3 11166 7
3 11167 14
3 11168 9
3 11169 11
3 11170 10
3 11171 5
3 11172 10
3 11173 7
3 11174 3
3 11175 9
3 11176 10
3 11177 56
3 11178 20
3 11179 58
3 11180 32
3 11181 16
3 11182 6
3 11183 8
3 11184 12
3 11185 8
3 11186 13
3 11187 9
3 11188 12
3 11189 12
3 11190 11
3 11191 16
3 11192 36
3 11193 9
3 11194 65
3 11195 13
3 11196 9
3 11197 18
3 11198 5
3 11199 792
3 11200 8
3 11201 9
3 11202 63
3 11203 37
3 11204 103
3 11205 17
3 11206 16
3 11207 12
3 11208 22
3 11209 6
3 11210 4
3 11211 17
3 11212 11
3 11213 55
3 11214 5
3 11215 1000
3 11216 71
3 11217 14
3 11218 8
3 11219 22
3 11220 5
3 11221 7
3 11222 933
3 11223 14
3 11224 17
3 11225 4
3 11226 7
3 11227 88
3 11228 12
3 11229 10
3 11230 7
3 11231 34
3 11232 6
3 11233 28
3 11234 99
3 11235 9
3 11236 17
3 11237 5
3 11238 13
3 11239 6
3 11240 110
3 11241 13
3 11242 9
3 11243 16
3 11244 11
3 11245 33
3 11246 68
3 11247 24
3 11248 8
3 11249 14
3 11250 13
3 11251 10
3 11252 7
3 11253 6
3 11254 5
3 11255 20
3 11256 8
3 11257 54
3 11258 2
3 11259 19
3 11260 7
3 11261 15
3 11262 18
3 11263 69
3 11264 10
3 11265 39
3 11266 36
3 11267 47
3 11268 90
3 11269 20
3 11270 13
3 11271 14
3 11272 15
3 11273 10
3 11274 10
3 11275 7
3 11276 41
3 11277 3
3 11278 31
3 11279 9
3 11280 10
3 11281 66
3 11282 14
3 11283 16
3 11284 49
3 11285 16
3 11286 34
3 11287 48
3 11288 30
3 11289 14
3 11290 11
3 11291 39
3 11292 7
3 11293 24
3 11294 56
3 11295 25
3 11296 9
3 11297 17
3 11298 55
3 11299 12
3 11300 4
3 11301 6
3 11302 5
3 11303 9
3 11304 84
3 11305 7
3 11306 44
3 11307 36
3 11308 75
3 11309 74
3 11310 13
3 11311 17
3 11312 14
3 11313 12
3 11314 7
3 11315 24
3 11316 79
3 11317 11
3 11318 13
3 11319 65
3 11320 9
3 11321 9
3 11322 110
3 11323 13
3 11324 31
3 11325 78
3 11326 10
3 11327 11
3 11328 37
3 11329 52
3 11330 46
3 11331 13
3 11332 15
3 11333 14
3 11334 16
3 11335 13
3 11336 8
3 11337 10
3 11338 7
3 11339 9
3 11340 7
3 11341 11
3 11342 15
3 11343 18
3 11344 10
3 11345 20
3 11346 1146
3 11347 9
3 11348 4
3 11349 5
3 11350 11
3 11351 6
3 11352 10
3 11353 61
3 11354 68
3 11355 66
3 11356 10
3 11357 96
3 11358 5
3 11359 18
3 11360 15
3 11361 86
3 11362 10
3 11363 11
3 11364 29
3 11365 11
3 11366 13
3 11367 5
3 11368 8
3 11369 87
3 11370 14
3 11371 33
3 11372 13
3 11373 11
3 11374 10
3 11375 36
3 11376 11
3 11377 7
3 11378 9
3 11379 7
3 11380 19
3 11381 57
3 11382 5
3 11383 13
3 11384 14
3 11385 93
3 11386 11
3 11387 12
3 11388 12
3 11389 19
3 11390 7
3 11391 13
3 11392 8
3 11393 14
3 11394 6
3 11395 62
3 11396 59
3 11397 470
3 11398 8
3 11399 8
3 11400 9
3 11401 11
3 11402 7
3 11403 25
3 11404 6
3 11405 13
3 11406 13
3 11407 13
3 11408 6
3 11409 4
3 11410 27
3 11411 9
3 11412 145
3 11413 9
3 11414 11
3 11415 11
3 11416 12
3 11417 7
3 11418 106
3 11419 13
3 11420 18
3 11421 82
3 11422 19
3 11423 8
3 11424 6
3 11425 19
3 11426 15
3 11427 13
3 11428 13
3 11429 6
3 11430 18
3 11431 90
3 11432 18
3 11433 15
3 11434 20
3 11435 26
3 11436 8
3 11437 43
3 11438 81
3 11439 10
3 11440 7
3 11441 239
3 11442 80
3 11444 68
3 11445 24
3 11446 12
3 11447 65
3 11448 36
3 11449 2
3 11450 10
3 11451 17
3 11452 26
3 11453 9
3 11454 9
3 11455 11
3 11456 7
3 11457 16
3 11458 13
3 11459 63
3 11460 17
3 11461 14
3 11462 90
3 11463 29
3 11464 7
3 11465 18
3 11466 10
3 11467 31
3 11468 5
3 11469 9
3 11470 92
3 11471 9
3 11472 49
3 11473 5
3 11474 8
3 11475 7
3 11476 175
3 11477 10
3 11478 40
3 11479 77
3 11480 48
3 11481 18
3 11482 9
3 11483 40
3 11484 9
3 11485 18
3 11486 37
3 11487 6
3 11488 17
3 11489 15
3 11490 9
3 11491 5
3 11492 7
3 11493 7
3 11494 14
3 11495 17
3 11496 83
3 11497 7
3 11498 154
3 11499 8
3 11500 58
3 11501 7
3 11502 77
3 11503 12
3 11504 61
3 11505 105
3 11506 7
3 11507 14
3 11508 34
3 11509 64
3 11510 130
3 11511 14
3 11512 11
3 11513 8
3 11514 11
3 11515 17
3 11516 9
3 11517 85
3 11518 8
3 11519 55
3 11520 18
3 11521 9
3 11522 41
3 11523 9
3 11524 7
3 11525 7
3 11526 22
3 11527 9
3 11528 46
3 11529 8
3 11531 15
3 11532 10
3 11533 9
3 11534 5
3 11535 85
3 11536 39
3 11537 83
3 11538 18
3 11539 16
3 11540 5
3 11541 13
3 11542 6
3 11543 3
3 11544 15
3 11545 14
3 11546 8
3 11547 5
3 11548 29
3 11549 17
3 11550 24
3 11551 56
3 11552 9
3 11553 60
3 11554 9
3 11555 28
3 11556 10
3 11557 16
3 11558 8
3 11559 20
3 11560 18
3 11561 47
3 11562 60
3 11563 45
3 11564 17
3 11565 17
3 11566 77
3 11567 11
3 11568 18
3 11569 7
3 11570 52
3 11571 20
3 11572 13
3 11573 10
3 11574 12
3 11575 58
3 11576 9
3 11577 9
3 11578 57
3 11579 12
3 11580 8
3 11581 10
3 11582 16
3 11584 54
3 11585 94
3 11586 69
3 11587 17
3 11588 13
3 11589 8
3 11590 4
3 11591 38
3 11592 8
3 11593 9
3 11594 8
3 11595 12
3 11596 10
3 11597 8
3 11598 5
3 11599 8
3 11600 18
3 11601 47
3 11602 62
3 11603 82
3 11604 36
3 11605 936
3 11606 22
3 11607 13
3 11608 20
3 11609 11
3 11610 18
3 11611 43
3 11612 21
3 11613 11
3 11614 10
3 11615 35
3 11616 115
3 11617 13
3 11618 16
3 11619 13
3 11620 25
3 11621 10
3 11622 7
3 11623 14
3 11624 54
3 11625 10
3 11626 52
3 11627 10
3 11628 15
3 11629 74
3 11630 39
3 11631 7
3 11632 12
3 11633 15
3 11634 4
3 11635 18
3 11636 13
3 11637 13
3 11638 9
3 11639 12
3 11640 4
3 11641 4
3 11642 55
3 11643 8
3 11644 41
3 11645 21
3 11646 189
3 11647 3
3 11648 16
3 11649 10
3 11650 9
3 11651 35
3 11652 57
3 11654 191
3 11655 7
3 11656 7
3 11657 5
3 11658 10
3 11659 31
3 11660 38
3 11661 9
3 11662 8
3 11663 15
3 11664 18
3 11665 10
3 11666 20
3 11667 1
3 11668 9
3 11669 19
3 11670 5
3 11671 18
3 11672 8
3 11673 39
3 11674 52
3 11675 51
3 11676 48
3 11677 8
3 11678 5
3 11679 38
3 11680 18
3 11681 14
3 11682 15
3 11683 8
3 11684 3
3 11685 11
3 11686 4
3 11687 9
3 11688 10
3 11689 7
3 11690 6
3 11691 10
3 11692 1194
3 11693 46
3 11694 19
3 11695 8
3 11696 23
3 11697 57
3 11698 13
3 11699 8
3 11700 1
3 11701 16
3 11702 13
3 11703 3
3 11704 9
3 11705 13
3 11706 41
3 11707 80
3 11708 10
3 11709 7
3 11710 14
3 11711 21
3 11712 14
3 11713 5
3 11714 62
3 11715 10
3 11716 8
3 11717 27
3 11719 16
3 11720 24
3 11721 13
3 11722 6
3 11723 14
3 11724 12
3 11725 11
3 11726 14
3 11727 6
3 11728 10
3 11729 10
3 11730 5
3 11731 14
3 11732 23
3 11733 9
3 11734 12
3 11735 11
3 11736 15
3 11737 11
3 11738 40
3 11739 6
3 11740 15
3 11741 38
3 11742 52
3 11743 14
3 11744 10
3 11745 64
3 11746 19
3 11747 2
3 11748 5
3 11749 14
3 11750 56
3 11751 42
3 11752 4
3 11753 12
3 11754 76
3 11755 13
3 11756 154
3 11757 11
3 11758 8
3 11759 13
3 11760 10
3 11761 32
3 11762 12
3 11763 9
3 11764 8
3 11765 22
3 11766 24
3 11767 9
3 11768 6
3 11769 22
3 11770 60
3 11771 29
3 11772 12
3 11773 4
3 11774 15
3 11775 53
3 11776 45
3 11777 13
3 11778 10
3 11779 7
3 11780 6
3 11781 88
3 11782 18
3 11783 15
3 11784 5
3 11785 12
3 11786 17
3 11787 10
3 11788 10
3 11789 12
3 11790 14
3 11791 21
3 11792 13
3 11793 23
3 11794 64
3 11795 14
3 11796 18
3 11797 2
3 11798 9
3 11799 9
3 11800 74
3 11801 16
3 11802 25
3 11803 192
3 11804 12
3 11805 20
3 11806 15
3 11807 50
3 11808 61
3 11809 64
3 11810 13
3 11811 5
3 11812 19
3 11813 5
3 11814 8
3 11815 11
3 11816 15
3 11817 18
3 11818 8
3 11819 14
3 11820 78
3 11821 12
3 11822 71
3 11823 28
3 11824 61
3 11825 50
3 11826 9
3 11827 88
3 11828 12
3 11829 8
3 11830 4
3 11831 16
3 11832 15
3 11833 22
3 11834 9
3 11835 63
3 11836 16
3 11837 10
3 11838 15
3 11839 9
3 11840 8
3 11841 19
3 11842 18
3 11843 7
3 11844 28
3 11845 3
3 11846 12
3 11847 8
3 11848 47
3 11849 11
3 11850 9
3 11851 9
3 11852 12
3 11853 13
3 11854 9
3 11855 18
3 11856 26
3 11857 3
3 11858 9
3 11859 6
3 11860 16
3 11861 13
3 11862 7
3 11863 17
3 11864 11
3 11865 11
3 11866 12
3 11867 8
3 11868 5
3 11869 6
3 11870 11
3 11871 9
3 11872 11
3 11873 6
3 11874 6
3 11875 9
3 11876 9
3 11877 8
3 11878 2
3 11879 15
3 11880 13
3 11881 15
3 11882 13
3 11883 16
3 11884 17
3 11885 180
3 11886 48
3 11887 10
3 11888 19
3 11889 97
3 11890 9
3 11891 9
3 11892 1181
3 11893 19
3 11894 9
3 11895 29
3 11896 18
3 11897 8
3 11898 48
3 11899 15
3 11900 950
3 11901 132
3 11902 13
3 11903 45
3 11904 5
3 11905 12
3 11906 5
3 11907 11
3 11908 13
3 11909 17
3 11910 13
3 11911 66
3 11912 8
3 11913 21
3 11914 12
3 11915 20
3 11916 4
3 11917 39
3 11918 7
3 11919 89
3 11920 14
3 11921 49
3 11922 10
3 11923 4
3 11924 11
3 11925 16
3 11926 16
3 11927 15
3 11928 60
3 11929 18
3 11930 14
3 11931 15
3 11932 49
3 11933 456
3 11934 16
3 11935 10
3 11936 86
3 11937 21
3 11938 11
3 11939 7
3 11940 36
3 11941 11
3 11942 12
3 11943 22
3 11944 6
3 11945 8
3 11946 9
3 11947 27
3 11948 5
3 11949 122
3 11950 8
3 11951 6
3 11952 8
3 11953 18
3 11954 54
3 11955 15
3 11956 11
3 11957 5
3 11958 16
3 11959 27
3 11960 8
3 11961 26
3 11962 10
3 11963 16
3 11964 18
3 11965 19
3 11966 29
3 11967 52
3 11968 3
3 11969 15
3 11970 15
3 11971 9
3 11972 19
3 11973 17
3 11974 40
3 11975 28
3 11976 9
3 11977 30
3 11978 10
3 11979 10
3 11980 7
3 11981 19
3 11982 9
3 11983 12
3 11984 11
3 11985 17
3 11986 48
3 11987 9
3 11988 10
3 11989 14
3 11990 14
3 11991 62
3 11992 23
3 11993 90
3 11994 25
3 11995 6
3 11996 50
3 11997 10
3 11998 2
3 11999 47
3 12000 41
3 12001 33
3 12003 2
3 12004 14
3 12005 14
3 12006 7
3 12007 19
3 12008 15
3 12009 6
3 12010 91
3 12011 18
3 12012 313
3 12013 11
3 12014 16
3 12015 19
3 12016 31
3 12017 43
3 12018 12
3 12019 42
3 12020 15
3 12021 9
3 12022 11
3 12023 4
3 12024 9
3 12025 181
3 12026 31
3 12027 10
3 12028 8
3 12029 13
3 12030 49
3 12031 8
3 12032 9
3 12033 30
3 12034 9
3 12035 10
3 12036 5
3 12037 19
3 12038 12
3 12039 8
3 12040 9
3 12041 14
3 12042 19
3 12043 34
3 12044 5
3 12045 27
3 12046 16
3 12047 12
3 12048 17
3 12049 17
3 12050 10
3 12051 55
3 12052 16
3 12053 15
3 12054 13
3 12055 17
3 12056 16
3 12057 18
3 12058 5
3 12059 3
3 12060 71
3 12061 10
3 12062 4
3 12063 137
3 12064 20
3 12065 23
3 12066 7
3 12067 10
3 12068 90
3 12070 21
3 12071 8
3 12072 4
3 12073 32
3 12074 14
3 12075 14
3 12076 15
3 12077 8
3 12078 7
3 12079 14
3 12080 54
3 12081 12
3 12082 10
3 12083 16
3 12084 142
3 12085 5
3 12086 8
3 12087 33
3 12088 11
3 12089 12
3 12090 12
3 12091 20
3 12092 64
3 12093 11
3 12094 8
3 12095 7
3 12096 12
3 12097 10
3 12098 53
3 12099 22
3 12100 17
3 12101 7
3 12102 7
3 12103 61
3 12104 103
3 12105 70
3 12106 21
3 12107 1217
3 12108 20
3 12109 7
3 12110 3
3 12111 7
3 12112 4
3 12113 9
3 12114 29
3 12115 10
3 12116 41
3 12117 11
3 12118 58
3 12119 36
3 12120 8
3 12121 81
3 12122 4
3 12123 6
3 12124 12
3 12125 13
3 12126 12
3 12127 42
3 12128 11
3 12129 41
3 12130 14
3 12131 11
3 12132 16
3 12133 11
3 12134 10
3 12135 15
3 12136 8
3 12137 5
3 12138 5
3 12139 10
3 12140 5
3 12141 16
3 12142 11
3 12143 18
3 12144 11
3 12145 12
3 12146 7
3 12147 35
3 12148 7
3 12149 14
3 12150 17
3 12151 20
3 12152 65
3 12153 95
3 12154 72
3 12155 6
3 12156 59
3 12157 18
3 12158 5
3 12159 31
3 12160 17
3 12161 150
3 12162 78
3 12163 10
3 12164 38
3 12165 18
3 12166 23
3 12167 38
3 12168 11
3 12169 33
3 12170 15
3 12171 17
3 12172 2
3 12173 11
3 12174 12
3 12175 84
3 12176 9
3 12177 8
3 12178 16
3 12179 4
3 12180 61
3 12181 42
3 12182 48
3 12183 12
3 12184 19
3 12185 7
3 12186 7
3 12187 13
3 12188 52
3 12189 20
3 12190 5
3 12191 7
3 12192 54
3 12193 48
3 12194 4
3 12195 29
3 12196 8
3 12197 72
3 12198 13
3 12199 6
3 12200 68
3 12201 11
3 12202 15
3 12203 86
3 12204 7
3 12205 4
3 12206 70
3 12207 8
3 12208 8
3 12209 10
3 12210 12
3 12211 13
3 12212 31
3 12213 6
3 12214 10
3 12215 27
3 12216 18
3 12217 7
3 12218 43
3 12219 63
3 12220 109
3 12221 8
3 12222 2
3 12223 14
3 12224 8
3 12225 25
3 12226 4
3 12227 16
3 12228 19
3 12229 88
3 12230 11
3 12231 7
3 12232 11
3 12233 12
3 12234 6
3 12235 9
3 12236 5
3 12237 14
3 12238 28
3 12239 6
3 12240 54
3 12241 4
3 12242 6
3 12243 2
3 12244 55
3 12245 19
3 12246 12
3 12247 14
3 12248 11
3 12249 57
3 12250 9
3 12251 10
3 12252 34
3 12253 8
3 12254 9
3 12255 14
3 12256 5
3 12257 8
3 12258 5
3 12259 19
3 12260 22
3 12261 78
3 12262 15
3 12263 146
3 12264 16
3 12265 5
3 12266 33
3 12267 15
3 12268 144
3 12269 10
3 12270 14
3 12271 8
3 12272 15
3 12273 4
3 12274 2
3 12275 11
3 12276 45
3 12277 12
3 12278 9
3 12279 9
3 12280 52
3 12281 4
3 12282 51
3 12283 28
3 12284 13
3 12285 31
3 12286 10
3 12287 55
3 12288 10
3 12289 5
3 12290 2
3 12291 2
3 12292 45
3 12293 43
3 12294 45
3 12295 7
3 12296 6
3 12297 19
3 12298 36
3 12299 13
3 12300 6
3 12301 17
3 12302 7
3 12303 8
3 12304 46
3 12305 1
3 12306 61
3 12307 6
3 12308 10
3 12309 29
3 12310 11
3 12311 7
3 12312 72
3 12313 6
3 12314 11
3 12315 5
3 12316 14
3 12317 19
3 12318 126
3 12319 10
3 12320 88
3 12321 10
3 12322 9
3 12323 15
3 12324 10
3 12325 16
3 12326 9
3 12327 12
3 12328 9
3 12329 23
3 12330 12
3 12331 32
3 12332 12
3 12333 9
3 12334 727
3 12335 5
3 12336 13
3 12337 8
3 12338 7
3 12339 12
3 12340 9
3 12341 2
3 12342 21
3 12343 59
3 12344 6
3 12345 9
3 12346 19
3 12347 15
3 12348 13
3 12349 6
3 12350 8
3 12351 9
3 12352 13
3 12353 49
3 12354 11
3 12355 6
3 12356 6
3 12357 5
3 12358 32
3 12359 38
3 12360 12
3 12361 10
3 12362 15
3 12363 6
3 12364 5
3 12365 22
3 12366 20
3 12367 3
3 12368 19
3 12369 1
3 12370 5
3 12371 65
3 12372 4
3 12373 8
3 12374 12
3 12375 7
3 12376 144
3 12377 8
3 12378 51
3 12379 48
3 12380 6
3 12381 9
3 12382 16
3 12383 23
3 12384 11
3 12385 12
3 12386 11
3 12387 67
3 12388 74
3 12389 7
3 12390 6
3 12391 19
3 12392 1175
3 12393 50
3 12394 101
3 12395 9
3 12396 11
3 12397 13
3 12398 22
3 12399 98
3 12400 4
3 12401 117
3 12402 8
3 12403 21
3 12404 29
3 12405 11
3 12406 62
3 12407 26
3 12408 30
3 12409 8
3 12410 17
3 12411 14
3 12412 64
3 12413 20
3 12414 530
3 12415 5
3 12416 11
3 12417 11
3 12418 3
3 12419 33
3 12420 11
3 12421 15
3 12422 8
3 12423 5
3 12424 15
3 12425 205
3 12426 47
3 12427 37
3 12428 4
3 12429 13
3 12430 11
3 12431 40
3 12432 7
3 12433 84
3 12434 86
3 12435 12
3 12436 11
3 12437 56
3 12438 10
3 12439 63
3 12440 3
3 12441 129
3 12442 11
3 12443 11
3 12444 8
3 12445 62
3 12446 8
3 12447 14
3 12448 35
3 12449 20
3 12450 13
3 12451 3
3 12453 17
3 12454 39
3 12455 9
3 12456 46
3 12457 10
3 12458 60
3 12459 9
3 12460 15
3 12461 9
3 12462 29
3 12463 29
3 12464 16
3 12465 70
3 12466 14
3 12467 77
3 12468 5
3 12469 9
3 12470 26
3 12471 65
3 12472 21
3 12473 4
3 12474 6
3 12475 11
3 12476 3
3 12477 9
3 12478 20
3 12479 9
3 12480 16
3 12481 14
3 12482 15
3 12483 43
3 12484 9
3 12485 6
3 12486 69
3 12487 52
3 12488 11
3 12489 81
3 12490 9
3 12491 9
3 12492 31
3 12493 8
3 12494 13
3 12495 35
3 12496 17
3 12497 52
3 12498 12
3 12499 14
3 12500 12
3 12501 12
3 12502 42
3 12503 422
3 12504 7
3 12505 8
3 12506 14
3 12507 8
3 12508 10
3 12509 55
3 12510 62
3 12511 8
3 12512 22
3 12513 11
3 12514 8
3 12515 6
3 12516 3
3 12517 59
3 12518 7
3 12519 4
3 12520 12
3 12521 45
3 12522 23
3 12523 58
3 12524 47
3 12525 10
3 12526 9
3 12527 65
3 12528 1
3 12529 18
3 12530 24
3 12531 18
3 12532 5
3 12533 30
3 12534 22
3 12535 9
3 12536 32
3 12537 27
3 12538 8
3 12539 10
3 12540 23
3 12541 55
3 12542 10
3 12543 19
3 12544 14
3 12545 9
3 12546 16
3 12547 26
3 12548 5
3 12549 11
3 12550 5
3 12551 7
3 12552 10
3 12553 15
3 12554 54
3 12555 15
3 12556 388
3 12557 16
3 12558 10
3 12559 18
3 12560 82
3 12561 7
3 12562 42
3 12563 10
3 12564 17
3 12566 12
3 12567 59
3 12568 11
3 12569 10
3 12570 19
3 12571 13
3 12572 5
3 12573 47
3 12574 101
3 12575 6
3 12576 56
3 12577 10
3 12578 8
3 12579 10
3 12580 40
3 12581 15
3 12582 15
3 12583 22
3 12584 15
3 12585 185
3 12586 6
3 12587 4
3 12588 10
3 12589 29
3 12590 14
3 12591 8
3 12592 37
3 12593 9
3 12594 12
3 12595 17
3 12596 4
3 12597 53
3 12598 1
3 12599 29
3 12600 6
3 12601 11
3 12602 2
3 12603 16
3 12604 1
3 12605 101
3 12606 86
3 12607 4
3 12608 49
3 12609 8
3 12610 34
3 12611 6
3 12612 22
3 12613 11
3 12614 7
3 12615 17
3 12616 9
3 12617 61
3 12618 5
3 12619 8
3 12620 11
3 12621 6
3 12622 4
3 12623 17
3 12624 23
3 12625 8
3 12626 6
3 12627 4
3 12628 3
3 12629 9
3 12630 51
3 12631 13
3 12632 16
3 12633 39
3 12634 8
3 12635 48
3 12636 12
3 12637 31
3 12638 67
3 12639 10
3 12640 35
3 12641 8
3 12642 112
3 12643 10
3 12644 117
3 12645 18
3 12646 11
3 12647 11
3 12648 11
3 12649 10
3 12650 1175
3 12651 10
3 12652 51
3 12653 18
3 12654 35
3 12655 16
3 12656 15
3 12657 8
3 12658 15
3 12659 16
3 12660 7
3 12661 17
3 12662 5
3 12663 18
3 12664 14
3 12665 14
3 12666 12
3 12667 22
3 12668 13
3 12669 6
3 12670 6
3 12671 40
3 12672 44
3 12673 20
3 12674 18
3 12675 12
3 12676 14
3 12677 451
3 12678 17
3 12679 6
3 12680 13
3 12681 11
3 12682 15
3 12683 24
3 12684 6
3 12685 41
3 12686 10
3 12687 12
3 12688 9
3 12689 30
3 12690 41
3 12691 1071
3 12692 10
3 12693 15
3 12694 9
3 12695 20
3 12696 17
3 12697 8
3 12698 7
3 12699 18
3 12700 59
3 12701 6
3 12702 10
3 12703 25
3 12704 9
3 12705 3
3 12706 39
3 12707 23
3 12708 22
3 12709 14
3 12710 2
3 12711 7
3 12712 13
3 12713 80
3 12714 14
3 12715 30
3 12716 13
3 12717 14
3 12718 26
3 12719 13
3 12720 18
3 12721 10
3 12722 11
3 12723 12
3 12724 6
3 12725 9
3 12726 27
3 12727 10
3 12728 7
3 12729 22
3 12730 119
3 12731 8
3 12732 61
3 12733 81
3 12734 18
3 12735 4
3 12736 139
3 12737 11
3 12738 13
3 12739 8
3 12740 22
3 12741 7
3 12742 80
3 12743 30
3 12744 16
3 12745 27
3 12746 8
3 12747 14
3 12748 9
3 12749 10
3 12750 10
3 12751 11
3 12752 8
3 12753 979
3 12754 7
3 12755 8
3 12756 37
3 12757 9
3 12758 10
3 12759 6
3 12760 5
3 12761 6
3 12762 11
3 12763 16
3 12764 39
3 12765 13
3 12766 49
3 12767 45
3 12768 7
3 12769 42
3 12770 22
3 12771 92
3 12772 7
3 12773 98
3 12774 14
3 12775 28
3 12776 8
3 12777 304
3 12778 18
3 12779 5
3 12780 14
3 12781 19
3 12782 10
3 12783 14
3 12784 11
3 12785 35
3 12786 5
3 12787 14
3 12788 20
3 12789 13
3 12790 9
3 12791 5
3 12792 27
3 12793 18
3 12794 38
3 12795 10
3 12796 35
3 12797 10
3 12798 2
3 12799 24
3 12800 8
3 12801 29
3 12802 11
3 12803 10
3 12804 11
3 12805 7
3 12806 13
3 12807 8
3 12808 20
3 12809 128
3 12810 18
3 12811 6
3 12812 4
3 12813 53
3 12814 9
3 12815 8
3 12816 38
3 12817 21
3 12818 55
3 12819 16
3 12820 14
3 12821 171
3 12822 6
3 12823 5
3 12824 11
3 12825 13
3 12826 6
3 12827 16
3 12828 40
3 12829 12
3 12830 6
3 12831 4
3 12832 8
3 12833 13
3 12834 18
3 12835 9
3 12836 17
3 12837 25
3 12838 33
3 12839 18
3 12840 22
3 12841 61
3 12842 20
3 12843 5
3 12844 72
3 12845 18
3 12846 94
3 12847 71
3 12848 19
3 12849 10
3 12850 36
3 12851 179
3 12852 21
3 12853 67
3 12854 71
3 12855 71
3 12856 9
3 12857 99
3 12858 7
3 12859 54
3 12860 12
3 12861 9
3 12862 141
3 12863 54
3 12864 19
3 12865 23
3 12866 21
3 12867 63
3 12868 17
3 12869 48
3 12870 75
3 12871 328
3 12872 8
3 12873 108
3 12874 8
3 12875 12
3 12876 17
3 12877 4
3 12878 22
3 12879 38
3 12880 6
3 12881 6
3 12882 57
3 12883 12
3 12884 7
3 12885 16
3 12886 4
3 12887 31
3 12888 6
3 12889 5
3 12890 39
3 12891 56
3 12892 13
3 12893 9
3 12894 52
3 12895 19
3 12896 15
3 12897 29
3 12898 10
3 12899 39
3 12900 9
3 12901 10
3 12902 69
3 12903 99
3 12904 17
3 12905 8
3 12906 8
3 12907 72
3 12908 12
3 12909 13
3 12910 10
3 12911 5
3 12912 57
3 12913 5
3 12914 36
3 12915 36
3 12916 11
3 12917 959
3 12918 13
3 12919 3
3 12920 14
3 12921 17
3 12922 44
3 12923 13
3 12924 15
3 12925 10
3 12926 35
3 12927 24
3 12928 8
3 12929 8
3 12930 43
3 12931 10
3 12932 21
3 12933 69
3 12934 13
3 12935 2
3 12936 9
3 12937 22
3 12938 7
3 12939 21
3 12940 20
3 12941 8
3 12942 13
3 12943 11
3 12944 11
3 12945 14
3 12946 11
3 12947 20
3 12948 6
3 12949 7
3 12950 13
3 12951 9
3 12952 12
3 12953 15
3 12954 45
3 12955 6
3 12956 6
3 12957 48
3 12958 15
3 12959 14
3 12960 19
3 12961 10
3 12962 6
3 12963 17
3 12964 37
3 12965 8
3 12966 15
3 12967 18
3 12968 15
3 12969 25
3 12970 18
3 12971 6
3 12972 58
3 12973 103
3 12974 14
3 12975 63
3 12976 11
3 12977 14
3 12978 47
3 12979 15
3 12980 11
3 12981 168
3 12982 15
3 12983 13
3 12984 12
3 12985 11
3 12986 24
3 12987 20
3 12988 38
3 12989 10
3 12990 33
3 12991 8
3 12992 4
3 12993 15
3 12994 6
3 12995 88
3 12996 100
3 12997 9
3 12998 8
3 12999 66
3 13000 16
3 13001 17
3 13002 19
3 13003 10
3 13004 12
3 13005 4
3 13006 10
3 13007 12
3 13008 8
3 13009 1152
3 13010 29
3 13011 16
3 13012 12
3 13013 10
3 13014 81
3 13015 6
3 13016 41
3 13017 17
3 13018 11
3 13019 121
3 13020 22
3 13021 15
3 13022 12
3 13023 36
3 13024 11
3 13025 13
3 13026 19
3 13027 15
3 13028 97
3 13029 57
3 13030 12
3 13031 13
3 13032 21
3 13033 15
3 13034 45
3 13035 51
3 13036 9
3 13037 4
3 13038 9
3 13039 15
3 13040 12
3 13041 15
3 13042 14
3 13043 10
3 13044 15
3 13045 18
3 13046 12
3 13047 9
3 13048 7
3 13049 15
3 13050 11
3 13051 38
3 13052 10
3 13053 13
3 13054 11
3 13055 37
3 13056 44
3 13057 54
3 13058 3
3 13059 9
3 13060 12
3 13061 62
3 13062 16
3 13063 9
3 13064 93
3 13065 32
3 13066 14
3 13067 4
3 13068 20
3 13069 13
3 13070 68
3 13071 8
3 13072 9
3 13073 56
3 13074 12
3 13075 17
3 13076 18
3 13077 7
3 13078 13
3 13079 12
3 13080 5
3 13081 15
3 13082 41
3 13083 9
3 13084 109
3 13085 134
3 13086 39
3 13087 12
3 13088 6
3 13089 16
3 13090 15
3 13091 11
3 13092 8
3 13093 154
3 13094 54
3 13095 13
3 13096 67
3 13097 6
3 13098 23
3 13099 10
3 13100 3
3 13101 11
3 13102 24
3 13103 33
3 13104 46
3 13105 73
3 13106 6
3 13107 5
3 13108 7
3 13109 21
3 13110 15
3 13111 10
3 13112 10
3 13113 65
3 13114 6
3 13115 12
3 13116 6
3 13117 10
3 13118 9
3 13119 11
3 13120 9
3 13121 13
3 13122 54
3 13123 84
3 13124 12
3 13125 77
3 13126 6
3 13127 6
3 13128 7
3 13129 7
3 13130 70
3 13131 11
3 13132 10
3 13133 5
3 13134 3
3 13135 5
3 13136 10
3 13137 5
3 13138 9
3 13139 7
3 13140 5
3 13141 4
3 13142 282
3 13143 40
3 13144 24
3 13145 34
3 13146 14
3 13147 13
3 13148 17
3 13149 16
3 13150 27
3 13151 10
3 13152 49
3 13153 30
3 13154 4
3 13155 14
3 13156 50
3 13157 7
3 13158 17
3 13159 15
3 13160 16
3 13161 3
3 13162 13
3 13163 23
3 13164 13
3 13165 13
3 13166 9
3 13167 46
3 13168 12
3 13169 141
3 13170 19
3 13171 7
3 13172 7
3 13173 10
3 13174 10
3 13175 38
3 13176 11
3 13177 75
3 13178 16
3 13179 18
3 13180 85
3 13181 7
3 13182 21
3 13183 7
3 13184 113
3 13185 5
3 13186 20
3 13187 104
3 13188 19
3 13189 8
3 13190 12
3 13191 21
3 13192 35
3 13193 5
3 13194 8
3 13195 9
3 13196 46
3 13197 11
3 13198 8
3 13199 61
3 13200 16
3 13201 55
3 13202 88
3 13203 12
3 13204 10
3 13205 10
3 13206 4
3 13207 16
3 13208 7
3 13209 14
3 13210 17
3 13211 50
3 13212 16
3 13213 79
3 13214 7
3 13215 21
3 13216 9
3 13217 22
3 13218 5
3 13219 6
3 13220 5
3 13221 6
3 13222 8
3 13223 72
3 13224 9
3 13225 9
3 13226 16
3 13227 5
3 13228 12
3 13229 25
3 13230 14
3 13231 18
3 13232 110
3 13233 50
3 13234 21
3 13235 18
3 13236 9
3 13237 13
3 13238 30
3 13239 20
3 13240 60
3 13241 11
3 13242 10
3 13243 14
3 13244 55
3 13245 64
3 13246 4
3 13247 99
3 13248 26
3 13249 9
3 13250 31
3 13251 11
3 13252 18
3 13253 7
3 13254 10
3 13255 23
3 13256 7
3 13257 9
3 13258 14
3 13259 56
3 13260 9
3 13261 32
3 13262 33
3 13263 12
3 13264 12
3 13265 68
3 13266 1
3 13267 47
3 13268 8
3 13269 13
3 13270 7
3 13271 5
3 13272 15
3 13273 52
3 13274 8
3 13275 7
3 13276 8
3 13277 11
3 13278 20
3 13279 52
3 13280 25
3 13281 5
3 13282 56
3 13283 42
3 13284 14
3 13285 11
3 13286 9
3 13287 4
3 13288 7
3 13289 10
3 13290 36
3 13291 2
3 13292 6
3 13293 11
3 13294 118
3 13295 39
3 13296 8
3 13297 60
3 13298 8
3 13299 18
3 13300 4
3 13301 5
3 13302 41
3 13303 11
3 13304 10
3 13305 5
3 13306 10
3 13307 1051
3 13308 4
3 13309 11
3 13310 29
3 13311 12
3 13312 19
3 13313 133
3 13314 36
3 13315 48
3 13316 72
3 13317 13
3 13318 45
3 13319 8
3 13320 11
3 13321 12
3 13322 64
3 13323 3
3 13324 20
3 13325 11
3 13326 12
3 13327 4
3 13328 11
3 13329 10
3 13330 5
3 13331 39
3 13332 16
3 13333 13
3 13334 16
3 13335 252
3 13336 7
3 13337 4
3 13338 11
3 13339 12
3 13340 63
3 13341 54
3 13342 15
3 13343 14
3 13344 9
3 13345 39
3 13346 10
3 13347 24
3 13348 6
3 13349 12
3 13350 15
3 13351 12
3 13352 51
3 13353 7
3 13354 29
3 13355 14
3 13356 7
3 13357 17
3 13358 4
3 13359 73
3 13360 102
3 13361 13
3 13362 149
3 13363 6
3 13364 4
3 13365 6
3 13366 8
3 13367 9
3 13368 66
3 13369 22
3 13370 9
3 13371 13
3 13372 9
3 13373 5
3 13374 65
3 13375 48
3 13376 10
3 13377 13
3 13378 52
3 13379 21
3 13380 5
3 13381 30
3 13382 4
3 13383 5
3 13384 667
3 13385 55
3 13386 4
3 13387 4
3 13388 39
3 13389 11
3 13390 55
3 13391 8
3 13392 8
3 13393 50
3 13394 74
3 13395 41
3 13396 9
3 13397 159
3 13398 15
3 13399 4
3 13400 64
3 13401 3
3 13402 7
3 13403 10
3 13404 13
3 13405 25
3 13406 4
3 13407 18
3 13408 10
3 13409 5
3 13410 50
3 13411 16
3 13412 74
3 13413 14
3 13414 13
3 13415 60
3 13416 4
3 13417 79
3 13418 24
3 13419 38
3 13420 11
3 13421 6
3 13422 40
3 13423 45
3 13424 59
3 13425 22
3 13426 14
3 13427 12
3 13428 167
3 13429 9
3 13430 26
3 13431 20
3 13432 59
3 13433 46
3 13434 15
3 13435 6
3 13436 98
3 13437 10
3 13438 19
3 13439 47
3 13440 231
3 13441 34
3 13442 99
3 13443 3
3 13444 9
3 13445 12
3 13446 56
3 13447 73
3 13448 3
3 13449 13
3 13450 19
3 13451 24
3 13452 8
3 13453 8
3 13454 39
3 13455 68
3 13456 15
3 13457 10
3 13458 75
3 13459 13
3 13460 15
3 13461 77
3 13462 23
3 13463 9
3 13464 19
3 13465 8
3 13466 13
3 13467 6
3 13468 45
3 13469 18
3 13470 80
3 13471 5
3 13472 15
3 13473 5
3 13474 13
3 13475 8
3 13476 59
3 13477 6
3 13478 23
3 13479 21
3 13480 5
3 13481 18
3 13482 70
3 13483 15
3 13484 5
3 13485 9
3 13486 10
3 13488 16
3 13489 18
3 13490 9
3 13491 12
3 13492 11
3 13493 30
3 13494 49
3 13495 7
3 13496 10
3 13497 12
3 13498 6
3 13499 14
3 13500 8
3 13501 84
3 13502 45
3 13503 11
3 13504 66
3 13505 23
3 13506 9
3 13507 29
3 13508 9
3 13509 57
3 13510 15
3 13511 6
3 13512 6
3 13513 11
3 13514 22
3 13515 10
3 13516 15
3 13517 12
3 13518 63
3 13519 14
3 13520 21
3 13521 3
3 13522 63
3 13523 694
3 13524 11
3 13525 13
3 13526 6
3 13527 12
3 13528 5
3 13529 6
3 13530 52
3 13531 7
3 13532 5
3 13533 12
3 13534 37
3 13535 31
3 13536 7
3 13537 19
3 13538 22
3 13539 29
3 13540 15
3 13541 63
3 13542 20
3 13543 14
3 13544 28
3 13545 73
3 13546 48
3 13547 8
3 13548 4
3 13549 16
3 13550 8
3 13551 13
3 13552 41
3 13553 13
3 13554 15
3 13555 120
3 13556 6
3 13557 7
3 13558 8
3 13559 70
3 13560 7
3 13561 31
3 13562 17
3 13563 14
3 13564 11
3 13565 15
3 13566 15
3 13567 14
3 13568 3
3 13569 65
3 13570 10
3 13571 10
3 13572 48
3 13573 49
3 13574 8
3 13575 10
3 13576 86
3 13577 8
3 13578 2
3 13579 20
3 13580 6
3 13581 17
3 13582 1218
3 13583 10
3 13584 10
3 13585 75
3 13586 17
3 13587 17
3 13588 5
3 13589 5
3 13590 10
3 13591 14
3 13592 24
3 13593 4
3 13594 7
3 13595 13
3 13596 10
3 13597 10
3 13598 89
3 13599 8
3 13600 16
3 13601 16
3 13602 9
3 13603 19
3 13604 6
3 13605 11
3 13606 8
3 13607 8
3 13608 940
3 13609 17
3 13610 5
3 13611 52
3 13612 9
3 13613 12
3 13614 8
3 13615 8
3 13616 119
3 13617 6
3 13618 59
3 13619 7
3 13620 71
3 13621 9
3 13622 7
3 13623 13
3 13624 51
3 13625 80
3 13626 54
3 13627 38
3 13628 6
3 13629 15
3 13630 6
3 13631 30
3 13632 4
3 13633 30
3 13634 16
3 13635 6
3 13636 14
3 13637 15
3 13638 10
3 13639 823
3 13640 15
3 13641 15
3 13642 5
3 13643 9
3 13644 13
3 13645 14
3 13646 20
3 13647 45
3 13648 16
3 13649 20
3 13650 1275
3 13651 64
3 13652 5
3 13653 4
3 13654 8
3 13655 58
3 13656 7
3 13657 12
3 13658 22
3 13659 28
3 13660 49
3 13661 45
3 13662 16
3 13663 15
3 13664 14
3 13665 11
3 13666 41
3 13667 9
3 13668 14
3 13669 26
3 13670 13
3 13671 7
3 13672 25
3 13673 31
3 13674 28
3 13675 13
3 13676 11
3 13677 2
3 13678 14
3 13679 9
3 13680 6
3 13681 16
3 13682 7
3 13683 135
3 13684 75
3 13685 5
3 13686 116
3 13687 6
3 13688 4
3 13689 8
3 13690 23
3 13691 9
3 13692 10
3 13693 51
3 13694 5
3 13695 26
3 13696 4
3 13697 14
3 13698 47
3 13699 62
3 13700 32
3 13701 28
3 13702 84
3 13703 957
3 13704 7
3 13705 10
3 13706 7
3 13707 9
3 13708 198
3 13709 13
3 13710 10
3 13711 11
3 13712 10
3 13713 83
3 13714 33
3 13715 93
3 13716 13
3 13717 13
3 13718 7
3 13719 8
3 13720 12
3 13721 10
3 13722 4
3 13723 55
3 13724 4
3 13725 6
3 13726 13
3 13727 15
3 13728 13
3 13729 13
3 13730 9
3 13731 4
3 13732 20
3 13733 11
3 13734 10
3 13735 5
3 13736 18
3 13737 21
3 13738 20
3 13739 46
3 13740 56
3 13741 59
3 13742 20
3 13743 7
3 13744 19
3 13745 7
3 13746 83
3 13747 12
3 13748 5
3 13749 12
3 13750 18
3 13751 10
3 13752 36
3 13753 8
3 13754 12
3 13755 8
3 13756 20
3 13757 12
3 13758 8
3 13759 6
3 13760 12
3 13761 37
3 13762 10
3 13763 10
3 13764 7
3 13765 8
3 13766 60
3 13767 39
3 13768 65
3 13769 74
3 13770 19
3 13771 87
3 13772 15
3 13773 6
3 13774 6
3 13775 47
3 13776 48
3 13777 11
3 13778 12
3 13779 65
3 13780 10
3 13781 10
3 13782 55
3 13783 240
3 13784 23
3 13785 8
3 13786 12
3 13787 6
3 13788 14
3 13789 4
3 13790 4
3 13791 10
3 13792 59
3 13793 53
3 13794 11
3 13795 4
3 13796 60
3 13797 18
3 13798 8
3 13799 11
3 13800 15
3 13801 18
3 13802 5
3 13803 10
3 13804 29
3 13805 20
3 13806 12
3 13807 3
3 13808 19
3 13809 15
3 13810 41
3 13811 8
3 13812 13
3 13813 3
3 13814 5
3 13815 9
3 13816 8
3 13817 7
3 13818 18
3 13819 8
3 13820 63
3 13821 9
3 13822 9
3 13823 15
3 13824 25
3 13825 10
3 13826 12
3 13827 11
3 13828 11
3 13829 8
3 13830 40
3 13831 18
3 13832 239
3 13833 32
3 13834 57
3 13835 22
3 13836 65
3 13837 16
3 13838 38
3 13839 8
3 13840 56
3 13841 5
3 13842 58
3 13843 47
3 13844 40
3 13845 13
3 13846 33
3 13847 17
3 13848 14
3 13849 71
3 13850 8
3 13851 20
3 13852 15
3 13853 12
3 13854 10
3 13855 21
3 13856 20
3 13857 11
3 13858 18
3 13859 8
3 13860 18
3 13861 115
3 13862 6
3 13863 14
3 13864 6
3 13865 10
3 13866 10
3 13867 31
3 13868 12
3 13869 9
3 13870 15
3 13871 28
3 13872 3
3 13873 15
3 13874 69
3 13875 31
3 13876 15
3 13877 10
3 13878 74
3 13879 18
3 13880 10
3 13881 25
3 13882 7
3 13883 9
3 13884 11
3 13885 9
3 13886 28
3 13887 10
3 13888 13
3 13889 5
3 13890 14
3 13891 161
3 13892 60
3 13893 12
3 13894 11
3 13895 106
3 13896 55
3 13897 2
3 13898 17
3 13899 12
3 13900 7
3 13901 20
3 13902 3
3 13903 12
3 13904 60
3 13905 10
3 13906 15
3 13907 10
3 13908 10
3 13909 33
3 13910 13
3 13911 5
3 13912 10
3 13913 5
3 13914 13
3 13915 12
3 13916 20
3 13917 11
3 13918 15
3 13919 68
3 13920 67
3 13921 34
3 13922 13
3 13923 10
3 13924 6
3 13925 10
3 13926 8
3 13927 7
3 13928 35
3 13929 84
3 13930 12
3 13931 21
3 13932 4
3 13933 8
3 13934 15
3 13935 6
3 13936 15
3 13937 21
3 13938 10
3 13939 22
3 13940 13
3 13941 41
3 13942 20
3 13943 12
3 13944 41
3 13945 11
3 13946 15
3 13947 15
3 13948 7
3 13949 28
3 13950 6
3 13951 6
3 13952 10
3 13953 5
3 13954 7
3 13955 65
3 13956 9
3 13957 4
3 13958 13
3 13959 58
3 13960 9
3 13961 48
3 13962 10
3 13963 19
3 13964 18
3 13965 7
3 13966 9
3 13967 11
3 13968 5
3 13969 10
3 13970 17
3 13971 10
3 13972 6
3 13973 14
3 13974 147
3 13975 15
3 13976 6
3 13977 9
3 13978 7
3 13979 8
3 13980 9
3 13981 4
3 13982 8
3 13983 76
3 13984 17
3 13985 11
3 13986 10
3 13987 20
3 13988 58
3 13989 16
3 13990 9
3 13991 172
3 13992 19
3 13993 16
3 13994 132
3 13995 10
3 13996 72
3 13997 11
3 13998 14
3 13999 32
3 14000 16
3 14001 5
3 14002 17
3 14003 9
3 14004 4
3 14005 7
3 14006 1
3 14007 10
3 14008 15
3 14009 74
3 14010 36
3 14011 41
3 14012 15
3 14013 14
3 14014 54
3 14015 14
3 14016 20
3 14017 14
3 14018 17
3 14019 19
3 14020 12
3 14021 5
3 14022 34
3 14023 13
3 14024 127
3 14025 8
3 14026 22
3 14027 12
3 14028 17
3 14029 8
3 14030 56
3 14031 9
3 14032 11
3 14033 31
3 14034 13
3 14035 11
3 14036 41
3 14037 5
3 14038 17
3 14039 10
3 14040 54
3 14041 16
3 14042 11
3 14043 8
3 14044 8
3 14045 175
3 14046 22
3 14047 16
3 14048 6
3 14049 10
3 14050 38
3 14051 7
3 14052 15
3 14053 11
3 14054 44
3 14055 4
3 14056 7
3 14057 13
3 14058 9
3 14059 16
3 14060 63
3 14061 10
3 14062 36
3 14063 10
3 14064 91
3 14065 11
3 14066 13
3 14067 17
3 14068 80
3 14069 11
3 14070 10
3 14071 11
3 14072 11
3 14073 160
3 14074 16
3 14075 37
3 14076 10
3 14077 9
3 14078 5
3 14079 2
3 14080 11
3 14081 5
3 14082 67
3 14083 27
3 14084 9
3 14085 52
3 14086 43
3 14087 14
3 14088 18
3 14089 8
3 14090 14
3 14091 11
3 14092 12
3 14093 8
3 14094 47
3 14095 70
3 14096 13
3 14097 72
3 14098 8
3 14099 12
3 14100 72
3 14101 6
3 14102 2
3 14103 51
3 14104 42
3 14105 7
3 14106 6
3 14107 12
3 14108 50
3 14109 8
3 14110 43
3 14111 16
3 14112 12
3 14113 10
3 14114 7
3 14115 58
3 14116 254
3 14117 11
3 14118 5
3 14119 16
3 14120 6
3 14121 33
3 14122 8
3 14123 10
3 14124 11
3 14125 194
3 14126 5
3 14127 41
3 14128 26
3 14129 158
3 14130 3
3 14131 71
3 14132 6
3 14133 52
3 14134 4
3 14135 64
3 14136 8
3 14137 16
3 14138 6
3 14139 15
3 14140 33
3 14141 8
3 14142 360
3 14143 16
3 14144 7
3 14145 18
3 14146 9
3 14147 8
3 14148 12
3 14149 6
3 14150 12
3 14151 8
3 14152 13
3 14153 40
3 14154 15
3 14155 116
3 14156 24
3 14157 12
3 14158 12
3 14159 8
3 14160 13
3 14161 27
3 14162 49
3 14163 85
3 14164 12
3 14165 339
3 14166 13
3 14167 48
3 14168 12
3 14169 18
3 14170 14
3 14171 8
3 14172 13
3 14173 6
3 14174 7
3 14175 15
3 14176 3
3 14177 25
3 14178 16
3 14179 12
3 14180 18
3 14181 26
3 14182 27
3 14183 9
3 14184 31
3 14185 16
3 14186 13
3 14187 58
3 14188 14
3 14189 9
3 14190 41
3 14191 12
3 14192 5
3 14193 9
3 14194 14
3 14195 15
3 14196 5
3 14197 17
3 14198 4
3 14199 9
3 14200 30
3 14201 6
3 14202 15
3 14203 12
3 14204 11
3 14205 17
3 14206 5
3 14207 69
3 14208 19
3 14209 8
3 14210 13
3 14211 8
3 14212 41
3 14213 6
3 14214 17
3 14215 3
3 14216 5
3 14217 9
3 14218 5
3 14219 3
3 14220 45
3 14221 10
3 14222 6
3 14223 4
3 14224 8
3 14225 13
3 14226 8
3 14227 7
3 14228 11
3 14229 11
3 14230 10
3 14231 13
3 14232 54
3 14233 32
3 14234 14
3 14235 3
3 14236 30
3 14237 2
3 14238 8
3 14239 49
3 14240 101
3 14241 74
3 14242 9
3 14243 99
3 14244 55
3 14245 7
3 14246 14
3 14247 17
3 14248 1
3 14249 43
3 14250 6
3 14251 35
3 14252 5
3 14253 23
3 14254 11
3 14255 11
3 14256 109
3 14257 6
3 14258 8
3 14259 65
3 14260 15
3 14261 5
3 14262 5
3 14263 8
3 14264 2
3 14265 18
3 14266 15
3 14267 11
3 14268 4
3 14269 8
3 14270 18
3 14271 15
3 14272 9
3 14273 17
3 14274 124
3 14275 15
3 14276 18
3 14277 80
3 14278 13
3 14279 8
3 14280 8
3 14281 4
3 14282 128
3 14283 12
3 14284 8
3 14285 669
3 14286 18
3 14287 48
3 14288 14
3 14289 9
3 14290 11
3 14291 36
3 14292 68
3 14293 11
3 14294 114
3 14295 15
3 14296 3
3 14297 23
3 14298 9
3 14299 266
3 14300 14
3 14301 6
3 14302 15
3 14303 16
3 14304 63
3 14305 11
3 14306 11
3 14307 5
3 14308 5
3 14309 41
3 14310 7
3 14311 24
3 14312 11
3 14313 11
3 14314 6
3 14315 10
3 14316 10
3 14317 47
3 14318 80
3 14319 8
3 14320 7
3 14321 59
3 14322 12
3 14323 21
3 14324 6
3 14325 9
3 14326 10
3 14327 1015
3 14328 10
3 14329 309
3 14330 9
3 14331 25
3 14332 51
3 14333 151
3 14334 17
3 14335 26
3 14336 15
3 14337 31
3 14338 12
3 14339 34
3 14340 4
3 14341 73
3 14342 7
3 14343 153
3 14344 1
3 14345 11
3 14346 8
3 14347 7
3 14348 10
3 14349 17
3 14350 82
3 14351 8
3 14352 51
3 14353 15
3 14354 5
3 14355 42
3 14356 2
3 14357 56
3 14358 11
3 14359 11
3 14360 13
3 14361 12
3 14362 123
3 14363 11
3 14364 67
3 14365 22
3 14366 10
3 14367 41
3 14368 6
3 14369 13
3 14370 8
3 14371 17
3 14372 7
3 14373 11
3 14374 8
3 14375 42
3 14376 11
3 14377 10
3 14378 8
3 14379 69
3 14380 18
3 14381 141
3 14382 14
3 14383 8
3 14384 12
3 14385 13
3 14386 20
3 14387 24
3 14388 68
3 14389 19
3 14390 72
3 14391 57
3 14392 12
3 14393 8
3 14394 31
3 14395 286
3 14396 10
3 14397 9
3 14398 39
3 14399 14
3 14400 7
3 14401 3
3 14402 1059
3 14403 5
3 14404 62
3 14405 72
3 14406 15
3 14407 11
3 14408 59
3 14409 10
3 14410 9
3 14411 5
3 14412 6
3 14413 9
3 14414 14
3 14415 5
3 14416 24
3 14417 10
3 14418 28
3 14419 10
3 14420 8
3 14421 81
3 14422 53
3 14423 7
3 14424 6
3 14425 4
3 14426 95
3 14427 15
3 14428 45
3 14429 7
3 14430 19
3 14431 11
3 14432 13
3 14433 41
3 14434 13
3 14435 11
3 14436 7
3 14437 18
3 14438 10
3 14439 18
3 14440 13
3 14441 56
3 14442 19
3 14443 5
3 14444 4
3 14445 59
3 14446 57
3 14447 18
3 14448 32
3 14449 39
3 14450 12
3 14451 78
3 14452 6
3 14453 22
3 14454 16
3 14455 13
3 14456 207
3 14457 30
3 14458 77
3 14459 3
3 14460 13
3 14461 16
3 14462 15
3 14463 4
3 14464 11
3 14465 16
3 14466 10
3 14467 60
3 14468 16
3 14469 65
3 14470 12
3 14471 11
3 14472 6
3 14473 17
3 14474 9
3 14475 14
3 14476 10
3 14477 3
3 14478 51
3 14479 69
3 14480 25
3 14481 9
3 14482 10
3 14483 7
3 14484 8
3 14485 9
3 14486 4
3 14487 21
3 14488 11
3 14489 15
3 14490 8
3 14491 38
3 14492 20
3 14493 9
3 14494 15
3 14495 26
3 14496 16
3 14497 28
3 14498 22
3 14499 12
3 14500 4
3 14501 167
3 14502 9
3 14503 133
3 14504 181
3 14505 17
3 14506 36
3 14507 34
3 14508 10
3 14509 9
3 14510 9
3 14511 77
3 14512 11
3 14513 24
3 14514 10
3 14515 7
3 14516 38
3 14517 9
3 14518 58
3 14519 11
3 14520 88
3 14521 33
3 14522 34
3 14523 13
3 14524 23
3 14525 5
3 14526 55
3 14527 11
3 14528 16
3 14529 22
3 14530 2
3 14531 15
3 14532 10
3 14533 14
3 14534 6
3 14535 13
3 14536 11
3 14537 15
3 14538 8
3 14539 12
3 14540 71
3 14541 8
3 14542 18
3 14543 10
3 14544 23
3 14545 10
3 14546 8
3 14547 100
3 14548 15
3 14549 52
3 14550 9
3 14551 8
3 14552 9
3 14553 2
3 14554 10
3 14555 6
3 14556 7
3 14557 7
3 14558 8
3 14559 14
3 14560 2
3 14561 7
3 14562 6
3 14563 9
3 14564 32
3 14565 19
3 14566 7
3 14567 11
3 14568 22
3 14569 18
3 14570 19
3 14571 11
3 14572 89
3 14573 60
3 14574 661
3 14575 6
3 14576 33
3 14577 12
3 14578 22
3 14579 69
3 14580 14
3 14581 6
3 14582 7
3 14583 16
3 14584 9
3 14585 4
3 14586 2
3 14587 7
3 14588 113
3 14589 17
3 14590 70
3 14591 19
3 14592 6
3 14593 13
3 14594 19
3 14595 30
3 14596 9
3 14597 53
3 14598 28
3 14599 16
3 14600 16
3 14601 7
3 14602 7
3 14603 11
3 14604 5
3 14605 17
3 14606 9
3 14607 11
3 14608 12
3 14609 121
3 14610 11
3 14611 10
3 14612 51
3 14613 12
3 14614 6
3 14615 7
3 14616 15
3 14617 73
3 14618 109
3 14619 7
3 14620 35
3 14621 7
3 14622 11
3 14623 5
3 14624 45
3 14625 5
3 14626 44
3 14627 2
3 14628 56
3 14629 7
3 14630 152
3 14631 17
3 14632 6
3 14633 13
3 14634 5
3 14635 13
3 14636 7
3 14637 9
3 14638 15
3 14639 7
3 14640 7
3 14641 8
3 14642 48
3 14643 14
3 14644 94
3 14645 7
3 14646 5
3 14647 12
3 14648 60
3 14649 18
3 14650 8
3 14651 19
3 14652 5
3 14653 11
3 14654 6
3 14655 19
3 14656 75
3 14657 5
3 14658 8
3 14659 19
3 14660 9
3 14661 8
3 14662 12
3 14663 17
3 14664 12
3 14665 13
3 14666 6
3 14667 10
3 14668 57
3 14669 6
3 14670 5
3 14671 6
3 14672 12
3 14673 4
3 14674 8
3 14675 6
3 14676 19
3 14677 7
3 14678 5
3 14679 14
3 14680 9
3 14681 7
3 14682 13
3 14683 13
3 14684 19
3 14685 13
3 14686 15
3 14687 16
3 14688 9
3 14689 16
3 14690 4
3 14691 17
3 14692 5
3 14693 15
3 14694 6
3 14695 42
3 14696 9
3 14697 10
3 14698 13
3 14699 15
3 14700 10
3 14701 7
3 14702 12
3 14703 6
3 14704 29
3 14705 25
3 14706 10
3 14707 19
3 14708 67
3 14709 38
3 14710 21
3 14711 66
3 14712 12
3 14713 14
3 14714 10
3 14715 14
3 14716 82
3 14717 6
3 14718 13
3 14719 6
3 14720 16
3 14721 6
3 14722 15
3 14723 7
3 14724 30
3 14725 14
3 14726 13
3 14727 7
3 14728 115
3 14729 10
3 14730 10
3 14731 14
3 14732 78
3 14733 3
3 14734 5
3 14735 13
3 14736 6
3 14737 25
3 14738 5
3 14739 4
3 14740 9
3 14741 8
3 14742 989
3 14743 13
3 14744 10
3 14745 22
3 14746 14
3 14747 4
3 14748 9
3 14749 93
3 14750 23
3 14751 87
3 14752 13
3 14753 77
3 14754 8
3 14755 13
3 14756 32
3 14757 7
3 14758 37
3 14759 67
3 14760 13
3 14761 15
3 14762 16
3 14763 10
3 14764 7
3 14765 38
3 14766 10
3 14767 63
3 14768 18
3 14769 7
3 14770 22
3 14771 4
3 14772 9
